BEGIN IONS
PEPMASS=189.103
CHARGE=1+
MSLEVEL=2
SOURCE_INSTRUMENT=Negative-Quattro_QQQ:10eV
FILENAME=hmdb_intermediate.mgf
SEQ=*..*
IONMODE=Negative
ORGANISM=HMDB
NAME=HMDB:HMDB04095-2361 5-Methoxytryptamine M-H
PI=HMDB
DATACOLLECTOR=HMDB
SMILES=COC1=CC2=C(NC=C2CCN)C=C1
INCHI=InChI=1S/C11H14N2O/c1-14-9-2-3-11-10(6-9)8(4-5-12)7-13-11/h2-3,6-7,13H,4-5,12H2,1H3
INCHIAUX=N/A
PUBMED=N/A
SUBMITUSER=mwang87
TAGS=
LIBRARYQUALITY=3
SPECTRUMID=CCMSLIB00000425029
SCANS=1
143.0 7.605 
173.0 100.0 
175.0 3.178 
188.0 87.625 
END IONS

BEGIN IONS
PEPMASS=223.075
CHARGE=1+
MSLEVEL=2
SOURCE_INSTRUMENT=Positive-Quattro_QQQ:10eV
FILENAME=hmdb_intermediate.mgf
SEQ=*..*
IONMODE=Positive
ORGANISM=HMDB
NAME=HMDB:HMDB00099-156 L-Cystathionine M+H
PI=HMDB
DATACOLLECTOR=HMDB
SMILES=N[C@@H](CCSC[C@H](N)C(O)=O)C(O)=O
INCHI=InChI=1S/C7H14N2O4S/c8-4(6(10)11)1-2-14-3-5(9)7(12)13/h4-5H,1-3,8-9H2,(H,10,11)(H,12,13)/t4-,5-/m0/s1
INCHIAUX=N/A
PUBMED=N/A
SUBMITUSER=mwang87
TAGS=
LIBRARYQUALITY=3
SPECTRUMID=CCMSLIB00000425030
SCANS=2
56.261 5.478 
88.097 9.877 
133.997 100.0 
177.012 3.318 
222.983 91.975 
END IONS

BEGIN IONS
PEPMASS=307.978
CHARGE=1+
MSLEVEL=2
SOURCE_INSTRUMENT=Positive-Quattro_QQQ:40eV
FILENAME=hmdb_intermediate.mgf
SEQ=*..*
IONMODE=Positive
ORGANISM=HMDB
NAME=HMDB:HMDB00021-38 Iodotyrosine M+H
PI=HMDB
DATACOLLECTOR=HMDB
SMILES=N[C@@H](CC1=CC=C(O)C(I)=C1)C(O)=O
INCHI=InChI=1S/C9H10INO3/c10-6-3-5(1-2-8(6)12)4-7(11)9(13)14/h1-3,7,12H,4,11H2,(H,13,14)/t7-/m0/s1
INCHIAUX=N/A
PUBMED=N/A
SUBMITUSER=mwang87
TAGS=
LIBRARYQUALITY=3
SPECTRUMID=CCMSLIB00000425031
SCANS=3
94.035 47.917 
106.854 28.935 
118.003 21.296 
134.711 100.0 
248.732 8.912 
261.798 11.69 
END IONS

BEGIN IONS
PEPMASS=271.17
CHARGE=1+
MSLEVEL=2
SOURCE_INSTRUMENT=Positive-Quattro_QQQ:10eV
FILENAME=hmdb_intermediate.mgf
SEQ=*..*
IONMODE=Positive
ORGANISM=HMDB
NAME=HMDB:HMDB00145-218 Estrone M+H
PI=HMDB
DATACOLLECTOR=HMDB
SMILES=[H][C@@]12CCC(=O)[C@@]1(C)CC[C@]1([H])C3=C(CC[C@@]21[H])C=C(O)C=C3
INCHI=InChI=1S/C18H22O2/c1-18-9-8-14-13-5-3-12(19)10-11(13)2-4-15(14)16(18)6-7-17(18)20/h3,5,10,14-16,19H,2,4,6-9H2,1H3/t14-,15-,16+,18+/m1/s1
INCHIAUX=N/A
PUBMED=N/A
SUBMITUSER=mwang87
TAGS=
LIBRARYQUALITY=3
SPECTRUMID=CCMSLIB00000425032
SCANS=4
199.0 15.265 
271.0 100.0 
END IONS

BEGIN IONS
PEPMASS=343.124
CHARGE=1+
MSLEVEL=2
SOURCE_INSTRUMENT=Positive-Quattro_QQQ:25eV
FILENAME=hmdb_intermediate.mgf
SEQ=*..*
IONMODE=Positive
ORGANISM=HMDB
NAME=HMDB:HMDB00258-449 Sucrose M+H
PI=HMDB
DATACOLLECTOR=HMDB
SMILES=OC[C@H]1O[C@@](CO)(O[C@H]2O[C@H](CO)[C@@H](O)[C@H](O)[C@H]2O)[C@@H](O)[C@@H]1O
INCHI=InChI=1S/C12H22O11/c13-1-4-6(16)8(18)9(19)11(21-4)23-12(3-15)10(20)7(17)5(2-14)22-12/h4-11,13-20H,1-3H2/t4-,5-,6-,7-,8+,9-,10+,11-,12+/m1/s1
INCHIAUX=N/A
PUBMED=N/A
SUBMITUSER=mwang87
TAGS=
LIBRARYQUALITY=3
SPECTRUMID=CCMSLIB00000425033
SCANS=5
55.239 6.379 
69.118 11.724 
85.059 100.0 
97.026 19.138 
108.994 5.302 
114.982 5.129 
126.974 55.172 
144.97 31.552 
162.881 13.103 
END IONS

BEGIN IONS
PEPMASS=385.347
CHARGE=1+
MSLEVEL=2
SOURCE_INSTRUMENT=Positive-Quattro_QQQ:25eV
FILENAME=hmdb_intermediate.mgf
SEQ=*..*
IONMODE=Positive
ORGANISM=HMDB
NAME=HMDB:HMDB00032-52 7-Dehydrocholesterol M+H
PI=HMDB
DATACOLLECTOR=HMDB
SMILES=[H][C@@]12CC[C@H]([C@H](C)CCCC(C)C)[C@@]1(C)CC[C@@]1([H])C2=CC=C2C[C@@H](O)CC[C@]12C
INCHI=InChI=1S/C27H44O/c1-18(2)7-6-8-19(3)23-11-12-24-22-10-9-20-17-21(28)13-15-26(20,4)25(22)14-16-27(23,24)5/h9-10,18-19,21,23-25,28H,6-8,11-17H2,1-5H3/t19-,21+,23-,24+,25+,26+,27-/m1/s1
INCHIAUX=N/A
PUBMED=N/A
SUBMITUSER=mwang87
TAGS=
LIBRARYQUALITY=3
SPECTRUMID=CCMSLIB00000425034
SCANS=6
43.315 18.02 
57.193 45.685 
69.167 70.558 
81.111 83.756 
85.037 38.579 
95.201 70.558 
109.136 56.853 
121.033 43.655 
132.947 35.533 
135.008 31.091 
146.953 42.132 
159.094 58.376 
172.821 47.716 
175.124 30.838 
187.18 36.041 
198.768 57.868 
212.855 56.853 
214.932 32.995 
226.934 51.777 
237.11 34.518 
254.22 22.462 
255.048 45.178 
325.076 19.797 
339.315 19.162 
349.47 22.081 
367.233 62.944 
385.161 100.0 
END IONS

BEGIN IONS
PEPMASS=464.082
CHARGE=1+
MSLEVEL=2
SOURCE_INSTRUMENT=Positive-Quattro_QQQ:10eV
FILENAME=hmdb_intermediate.mgf
SEQ=*..*
IONMODE=Positive
ORGANISM=HMDB
NAME=HMDB:HMDB00536-758 Adenylsuccinic acid M+H
PI=HMDB
DATACOLLECTOR=HMDB
SMILES=O[C@@H]1[C@@H](COP(O)(O)=O)O[C@H]([C@@H]1O)N1C=NC2=C1N=CN=C2NC(CC(O)=O)C(O)=O
INCHI=InChI=1S/C14H18N5O11P/c20-7(21)1-5(14(24)25)18-11-8-12(16-3-15-11)19(4-17-8)13-10(23)9(22)6(30-13)2-29-31(26,27)28/h3-6,9-10,13,22-23H,1-2H2,(H,20,21)(H,24,25)(H,15,16,18)(H2,26,27,28)/t5?,6-,9-,10-,13-/m1/s1
INCHIAUX=N/A
PUBMED=N/A
SUBMITUSER=mwang87
TAGS=
LIBRARYQUALITY=3
SPECTRUMID=CCMSLIB00000425035
SCANS=7
251.0 65.439 
387.0 3.697 
431.0 2.281 
464.0 100.0 
465.0 38.559 
END IONS

BEGIN IONS
PEPMASS=129.019
CHARGE=1+
MSLEVEL=2
SOURCE_INSTRUMENT=Negative-Quattro_QQQ:10eV
FILENAME=hmdb_intermediate.mgf
SEQ=*..*
IONMODE=Negative
ORGANISM=HMDB
NAME=HMDB:HMDB00620-837 Glutaconic acid M-H
PI=HMDB
DATACOLLECTOR=HMDB
SMILES=OC(=O)C\C=C\C(O)=O
INCHI=InChI=1S/C5H6O4/c6-4(7)2-1-3-5(8)9/h1-2H,3H2,(H,6,7)(H,8,9)/b2-1+
INCHIAUX=N/A
PUBMED=N/A
SUBMITUSER=mwang87
TAGS=
LIBRARYQUALITY=3
SPECTRUMID=CCMSLIB00000425036
SCANS=8
41.317 16.447 
85.036 100.0 
128.921 2.237 
END IONS

BEGIN IONS
PEPMASS=91.0395
CHARGE=1+
MSLEVEL=2
SOURCE_INSTRUMENT=Positive-Quattro_QQQ:25eV
FILENAME=hmdb_intermediate.mgf
SEQ=*..*
IONMODE=Positive
ORGANISM=HMDB
NAME=HMDB:HMDB00700-976 Hydroxypropionic acid M+H
PI=HMDB
DATACOLLECTOR=HMDB
SMILES=OCCC(O)=O
INCHI=InChI=1S/C3H6O3/c4-2-1-3(5)6/h4H,1-2H2,(H,5,6)
INCHIAUX=N/A
PUBMED=N/A
SUBMITUSER=mwang87
TAGS=
LIBRARYQUALITY=3
SPECTRUMID=CCMSLIB00000425037
SCANS=9
54.152 10.812 
55.397 28.713 
73.322 100.0 
91.496 52.287 
END IONS

BEGIN IONS
PEPMASS=260.186
CHARGE=1+
MSLEVEL=2
SOURCE_INSTRUMENT=Positive-Quattro_QQQ:10eV
FILENAME=hmdb_intermediate.mgf
SEQ=*..*
IONMODE=Positive
ORGANISM=HMDB
NAME=HMDB:HMDB00705-984 Hexanoylcarnitine M+H
PI=HMDB
DATACOLLECTOR=HMDB
SMILES=CCCCCC(=O)OC(CC([O-])=O)C[N+](C)(C)C
INCHI=InChI=1S/C13H25NO4/c1-5-6-7-8-13(17)18-11(9-12(15)16)10-14(2,3)4/h11H,5-10H2,1-4H3
INCHIAUX=N/A
PUBMED=N/A
SUBMITUSER=mwang87
TAGS=
LIBRARYQUALITY=3
SPECTRUMID=CCMSLIB00000425038
SCANS=10
60.437 17.549 
85.247 74.118 
99.242 5.221 
144.142 1.863 
201.043 37.647 
260.119 100.0 
END IONS

BEGIN IONS
PEPMASS=130.05
CHARGE=1+
MSLEVEL=2
SOURCE_INSTRUMENT=Positive-Quattro_QQQ:40eV
FILENAME=hmdb_intermediate.mgf
SEQ=*..*
IONMODE=Positive
ORGANISM=HMDB
NAME=HMDB:HMDB00805-1149 Pyrrolidonecarboxylic acid M+H
PI=HMDB
DATACOLLECTOR=HMDB
SMILES=OC(=O)C1CCC(=O)N1
INCHI=InChI=1S/C5H7NO3/c7-4-2-1-3(6-4)5(8)9/h3H,1-2H2,(H,6,7)(H,8,9)
INCHIAUX=N/A
PUBMED=N/A
SUBMITUSER=mwang87
TAGS=
LIBRARYQUALITY=3
SPECTRUMID=CCMSLIB00000425039
SCANS=11
41.681 46.753 
44.563 15.828 
56.451 100.0 
84.357 74.026 
130.28 7.143 
END IONS

BEGIN IONS
PEPMASS=188.071
CHARGE=1+
MSLEVEL=2
SOURCE_INSTRUMENT=Positive-Quattro_QQQ:25eV
FILENAME=hmdb_intermediate.mgf
SEQ=*..*
IONMODE=Positive
ORGANISM=HMDB
NAME=HMDB:HMDB00734-1039 Indoleacrylic acid M+H
PI=HMDB
DATACOLLECTOR=HMDB
SMILES=OC(=O)\C=C\C1=CC2=C(N1)C=CC=C2
INCHI=InChI=1S/C11H9NO2/c13-11(14)6-5-9-7-8-3-1-2-4-10(8)12-9/h1-7,12H,(H,13,14)/b6-5+
INCHIAUX=N/A
PUBMED=N/A
SUBMITUSER=mwang87
TAGS=
LIBRARYQUALITY=3
SPECTRUMID=CCMSLIB00000425040
SCANS=12
114.425 63.408 
114.804 96.477 
141.839 99.705 
169.76 100.0 
187.575 13.707 
END IONS

BEGIN IONS
PEPMASS=173.093
CHARGE=1+
MSLEVEL=2
SOURCE_INSTRUMENT=Positive-Quattro_QQQ:25eV
FILENAME=hmdb_intermediate.mgf
SEQ=*..*
IONMODE=Positive
ORGANISM=HMDB
NAME=HMDB:HMDB00721-1015 Glycylproline M+H
PI=HMDB
DATACOLLECTOR=HMDB
SMILES=NCC(=O)N1CCCC1C(O)=O
INCHI=InChI=1S/C7H12N2O3/c8-4-6(10)9-3-1-2-5(9)7(11)12/h5H,1-4,8H2,(H,11,12)
INCHIAUX=N/A
PUBMED=N/A
SUBMITUSER=mwang87
TAGS=
LIBRARYQUALITY=3
SPECTRUMID=CCMSLIB00000425041
SCANS=13
70.442 80.956 
115.99 100.0 
172.963 39.701 
END IONS

BEGIN IONS
PEPMASS=384.151
CHARGE=1+
MSLEVEL=2
SOURCE_INSTRUMENT=Positive-Quattro_QQQ:10eV
FILENAME=hmdb_intermediate.mgf
SEQ=*..*
IONMODE=Positive
ORGANISM=HMDB
NAME=HMDB:HMDB01542-1637 N-Acetyllactosamine M+H
PI=HMDB
DATACOLLECTOR=HMDB
SMILES=CC(=O)N[C@H]1[C@H](O)O[C@H](CO)[C@@H](O[C@@H]2O[C@H](CO)[C@H](O)[C@H](O)[C@H]2O)[C@@H]1O
INCHI=InChI=1S/C14H25NO11/c1-4(18)15-7-9(20)12(6(3-17)24-13(7)23)26-14-11(22)10(21)8(19)5(2-16)25-14/h5-14,16-17,19-23H,2-3H2,1H3,(H,15,18)/t5-,6-,7-,8+,9-,10+,11-,12-,13-,14+/m1/s1
INCHIAUX=N/A
PUBMED=N/A
SUBMITUSER=mwang87
TAGS=
LIBRARYQUALITY=3
SPECTRUMID=CCMSLIB00000425042
SCANS=14
126.0 9.023 
138.0 11.826 
168.0 28.774 
186.0 10.315 
204.0 99.859 
222.0 100.0 
366.0 39.232 
384.0 37.4 
385.0 6.533 
END IONS

BEGIN IONS
PEPMASS=231.027
CHARGE=1+
MSLEVEL=2
SOURCE_INSTRUMENT=Positive-Quattro_QQQ:10eV
FILENAME=hmdb_intermediate.mgf
SEQ=*..*
IONMODE=Positive
ORGANISM=HMDB
NAME=HMDB:HMDB01548-1649 D-Ribose 5-phosphate M+H
PI=HMDB
DATACOLLECTOR=HMDB
SMILES=OC1O[C@H](COP(O)(O)=O)[C@@H](O)[C@H]1O
INCHI=InChI=1S/C5H11O8P/c6-3-2(1-12-14(9,10)11)13-5(8)4(3)7/h2-8H,1H2,(H2,9,10,11)/t2-,3-,4-,5?/m1/s1
INCHIAUX=N/A
PUBMED=N/A
SUBMITUSER=mwang87
TAGS=
LIBRARYQUALITY=3
SPECTRUMID=CCMSLIB00000425043
SCANS=15
73.0 10.419 
97.0 100.0 
115.0 18.161 
133.0 21.412 
151.0 4.359 
167.0 3.337 
199.0 7.692 
213.0 18.88 
231.0 19.181 
END IONS

BEGIN IONS
PEPMASS=138.079
CHARGE=1+
MSLEVEL=2
SOURCE_INSTRUMENT=Positive-Quattro_QQQ:10eV
FILENAME=hmdb_intermediate.mgf
SEQ=*..*
IONMODE=Positive
ORGANISM=HMDB
NAME=HMDB:HMDB00699-972 1-Methylnicotinamide M+H
PI=HMDB
DATACOLLECTOR=HMDB
SMILES=C[N+]1=CC=CC(=C1)C(N)=O
INCHI=InChI=1S/C7H8N2O/c1-9-4-2-3-6(5-9)7(8)10/h2-5H,1H3,(H-,8,10)/p+1
INCHIAUX=N/A
PUBMED=N/A
SUBMITUSER=mwang87
TAGS=
LIBRARYQUALITY=3
SPECTRUMID=CCMSLIB00000425044
SCANS=16
94.0 5.268 
137.0 100.0 
END IONS

BEGIN IONS
PEPMASS=282.12
CHARGE=1+
MSLEVEL=2
SOURCE_INSTRUMENT=Positive-Quattro_QQQ:10eV
FILENAME=hmdb_intermediate.mgf
SEQ=*..*
IONMODE=Positive
ORGANISM=HMDB
NAME=HMDB:HMDB03331-2245 1-Methyladenosine M+H
PI=HMDB
DATACOLLECTOR=HMDB
SMILES=CN1C=NC2=C(N=CN2[C@@H]2O[C@H](CO)[C@@H](O)[C@H]2O)C1=N
INCHI=InChI=1S/C11H15N5O4/c1-15-3-14-10-6(9(15)12)13-4-16(10)11-8(19)7(18)5(2-17)20-11/h3-5,7-8,11-12,17-19H,2H2,1H3/t5-,7-,8-,11-/m1/s1
INCHIAUX=N/A
PUBMED=N/A
SUBMITUSER=mwang87
TAGS=
LIBRARYQUALITY=3
SPECTRUMID=CCMSLIB00000425045
SCANS=17
150.0 100.0 
282.0 100.0 
END IONS

BEGIN IONS
PEPMASS=411.399
CHARGE=1+
MSLEVEL=2
SOURCE_INSTRUMENT=Positive-Quattro_QQQ:25eV
FILENAME=hmdb_intermediate.mgf
SEQ=*..*
IONMODE=Positive
ORGANISM=HMDB
NAME=HMDB:HMDB00256-443 Squalene M+H
PI=HMDB
DATACOLLECTOR=HMDB
SMILES=CC(C)=CCC\C(C)=C/CC\C(C)=C\CC\C=C(/C)CC\C=C(/C)CCC=C(C)C
INCHI=InChI=1S/C30H50/c1-25(2)15-11-19-29(7)23-13-21-27(5)17-9-10-18-28(6)22-14-24-30(8)20-12-16-26(3)4/h15-18,23-24H,9-14,19-22H2,1-8H3/b27-17+,28-18+,29-23-,30-24+
INCHIAUX=N/A
PUBMED=N/A
SUBMITUSER=mwang87
TAGS=
LIBRARYQUALITY=3
SPECTRUMID=CCMSLIB00000425046
SCANS=18
62.083 16.312 
69.569 12.766 
84.419 12.766 
91.783 14.184 
99.393 16.312 
113.63 14.894 
124.308 14.894 
129.586 13.475 
139.283 15.603 
149.593 13.475 
164.323 14.894 
164.568 14.184 
184.209 15.603 
239.083 12.766 
246.449 14.184 
279.23 14.184 
287.579 41.844 
299.121 14.894 
309.312 13.475 
324.047 16.312 
334.116 12.766 
344.185 12.766 
344.554 14.184 
368.991 14.184 
379.306 15.603 
396.376 14.184 
439.116 15.603 
459.381 16.312 
468.961 12.766 
476.208 12.766 
489.105 100.0 
END IONS

BEGIN IONS
PEPMASS=105.019
CHARGE=1+
MSLEVEL=2
SOURCE_INSTRUMENT=Negative-Quattro_QQQ:25eV
FILENAME=hmdb_intermediate.mgf
SEQ=*..*
IONMODE=Negative
ORGANISM=HMDB
NAME=HMDB:HMDB00139-213 Glyceric acid M-H
PI=HMDB
DATACOLLECTOR=HMDB
SMILES=OC[C@@H](O)C(O)=O
INCHI=InChI=1S/C3H6O4/c4-1-2(5)3(6)7/h2,4-5H,1H2,(H,6,7)/t2-/m1/s1
INCHIAUX=N/A
PUBMED=N/A
SUBMITUSER=mwang87
TAGS=
LIBRARYQUALITY=3
SPECTRUMID=CCMSLIB00000425047
SCANS=19
43.26 33.03 
45.195 40.606 
57.119 72.727 
74.967 36.818 
104.758 100.0 
END IONS

BEGIN IONS
PEPMASS=174.113
CHARGE=1+
MSLEVEL=2
SOURCE_INSTRUMENT=Positive-Quattro_QQQ:25eV
FILENAME=hmdb_intermediate.mgf
SEQ=*..*
IONMODE=Positive
ORGANISM=HMDB
NAME=HMDB:HMDB00701-979 Hexanoylglycine M+H
PI=HMDB
DATACOLLECTOR=HMDB
SMILES=CCCCCC(=O)NCC(O)=O
INCHI=InChI=1S/C8H15NO3/c1-2-3-4-5-7(10)9-6-8(11)12/h2-6H2,1H3,(H,9,10)(H,11,12)
INCHIAUX=N/A
PUBMED=N/A
SUBMITUSER=mwang87
TAGS=
LIBRARYQUALITY=3
SPECTRUMID=CCMSLIB00000425048
SCANS=20
43.656 100.0 
71.426 26.104 
76.344 12.851 
99.309 3.112 
END IONS

BEGIN IONS
PEPMASS=112.051
CHARGE=1+
MSLEVEL=2
SOURCE_INSTRUMENT=Positive-Quattro_QQQ:40eV
FILENAME=hmdb_intermediate.mgf
SEQ=*..*
IONMODE=Positive
ORGANISM=HMDB
NAME=HMDB:HMDB00630-860 Cytosine M+H
PI=HMDB
DATACOLLECTOR=HMDB
SMILES=NC1=CC=NC(=O)N1
INCHI=InChI=1S/C4H5N3O/c5-3-1-2-6-4(8)7-3/h1-2H,(H3,5,6,7,8)
INCHIAUX=N/A
PUBMED=N/A
SUBMITUSER=mwang87
TAGS=
LIBRARYQUALITY=3
SPECTRUMID=CCMSLIB00000425049
SCANS=21
40.306 100.0 
52.191 71.875 
67.12 36.111 
94.718 57.639 
111.75 44.097 
END IONS

BEGIN IONS
PEPMASS=287.201
CHARGE=1+
MSLEVEL=2
SOURCE_INSTRUMENT=Positive-Quattro_QQQ:10eV
FILENAME=hmdb_intermediate.mgf
SEQ=*..*
IONMODE=Positive
ORGANISM=HMDB
NAME=HMDB:HMDB00053-84 Androstenedione M+H
PI=HMDB
DATACOLLECTOR=HMDB
SMILES=[H][C@@]12CCC(=O)[C@@]1(C)CC[C@@]1([H])[C@@]2([H])CCC2=CC(=O)CC[C@]12C
INCHI=InChI=1S/C19H26O2/c1-18-9-7-13(20)11-12(18)3-4-14-15-5-6-17(21)19(15,2)10-8-16(14)18/h11,14-16H,3-10H2,1-2H3/t14-,15-,16-,18-,19-/m0/s1
INCHIAUX=N/A
PUBMED=N/A
SUBMITUSER=mwang87
TAGS=
LIBRARYQUALITY=3
SPECTRUMID=CCMSLIB00000425050
SCANS=22
96.0 8.454 
108.0 3.644 
228.0 1.477 
268.0 1.593 
286.0 100.0 
END IONS

BEGIN IONS
PEPMASS=500.305
CHARGE=1+
MSLEVEL=2
SOURCE_INSTRUMENT=Positive-Quattro_QQQ:40eV
FILENAME=hmdb_intermediate.mgf
SEQ=*..*
IONMODE=Positive
ORGANISM=HMDB
NAME=HMDB:HMDB00896-1267 Taurodeoxycholic acid M+H
PI=HMDB
DATACOLLECTOR=HMDB
SMILES=[H][C@@]1(CC[C@@]2([H])[C@]3([H])CC[C@]4([H])C[C@H](O)CC[C@]4(C)[C@@]3([H])C[C@H](O)[C@]12C)[C@H](C)CCC(=O)NCCS(O)(=O)=O
INCHI=InChI=1S/C26H45NO6S/c1-16(4-9-24(30)27-12-13-34(31,32)33)20-7-8-21-19-6-5-17-14-18(28)10-11-25(17,2)22(19)15-23(29)26(20,21)3/h16-23,28-29H,4-15H2,1-3H3,(H,27,30)(H,31,32,33)/t16-,17-,18-,19+,20-,21+,22+,23+,25+,26-/m1/s1
INCHIAUX=N/A
PUBMED=N/A
SUBMITUSER=mwang87
TAGS=
LIBRARYQUALITY=3
SPECTRUMID=CCMSLIB00000425051
SCANS=23
57.594 7.846 
67.585 10.335 
82.004 7.345 
84.533 100.0 
97.055 8.84 
106.162 6.848 
128.298 6.848 
135.128 5.353 
150.181 6.351 
155.494 9.838 
174.343 5.353 
179.782 5.85 
193.066 9.337 
202.68 8.84 
209.638 5.85 
219.507 5.353 
232.158 7.345 
241.774 5.85 
248.48 6.351 
261.512 7.846 
268.091 7.345 
291.373 5.85 
296.814 6.351 
308.835 5.353 
315.162 5.353 
332.625 5.85 
342.116 5.85 
350.088 6.351 
361.857 5.85 
373.5 9.337 
379.701 8.343 
386.029 9.838 
397.166 9.838 
409.316 12.327 
420.833 9.337 
425.643 5.85 
441.97 31.257 
444.501 5.353 
459.057 6.351 
473.486 6.848 
482.726 10.832 
492.726 8.84 
497.789 9.838 
505.004 5.353 
516.396 6.351 
526.776 5.85 
539.054 5.85 
550.7 7.846 
561.966 5.353 
567.663 5.353 
574.498 7.846 
END IONS

BEGIN IONS
PEPMASS=151.061
CHARGE=1+
MSLEVEL=2
SOURCE_INSTRUMENT=Positive-Quattro_QQQ:40eV
FILENAME=hmdb_intermediate.mgf
SEQ=*..*
IONMODE=Positive
ORGANISM=HMDB
NAME=HMDB:HMDB01644-1668 D-Xylulose M+H
PI=HMDB
DATACOLLECTOR=HMDB
SMILES=OC[C@@H](O)[C@H](O)C(=O)CO
INCHI=InChI=1S/C5H10O5/c6-1-3(8)5(10)4(9)2-7/h3,5-8,10H,1-2H2/t3-,5+/m1/s1
INCHIAUX=N/A
PUBMED=N/A
SUBMITUSER=mwang87
TAGS=
LIBRARYQUALITY=3
SPECTRUMID=CCMSLIB00000425052
SCANS=24
68.0 100.0 
END IONS

BEGIN IONS
PEPMASS=181.05
CHARGE=1+
MSLEVEL=2
SOURCE_INSTRUMENT=Negative-Quattro_QQQ:40eV
FILENAME=hmdb_intermediate.mgf
SEQ=*..*
IONMODE=Negative
ORGANISM=HMDB
NAME=HMDB:HMDB00118-170 Homovanillic acid M-H
PI=HMDB
DATACOLLECTOR=HMDB
SMILES=COC1=CC(CC(O)=O)=CC=C1O
INCHI=InChI=1S/C9H10O4/c1-13-8-4-6(5-9(11)12)2-3-7(8)10/h2-4,10H,5H2,1H3,(H,11,12)
INCHIAUX=N/A
PUBMED=N/A
SUBMITUSER=mwang87
TAGS=
LIBRARYQUALITY=3
SPECTRUMID=CCMSLIB00000425053
SCANS=25
41.652 10.76 
51.546 9.665 
65.439 22.165 
77.363 35.309 
93.32 100.0 
94.583 8.441 
108.188 13.338 
121.639 69.072 
137.3 16.302 
181.201 8.634 
END IONS

BEGIN IONS
PEPMASS=238.094
CHARGE=1+
MSLEVEL=2
SOURCE_INSTRUMENT=Positive-Quattro_QQQ:40eV
FILENAME=hmdb_intermediate.mgf
SEQ=*..*
IONMODE=Positive
ORGANISM=HMDB
NAME=HMDB:HMDB00238-402 Sepiapterin M+H
PI=HMDB
DATACOLLECTOR=HMDB
SMILES=C[C@H](O)C(=O)C1=NC2=C(NC1)NC(N)=NC2=O
INCHI=InChI=1S/C9H11N5O3/c1-3(15)6(16)4-2-11-7-5(12-4)8(17)14-9(10)13-7/h3,15H,2H2,1H3,(H4,10,11,13,14,17)/t3-/m0/s1
INCHIAUX=N/A
PUBMED=N/A
SUBMITUSER=mwang87
TAGS=
LIBRARYQUALITY=3
SPECTRUMID=CCMSLIB00000425054
SCANS=26
72.367 35.899 
93.129 34.967 
104.129 41.101 
109.814 42.401 
124.398 100.0 
157.523 20.474 
166.299 51.134 
END IONS

BEGIN IONS
PEPMASS=74.0606
CHARGE=1+
MSLEVEL=2
SOURCE_INSTRUMENT=Positive-Quattro_QQQ:10eV
FILENAME=hmdb_intermediate.mgf
SEQ=*..*
IONMODE=Positive
ORGANISM=HMDB
NAME=HMDB:HMDB01888-1789 N,N-Dimethylformamide M+H
PI=HMDB
DATACOLLECTOR=HMDB
SMILES=CN(C)C=O
INCHI=InChI=1S/C3H7NO/c1-4(2)3-5/h3H,1-2H3
INCHIAUX=N/A
PUBMED=N/A
SUBMITUSER=mwang87
TAGS=
LIBRARYQUALITY=3
SPECTRUMID=CCMSLIB00000425055
SCANS=27
46.14 14.273 
73.95 100.0 
END IONS

BEGIN IONS
PEPMASS=159.066
CHARGE=1+
MSLEVEL=2
SOURCE_INSTRUMENT=Negative-Quattro_QQQ:40eV
FILENAME=hmdb_intermediate.mgf
SEQ=*..*
IONMODE=Negative
ORGANISM=HMDB
NAME=HMDB:HMDB00857-1207 Pimelic acid M-H
PI=HMDB
DATACOLLECTOR=HMDB
SMILES=OC(=O)CCCCCC(O)=O
INCHI=InChI=1S/C7H12O4/c8-6(9)4-2-1-3-5-7(10)11/h1-5H2,(H,8,9)(H,10,11)
INCHIAUX=N/A
PUBMED=N/A
SUBMITUSER=mwang87
TAGS=
LIBRARYQUALITY=3
SPECTRUMID=CCMSLIB00000425056
SCANS=28
41.351 58.261 
54.251 52.174 
59.235 12.88 
69.149 58.261 
93.099 16.739 
95.05 100.0 
115.126 9.348 
141.044 7.935 
158.91 54.13 
END IONS

BEGIN IONS
PEPMASS=183.066
CHARGE=1+
MSLEVEL=2
SOURCE_INSTRUMENT=Positive-Quattro_QQQ:40eV
FILENAME=hmdb_intermediate.mgf
SEQ=*..*
IONMODE=Positive
ORGANISM=HMDB
NAME=HMDB:HMDB00755-1085 Hydroxyphenyllactic acid M+H
PI=HMDB
DATACOLLECTOR=HMDB
SMILES=OC(CC1=CC=C(O)C=C1)C(O)=O
INCHI=InChI=1S/C9H10O4/c10-7-3-1-6(2-4-7)5-8(11)9(12)13/h1-4,8,10-11H,5H2,(H,12,13)
INCHIAUX=N/A
PUBMED=N/A
SUBMITUSER=mwang87
TAGS=
LIBRARYQUALITY=3
SPECTRUMID=CCMSLIB00000425057
SCANS=29
51.007 70.558 
56.431 78.832 
70.181 100.0 
81.787 51.893 
92.257 47.467 
97.556 90.186 
113.956 41.116 
128.59 58.627 
168.585 54.01 
END IONS

BEGIN IONS
PEPMASS=190.119
CHARGE=1+
MSLEVEL=2
SOURCE_INSTRUMENT=Positive-Quattro_QQQ:25eV
FILENAME=hmdb_intermediate.mgf
SEQ=*..*
IONMODE=Positive
ORGANISM=HMDB
NAME=HMDB:HMDB00679-943 Homocitrulline M+H
PI=HMDB
DATACOLLECTOR=HMDB
SMILES=N[C@@H](CCCCNC(N)=O)C(O)=O
INCHI=InChI=1S/C7H15N3O3/c8-5(6(11)12)3-1-2-4-10-7(9)13/h5H,1-4,8H2,(H,11,12)(H3,9,10,13)/t5-/m0/s1
INCHIAUX=N/A
PUBMED=N/A
SUBMITUSER=mwang87
TAGS=
LIBRARYQUALITY=3
SPECTRUMID=CCMSLIB00000425058
SCANS=30
56.194 17.094 
67.187 5.876 
84.144 100.0 
100.086 16.453 
110.041 4.968 
127.03 23.291 
END IONS

BEGIN IONS
PEPMASS=136.043
CHARGE=1+
MSLEVEL=2
SOURCE_INSTRUMENT=Positive-Quattro_QQQ:25eV
FILENAME=hmdb_intermediate.mgf
SEQ=*..*
IONMODE=Positive
ORGANISM=HMDB
NAME=HMDB:HMDB02108-2008 Methylcysteine M+H
PI=HMDB
DATACOLLECTOR=HMDB
SMILES=CSC[C@H](N)C(O)=O
INCHI=InChI=1S/C4H9NO2S/c1-8-2-3(5)4(6)7/h3H,2,5H2,1H3,(H,6,7)/t3-/m0/s1
INCHIAUX=N/A
PUBMED=N/A
SUBMITUSER=mwang87
TAGS=
LIBRARYQUALITY=3
SPECTRUMID=CCMSLIB00000425059
SCANS=31
61.0 13.76 
73.0 95.932 
77.0 100.0 
90.0 29.749 
119.0 14.627 
END IONS

BEGIN IONS
PEPMASS=634.219
CHARGE=1+
MSLEVEL=2
SOURCE_INSTRUMENT=Positive-Quattro_QQQ:25eV
FILENAME=hmdb_intermediate.mgf
SEQ=*..*
IONMODE=Positive
ORGANISM=HMDB
NAME=HMDB:HMDB00825-1174 3'-Sialyllactose M+H
PI=HMDB
DATACOLLECTOR=HMDB
SMILES=[H][C@]1(O[C@@](C[C@H](O)[C@H]1NC(C)=O)(O[C@H]1[C@@H](O)[C@@H](CO)O[C@@H](O[C@H]([C@H](O)CO)[C@H](O)[C@@H](O)C=O)[C@@H]1O)C(O)=O)[C@H](O)[C@H](O)CO
INCHI=InChI=1S/C23H39NO19/c1-7(29)24-13-8(30)2-23(22(38)39,42-19(13)15(35)10(32)4-26)43-20-16(36)12(6-28)40-21(17(20)37)41-18(11(33)5-27)14(34)9(31)3-25/h3,8-21,26-28,30-37H,2,4-6H2,1H3,(H,24,29)(H,38,39)/t8-,9-,10+,11+,12+,13+,14+,15+,16-,17+,18+,19+,20-,21-,23-/m0/s1
INCHIAUX=N/A
PUBMED=N/A
SUBMITUSER=mwang87
TAGS=
LIBRARYQUALITY=3
SPECTRUMID=CCMSLIB00000425060
SCANS=32
163.0 50.33 
167.0 7.455 
274.0 100.0 
275.0 6.121 
292.0 38.015 
END IONS

BEGIN IONS
PEPMASS=173.093
CHARGE=1+
MSLEVEL=2
SOURCE_INSTRUMENT=Positive-Quattro_QQQ:40eV
FILENAME=hmdb_intermediate.mgf
SEQ=*..*
IONMODE=Positive
ORGANISM=HMDB
NAME=HMDB:HMDB00721-1016 Glycylproline M+H
PI=HMDB
DATACOLLECTOR=HMDB
SMILES=NCC(=O)N1CCCC1C(O)=O
INCHI=InChI=1S/C7H12N2O3/c8-4-6(10)9-3-1-2-5(9)7(11)12/h5H,1-4,8H2,(H,11,12)
INCHIAUX=N/A
PUBMED=N/A
SUBMITUSER=mwang87
TAGS=
LIBRARYQUALITY=3
SPECTRUMID=CCMSLIB00000425061
SCANS=33
70.567 100.0 
76.966 26.913 
END IONS

BEGIN IONS
PEPMASS=213.076
CHARGE=1+
MSLEVEL=2
SOURCE_INSTRUMENT=Positive-Quattro_QQQ:25eV
FILENAME=hmdb_intermediate.mgf
SEQ=*..*
IONMODE=Positive
ORGANISM=HMDB
NAME=HMDB:HMDB00913-1301 Vanillactic acid M+H
PI=HMDB
DATACOLLECTOR=HMDB
SMILES=COC1=CC(CC(O)C(O)=O)=CC=C1O
INCHI=InChI=1S/C10H12O5/c1-15-9-5-6(2-3-7(9)11)4-8(12)10(13)14/h2-3,5,8,11-12H,4H2,1H3,(H,13,14)
INCHIAUX=N/A
PUBMED=N/A
SUBMITUSER=mwang87
TAGS=
LIBRARYQUALITY=3
SPECTRUMID=CCMSLIB00000425062
SCANS=34
65.0 30.772 
79.0 90.335 
93.0 100.0 
107.0 57.036 
121.0 25.917 
125.0 28.279 
135.0 29.192 
149.0 25.94 
END IONS

BEGIN IONS
PEPMASS=111.045
CHARGE=1+
MSLEVEL=2
SOURCE_INSTRUMENT=Positive-Quattro_QQQ:25eV
FILENAME=hmdb_intermediate.mgf
SEQ=*..*
IONMODE=Positive
ORGANISM=HMDB
NAME=HMDB:HMDB02434-2108 Hydroquinone M+H
PI=HMDB
DATACOLLECTOR=HMDB
SMILES=OC1=CC=C(O)C=C1
INCHI=InChI=1S/C6H6O2/c7-5-1-2-6(8)4-3-5/h1-4,7-8H
INCHIAUX=N/A
PUBMED=N/A
SUBMITUSER=mwang87
TAGS=
LIBRARYQUALITY=3
SPECTRUMID=CCMSLIB00000425063
SCANS=35
41.0 42.898 
54.0 40.184 
64.0 100.0 
70.0 36.284 
110.0 19.052 
END IONS

BEGIN IONS
PEPMASS=175.024
CHARGE=1+
MSLEVEL=2
SOURCE_INSTRUMENT=Positive-Quattro_QQQ:40eV
FILENAME=hmdb_intermediate.mgf
SEQ=*..*
IONMODE=Positive
ORGANISM=HMDB
NAME=HMDB:HMDB00958-1362 trans-Aconitic acid M+H
PI=HMDB
DATACOLLECTOR=HMDB
SMILES=OC(=O)C\C(=C/C(O)=O)C(O)=O
INCHI=InChI=1S/C6H6O6/c7-4(8)1-3(6(11)12)2-5(9)10/h1H,2H2,(H,7,8)(H,9,10)(H,11,12)/b3-1+
INCHIAUX=N/A
PUBMED=N/A
SUBMITUSER=mwang87
TAGS=
LIBRARYQUALITY=3
SPECTRUMID=CCMSLIB00000425064
SCANS=36
41.339 100.0 
67.124 2.831 
84.2 5.503 
85.05 60.87 
128.949 8.062 
172.885 10.054 
END IONS

BEGIN IONS
PEPMASS=151.04
CHARGE=1+
MSLEVEL=2
SOURCE_INSTRUMENT=Positive-Quattro_QQQ:40eV
FILENAME=hmdb_intermediate.mgf
SEQ=*..*
IONMODE=Positive
ORGANISM=HMDB
NAME=HMDB:HMDB01587-1662 Phenylglyoxylic acid M+H
PI=HMDB
DATACOLLECTOR=HMDB
SMILES=OC(=O)C(=O)C1=CC=CC=C1
INCHI=InChI=1S/C8H6O3/c9-7(8(10)11)6-4-2-1-3-5-6/h1-5H,(H,10,11)
INCHIAUX=N/A
PUBMED=N/A
SUBMITUSER=mwang87
TAGS=
LIBRARYQUALITY=3
SPECTRUMID=CCMSLIB00000425065
SCANS=37
77.0 100.0 
105.0 11.98 
END IONS

BEGIN IONS
PEPMASS=289.217
CHARGE=1+
MSLEVEL=2
SOURCE_INSTRUMENT=Positive-Quattro_QQQ:10eV
FILENAME=hmdb_intermediate.mgf
SEQ=*..*
IONMODE=Positive
ORGANISM=HMDB
NAME=HMDB:HMDB00899-1274 Androstanedione M+H
PI=HMDB
DATACOLLECTOR=HMDB
SMILES=[H][C@@]12CCC(=O)[C@@]1(C)CC[C@@]1([H])[C@@]2([H])CC[C@@]2([H])CC(=O)CC[C@]12C
INCHI=InChI=1S/C19H28O2/c1-18-9-7-13(20)11-12(18)3-4-14-15-5-6-17(21)19(15,2)10-8-16(14)18/h12,14-16H,3-11H2,1-2H3/t12-,14-,15-,16-,18-,19-/m0/s1
INCHIAUX=N/A
PUBMED=N/A
SUBMITUSER=mwang87
TAGS=
LIBRARYQUALITY=3
SPECTRUMID=CCMSLIB00000425066
SCANS=38
81.132 2.376 
97.089 2.083 
161.048 2.558 
171.05 1.773 
175.064 3.801 
189.01 1.654 
196.998 1.462 
213.037 4.751 
243.072 1.316 
253.1 10.234 
271.156 27.193 
289.19 100.0 
END IONS

BEGIN IONS
PEPMASS=391.285
CHARGE=1+
MSLEVEL=2
SOURCE_INSTRUMENT=Negative-Quattro_QQQ:40eV
FILENAME=hmdb_intermediate.mgf
SEQ=*..*
IONMODE=Negative
ORGANISM=HMDB
NAME=HMDB:HMDB00733-1037 Hyodeoxycholic acid M-H
PI=HMDB
DATACOLLECTOR=HMDB
SMILES=[H][C@@]12CC[C@H]([C@H](C)CCC(O)=O)[C@@]1(C)CC[C@@]1([H])[C@@]2([H])C[C@H](O)C2C[C@H](O)CC[C@]12C
INCHI=InChI=1S/C24H40O4/c1-14(4-7-22(27)28)17-5-6-18-16-13-21(26)20-12-15(25)8-10-24(20,3)19(16)9-11-23(17,18)2/h14-21,25-26H,4-13H2,1-3H3,(H,27,28)/t14-,15-,16+,17-,18+,19+,20?,21+,23-,24-/m1/s1
INCHIAUX=N/A
PUBMED=N/A
SUBMITUSER=mwang87
TAGS=
LIBRARYQUALITY=3
SPECTRUMID=CCMSLIB00000425067
SCANS=39
78.0 2.185 
96.0 1.501 
152.0 10.155 
254.0 1.6 
373.0 1.744 
378.0 1.653 
391.0 100.0 
END IONS

BEGIN IONS
PEPMASS=147.045
CHARGE=1+
MSLEVEL=2
SOURCE_INSTRUMENT=Positive-Quattro_QQQ:40eV
FILENAME=hmdb_intermediate.mgf
SEQ=*..*
IONMODE=Positive
ORGANISM=HMDB
NAME=HMDB:HMDB01218-1471 Coumarin M+H
PI=HMDB
DATACOLLECTOR=HMDB
SMILES=O=C1OC2=CC=CC=C2C=C1
INCHI=InChI=1S/C9H6O2/c10-9-6-5-7-3-1-2-4-8(7)11-9/h1-6H
INCHIAUX=N/A
PUBMED=N/A
SUBMITUSER=mwang87
TAGS=
LIBRARYQUALITY=3
SPECTRUMID=CCMSLIB00000425068
SCANS=40
39.0 10.563 
51.0 11.232 
63.0 5.146 
65.0 100.0 
77.0 22.348 
91.0 47.341 
END IONS

BEGIN IONS
PEPMASS=303.014
CHARGE=1+
MSLEVEL=2
SOURCE_INSTRUMENT=Positive-Quattro_QQQ:10eV
FILENAME=hmdb_intermediate.mgf
SEQ=*..*
IONMODE=Positive
ORGANISM=HMDB
NAME=HMDB:HMDB02899-2155 Ellagic acid M+H
PI=HMDB
DATACOLLECTOR=HMDB
SMILES=OC1=C(O)C2=C3C(=C1)C(=O)OC1=C3C(=CC(O)=C1O)C(=O)O2
INCHI=InChI=1S/C14H6O8/c15-5-1-3-7-8-4(14(20)22-11(7)9(5)17)2-6(16)10(18)12(8)21-13(3)19/h1-2,15-18H
INCHIAUX=N/A
PUBMED=N/A
SUBMITUSER=mwang87
TAGS=
LIBRARYQUALITY=3
SPECTRUMID=CCMSLIB00000425069
SCANS=41
150.0 4.015 
261.0 6.648 
273.0 1.738 
284.0 2.386 
302.0 100.0 
END IONS

BEGIN IONS
PEPMASS=78.0377
CHARGE=1+
MSLEVEL=2
SOURCE_INSTRUMENT=Positive-Quattro_QQQ:40eV
FILENAME=hmdb_intermediate.mgf
SEQ=*..*
IONMODE=Positive
ORGANISM=HMDB
NAME=HMDB:HMDB02991-2178 Cysteamine M+H
PI=HMDB
DATACOLLECTOR=HMDB
SMILES=NCCS
INCHI=InChI=1S/C2H7NS/c3-1-2-4/h4H,1-3H2
INCHIAUX=N/A
PUBMED=N/A
SUBMITUSER=mwang87
TAGS=
LIBRARYQUALITY=3
SPECTRUMID=CCMSLIB00000425070
SCANS=42
18.0 32.46 
27.0 100.0 
35.0 54.918 
45.0 22.948 
61.0 71.955 
78.0 34.88 
END IONS

BEGIN IONS
PEPMASS=103.124
CHARGE=1+
MSLEVEL=2
SOURCE_INSTRUMENT=Positive-Quattro_QQQ:25eV
FILENAME=hmdb_intermediate.mgf
SEQ=*..*
IONMODE=Positive
ORGANISM=HMDB
NAME=HMDB:HMDB02322-2056 Cadaverine M+H
PI=HMDB
DATACOLLECTOR=HMDB
SMILES=NCCCCCN
INCHI=InChI=1S/C5H14N2/c6-4-2-1-3-5-7/h1-7H2
INCHIAUX=N/A
PUBMED=N/A
SUBMITUSER=mwang87
TAGS=
LIBRARYQUALITY=3
SPECTRUMID=CCMSLIB00000425071
SCANS=43
41.0 100.0 
69.0 35.729 
86.0 43.85 
END IONS

BEGIN IONS
PEPMASS=749.516
CHARGE=1+
MSLEVEL=2
SOURCE_INSTRUMENT=Positive-Quattro_QQQ:40eV
FILENAME=hmdb_intermediate.mgf
SEQ=*..*
IONMODE=Positive
ORGANISM=HMDB
NAME=HMDB:HMDB01916-1833 Azythromycin M+H
PI=HMDB
DATACOLLECTOR=HMDB
SMILES=CC[C@@H]1OC(=O)[C@H](C)[C@@H](O[C@@H]2C[C@](C)(OC)[C@H](O)[C@@H](C)O2)[C@@H](C)[C@H](O[C@H]2O[C@@H](C)C[C@H]([C@@H]2O)N(C)C)[C@@](C)(O)C[C@H](C)CN(C)[C@@H](C)[C@@H](O)[C@]1(C)O
INCHI=InChI=1S/C38H72N2O12/c1-15-27-38(10,46)31(42)24(6)40(13)19-20(2)17-36(8,45)33(52-35-29(41)26(39(11)12)16-21(3)48-35)22(4)30(23(5)34(44)50-27)51-28-18-37(9,47-14)32(43)25(7)49-28/h20-33,35,41-43,45-46H,15-19H2,1-14H3/t20-,21-,22+,23+,24-,25+,26+,27-,28+,29-,30-,31+,32+,33-,35+,36-,37-,38+/m0/s1
INCHIAUX=N/A
PUBMED=N/A
SUBMITUSER=mwang87
TAGS=
LIBRARYQUALITY=3
SPECTRUMID=CCMSLIB00000425072
SCANS=44
57.662 13.085 
72.718 21.06 
83.171 84.871 
85.66 29.12 
98.726 40.796 
113.162 63.324 
116.148 100.0 
127.598 56.418 
158.213 88.404 
185.968 24.186 
296.381 6.424 
433.335 15.47 
573.049 14.482 
574.917 7.822 
591.728 22.541 
END IONS

BEGIN IONS
PEPMASS=159.175
CHARGE=1+
MSLEVEL=2
SOURCE_INSTRUMENT=Positive-Quattro_QQQ:10eV
FILENAME=hmdb_intermediate.mgf
SEQ=*..*
IONMODE=Positive
ORGANISM=HMDB
NAME=HMDB:HMDB11624-2490 Decyl alcohol  M+H
PI=HMDB
DATACOLLECTOR=HMDB
SMILES=CCCCCCCCCCO
INCHI=InChI=1S/C10H22O/c1-2-3-4-5-6-7-8-9-10-11/h11H,2-10H2,1H3
INCHIAUX=N/A
PUBMED=N/A
SUBMITUSER=mwang87
TAGS=
LIBRARYQUALITY=3
SPECTRUMID=CCMSLIB00000425073
SCANS=45
118.29 100.0 
158.64 41.797 
END IONS

BEGIN IONS
PEPMASS=90.0555
CHARGE=1+
MSLEVEL=2
SOURCE_INSTRUMENT=Positive-Quattro_QQQ:10eV
FILENAME=hmdb_intermediate.mgf
SEQ=*..*
IONMODE=Positive
ORGANISM=HMDB
NAME=HMDB:HMDB01310-1510 D-Alanine M+H
PI=HMDB
DATACOLLECTOR=HMDB
SMILES=C[C@@H](N)C(O)=O
INCHI=InChI=1S/C3H7NO2/c1-2(4)3(5)6/h2H,4H2,1H3,(H,5,6)/t2-/m1/s1
INCHIAUX=N/A
PUBMED=N/A
SUBMITUSER=mwang87
TAGS=
LIBRARYQUALITY=3
SPECTRUMID=CCMSLIB00000425074
SCANS=46
44.0 100.0 
45.0 9.552 
58.0 10.426 
72.0 12.273 
90.0 45.594 
END IONS

BEGIN IONS
PEPMASS=211.082
CHARGE=1+
MSLEVEL=2
SOURCE_INSTRUMENT=Positive-Quattro_QQQ:25eV
FILENAME=hmdb_intermediate.mgf
SEQ=*..*
IONMODE=Positive
ORGANISM=HMDB
NAME=HMDB:HMDB03219-2213 Sedoheptulose M+H
PI=HMDB
DATACOLLECTOR=HMDB
SMILES=OCC(O)C(O)C(O)C(O)C(=O)CO
INCHI=InChI=1S/C7H14O7/c8-1-3(10)5(12)7(14)6(13)4(11)2-9/h3,5-10,12-14H,1-2H2
INCHIAUX=N/A
PUBMED=N/A
SUBMITUSER=mwang87
TAGS=
LIBRARYQUALITY=3
SPECTRUMID=CCMSLIB00000425075
SCANS=47
76.0 100.0 
85.0 31.059 
98.0 39.936 
110.0 33.106 
END IONS

BEGIN IONS
PEPMASS=81.9725
CHARGE=1+
MSLEVEL=2
SOURCE_INSTRUMENT=Positive-Quattro_QQQ:25eV
FILENAME=hmdb_intermediate.mgf
SEQ=*..*
IONMODE=Positive
ORGANISM=HMDB
NAME=HMDB:HMDB01033-1394 Hydrogen sulfite M+H
PI=HMDB
DATACOLLECTOR=HMDB
SMILES=OS([O-])=O
INCHI=InChI=1S/H2O3S/c1-4(2)3/h(H2,1,2,3)/p-1
INCHIAUX=N/A
PUBMED=N/A
SUBMITUSER=mwang87
TAGS=
LIBRARYQUALITY=3
SPECTRUMID=CCMSLIB00000425076
SCANS=48
41.0 77.626 
66.0 100.0 
END IONS

BEGIN IONS
PEPMASS=175.061
CHARGE=1+
MSLEVEL=2
SOURCE_INSTRUMENT=Negative-Quattro_QQQ:10eV
FILENAME=hmdb_intermediate.mgf
SEQ=*..*
IONMODE=Negative
ORGANISM=HMDB
NAME=HMDB:HMDB00402-609 2-Isopropylmalic acid M-H
PI=HMDB
DATACOLLECTOR=HMDB
SMILES=CC(C)[C@@](O)(CC(O)=O)C(O)=O
INCHI=InChI=1S/C7H12O5/c1-4(2)7(12,6(10)11)3-5(8)9/h4,12H,3H2,1-2H3,(H,8,9)(H,10,11)/t7-/m0/s1
INCHIAUX=N/A
PUBMED=N/A
SUBMITUSER=mwang87
TAGS=
LIBRARYQUALITY=3
SPECTRUMID=CCMSLIB00000425077
SCANS=49
85.339 14.535 
113.227 10.174 
115.207 27.616 
129.19 3.743 
157.139 5.487 
175.124 100.0 
END IONS

BEGIN IONS
PEPMASS=61.0653
CHARGE=1+
MSLEVEL=2
SOURCE_INSTRUMENT=Positive-Quattro_QQQ:10eV
FILENAME=hmdb_intermediate.mgf
SEQ=*..*
IONMODE=Positive
ORGANISM=HMDB
NAME=HMDB:HMDB00863-1217 Isopropyl alcohol M+H
PI=HMDB
DATACOLLECTOR=HMDB
SMILES=CC(C)O
INCHI=InChI=1S/C3H8O/c1-3(2)4/h3-4H,1-2H3
INCHIAUX=N/A
PUBMED=N/A
SUBMITUSER=mwang87
TAGS=
LIBRARYQUALITY=3
SPECTRUMID=CCMSLIB00000425078
SCANS=50
33.0 18.404 
43.0 22.897 
60.0 100.0 
END IONS

BEGIN IONS
PEPMASS=155.144
CHARGE=1+
MSLEVEL=2
SOURCE_INSTRUMENT=Positive-Quattro_QQQ:40eV
FILENAME=hmdb_intermediate.mgf
SEQ=*..*
IONMODE=Positive
ORGANISM=HMDB
NAME=HMDB:HMDB04472-2393 Eucalyptol M+H
PI=HMDB
DATACOLLECTOR=HMDB
SMILES=CC12CCC(CC1)C(C)(C)O2
INCHI=InChI=1S/C10H18O/c1-9(2)8-4-6-10(3,11-9)7-5-8/h8H,4-7H2,1-3H3
INCHIAUX=N/A
PUBMED=N/A
SUBMITUSER=mwang87
TAGS=
LIBRARYQUALITY=3
SPECTRUMID=CCMSLIB00000425079
SCANS=51
41.0 74.282 
53.0 28.685 
63.0 33.385 
67.0 28.193 
81.0 100.0 
95.0 12.608 
END IONS

BEGIN IONS
PEPMASS=81.0453
CHARGE=1+
MSLEVEL=2
SOURCE_INSTRUMENT=Positive-Quattro_QQQ:40eV
FILENAME=hmdb_intermediate.mgf
SEQ=*..*
IONMODE=Positive
ORGANISM=HMDB
NAME=HMDB:HMDB03361-2267 Pyrimidine M+H
PI=HMDB
DATACOLLECTOR=HMDB
SMILES=C1=CN=CN=C1
INCHI=InChI=1S/C4H4N2/c1-2-5-4-6-3-1/h1-4H
INCHIAUX=N/A
PUBMED=N/A
SUBMITUSER=mwang87
TAGS=
LIBRARYQUALITY=3
SPECTRUMID=CCMSLIB00000425080
SCANS=52
28.12 100.0 
54.01 10.509 
80.62 10.002 
END IONS

BEGIN IONS
PEPMASS=307.264
CHARGE=1+
MSLEVEL=2
SOURCE_INSTRUMENT=Positive-Quattro_QQQ:25eV
FILENAME=hmdb_intermediate.mgf
SEQ=*..*
IONMODE=Positive
ORGANISM=HMDB
NAME=HMDB:HMDB02925-2167 8,11,14-Eicosatrienoic acid M+H
PI=HMDB
DATACOLLECTOR=HMDB
SMILES=CCCCC\C=C/C\C=C/C\C=C/CCCCCCC(O)=O
INCHI=InChI=1S/C20H34O2/c1-2-3-4-5-6-7-8-9-10-11-12-13-14-15-16-17-18-19-20(21)22/h6-7,9-10,12-13H,2-5,8,11,14-19H2,1H3,(H,21,22)/b7-6-,10-9-,13-12-
INCHIAUX=N/A
PUBMED=N/A
SUBMITUSER=mwang87
TAGS=
LIBRARYQUALITY=3
SPECTRUMID=CCMSLIB00000425081
SCANS=53
54.0 41.022 
56.0 33.877 
66.0 59.112 
81.0 59.184 
94.0 72.831 
95.0 100.0 
108.0 76.55 
118.0 36.382 
135.0 42.455 
148.0 31.237 
162.0 67.666 
165.0 77.84 
256.0 28.816 
307.0 48.015 
END IONS

BEGIN IONS
PEPMASS=142.027
CHARGE=1+
MSLEVEL=2
SOURCE_INSTRUMENT=Positive-Quattro_QQQ:40eV
FILENAME=hmdb_intermediate.mgf
SEQ=*..*
IONMODE=Positive
ORGANISM=HMDB
NAME=HMDB:HMDB60152-372 O-Phosphoethanolamine M+H
PI=HMDB
DATACOLLECTOR=HMDB
SMILES=NCCOP(O)(O)=O
INCHI=InChI=1S/C2H8NO4P/c3-1-2-7-8(4,5)6/h1-3H2,(H2,4,5,6)
INCHIAUX=N/A
PUBMED=N/A
SUBMITUSER=mwang87
TAGS=
LIBRARYQUALITY=3
SPECTRUMID=CCMSLIB00000425082
SCANS=54
42.665 5.922 
44.628 100.0 
63.366 4.967 
81.259 25.655 
99.188 3.739 
142.179 3.248 
END IONS

BEGIN IONS
PEPMASS=233.129
CHARGE=1+
MSLEVEL=2
SOURCE_INSTRUMENT=Positive-Quattro_QQQ:10eV
FILENAME=hmdb_intermediate.mgf
SEQ=*..*
IONMODE=Positive
ORGANISM=HMDB
NAME=HMDB:HMDB01389-1547 Melatonin M+H
PI=HMDB
DATACOLLECTOR=HMDB
SMILES=COC1=CC2=C(NC=C2CCNC(C)=O)C=C1
INCHI=InChI=1S/C13H16N2O2/c1-9(16)14-6-5-10-8-15-13-4-3-11(17-2)7-12(10)13/h3-4,7-8,15H,5-6H2,1-2H3,(H,14,16)
INCHIAUX=N/A
PUBMED=N/A
SUBMITUSER=mwang87
TAGS=
LIBRARYQUALITY=3
SPECTRUMID=CCMSLIB00000425083
SCANS=55
158.0 2.256 
173.0 100.0 
215.0 10.011 
232.0 21.721 
END IONS

BEGIN IONS
PEPMASS=146.082
CHARGE=1+
MSLEVEL=2
SOURCE_INSTRUMENT=Positive-Quattro_QQQ:10eV
FILENAME=hmdb_intermediate.mgf
SEQ=*..*
IONMODE=Positive
ORGANISM=HMDB
NAME=HMDB:HMDB00730-1026 Isobutyrylglycine M+H
PI=HMDB
DATACOLLECTOR=HMDB
SMILES=CC(C)C(=O)NCC(O)=O
INCHI=InChI=1S/C6H11NO3/c1-4(2)6(10)7-3-5(8)9/h4H,3H2,1-2H3,(H,7,10)(H,8,9)
INCHIAUX=N/A
PUBMED=N/A
SUBMITUSER=mwang87
TAGS=
LIBRARYQUALITY=3
SPECTRUMID=CCMSLIB00000425084
SCANS=56
43.639 32.599 
71.384 100.0 
76.325 71.806 
146.126 9.912 
END IONS

BEGIN IONS
PEPMASS=103.04
CHARGE=1+
MSLEVEL=2
SOURCE_INSTRUMENT=Negative-Quattro_QQQ:10eV
FILENAME=hmdb_intermediate.mgf
SEQ=*..*
IONMODE=Negative
ORGANISM=HMDB
NAME=HMDB:HMDB00011-16 (R)-3-Hydroxybutyric acid M-H
PI=HMDB
DATACOLLECTOR=HMDB
SMILES=C[C@@H](O)CC(O)=O
INCHI=InChI=1S/C4H8O3/c1-3(5)2-4(6)7/h3,5H,2H2,1H3,(H,6,7)/t3-/m1/s1
INCHIAUX=N/A
PUBMED=N/A
SUBMITUSER=mwang87
TAGS=
LIBRARYQUALITY=3
SPECTRUMID=CCMSLIB00000425085
SCANS=57
59.185 100.0 
102.99 27.286 
END IONS

BEGIN IONS
PEPMASS=129.019
CHARGE=1+
MSLEVEL=2
SOURCE_INSTRUMENT=Negative-Quattro_QQQ:25eV
FILENAME=hmdb_intermediate.mgf
SEQ=*..*
IONMODE=Negative
ORGANISM=HMDB
NAME=HMDB:HMDB61185-838 2-Pentendioate M-H
PI=HMDB
DATACOLLECTOR=HMDB
SMILES=OC(=O)CC=CC(O)=O
INCHI=InChI=1S/C5H6O4/c6-4(7)2-1-3-5(8)9/h1-2H,3H2,(H,6,7)(H,8,9)/b2-1+
INCHIAUX=N/A
PUBMED=N/A
SUBMITUSER=mwang87
TAGS=
LIBRARYQUALITY=3
SPECTRUMID=CCMSLIB00000425086
SCANS=58
41.301 100.0 
67.101 5.347 
85.005 51.445 
129.1 5.997 
END IONS

BEGIN IONS
PEPMASS=195.066
CHARGE=1+
MSLEVEL=2
SOURCE_INSTRUMENT=Positive-Quattro_QQQ:40eV
FILENAME=hmdb_intermediate.mgf
SEQ=*..*
IONMODE=Positive
ORGANISM=HMDB
NAME=HMDB:HMDB00954-1350 trans-Ferulic acid M+H
PI=HMDB
DATACOLLECTOR=HMDB
SMILES=COC1=C(O)C=CC(\C=C\C(O)=O)=C1
INCHI=InChI=1S/C10H10O4/c1-14-9-6-7(2-4-8(9)11)3-5-10(12)13/h2-6,11H,1H3,(H,12,13)/b5-3+
INCHIAUX=N/A
PUBMED=N/A
SUBMITUSER=mwang87
TAGS=
LIBRARYQUALITY=3
SPECTRUMID=CCMSLIB00000425087
SCANS=59
64.0 24.141 
77.0 45.377 
88.0 100.0 
END IONS

BEGIN IONS
PEPMASS=183.052
CHARGE=1+
MSLEVEL=2
SOURCE_INSTRUMENT=Positive-Quattro_QQQ:40eV
FILENAME=hmdb_intermediate.mgf
SEQ=*..*
IONMODE=Positive
ORGANISM=HMDB
NAME=HMDB:HMDB03099-2196 1-Methyluric acid M+H
PI=HMDB
DATACOLLECTOR=HMDB
SMILES=CN1C(=O)NC2=C(NC(=O)N2)C1=O
INCHI=InChI=1S/C6H6N4O3/c1-10-4(11)2-3(9-6(10)13)8-5(12)7-2/h1H3,(H,9,13)(H2,7,8,12)
INCHIAUX=N/A
PUBMED=N/A
SUBMITUSER=mwang87
TAGS=
LIBRARYQUALITY=3
SPECTRUMID=CCMSLIB00000425088
SCANS=60
55.0 100.0 
END IONS

BEGIN IONS
PEPMASS=289.071
CHARGE=1+
MSLEVEL=2
SOURCE_INSTRUMENT=Negative-Quattro_QQQ:25eV
FILENAME=hmdb_intermediate.mgf
SEQ=*..*
IONMODE=Negative
ORGANISM=HMDB
NAME=HMDB:HMDB02780-2129 Catechin M-H
PI=HMDB
DATACOLLECTOR=HMDB
SMILES=O[C@H]1CC2=C(O)C=C(O)C=C2O[C@@H]1C1=CC(O)=C(O)C=C1
INCHI=InChI=1S/C15H14O6/c16-8-4-11(18)9-6-13(20)15(21-14(9)5-8)7-1-2-10(17)12(19)3-7/h1-5,13,15-20H,6H2/t13-,15+/m0/s1
INCHIAUX=N/A
PUBMED=N/A
SUBMITUSER=mwang87
TAGS=
LIBRARYQUALITY=3
SPECTRUMID=CCMSLIB00000425089
SCANS=61
109.0 100.0 
124.0 42.25 
125.0 4.714 
137.0 3.52 
151.0 3.247 
164.0 2.2 
166.0 2.618 
202.0 2.125 
END IONS

BEGIN IONS
PEPMASS=276.11
CHARGE=1+
MSLEVEL=2
SOURCE_INSTRUMENT=Positive-Quattro_QQQ:10eV
FILENAME=hmdb_intermediate.mgf
SEQ=*..*
IONMODE=Positive
ORGANISM=HMDB
NAME=HMDB:HMDB01786-1681 Ethenodeoxyadenosine M+H
PI=HMDB
DATACOLLECTOR=HMDB
SMILES=OC[C@H]1O[C@H](C[C@@H]1O)N1C=NC2=C1N=CN1C=CN=C21
INCHI=InChI=1S/C12H13N5O3/c18-4-8-7(19)3-9(20-8)17-6-14-10-11-13-1-2-16(11)5-15-12(10)17/h1-2,5-9,18-19H,3-4H2/t7-,8+,9+/m0/s1
INCHIAUX=N/A
PUBMED=N/A
SUBMITUSER=mwang87
TAGS=
LIBRARYQUALITY=3
SPECTRUMID=CCMSLIB00000425090
SCANS=62
117.141 2.809 
276.014 100.0 
END IONS

BEGIN IONS
PEPMASS=287.165
CHARGE=1+
MSLEVEL=2
SOURCE_INSTRUMENT=Positive-Quattro_QQQ:10eV
FILENAME=hmdb_intermediate.mgf
SEQ=*..*
IONMODE=Positive
ORGANISM=HMDB
NAME=HMDB:HMDB00343-552 2-Hydroxyestrone M+H
PI=HMDB
DATACOLLECTOR=HMDB
SMILES=[H][C@@]12CCC(=O)[C@@]1(C)CC[C@]1([H])C3=C(CC[C@@]21[H])C=C(O)C(O)=C3
INCHI=InChI=1S/C18H22O3/c1-18-7-6-11-12(14(18)4-5-17(18)21)3-2-10-8-15(19)16(20)9-13(10)11/h8-9,11-12,14,19-20H,2-7H2,1H3/t11-,12+,14-,18-/m0/s1
INCHIAUX=N/A
PUBMED=N/A
SUBMITUSER=mwang87
TAGS=
LIBRARYQUALITY=3
SPECTRUMID=CCMSLIB00000425091
SCANS=63
189.244 50.0 
260.246 76.582 
301.569 100.0 
END IONS

BEGIN IONS
PEPMASS=295.129
CHARGE=1+
MSLEVEL=2
SOURCE_INSTRUMENT=Positive-Quattro_QQQ:40eV
FILENAME=hmdb_intermediate.mgf
SEQ=*..*
IONMODE=Positive
ORGANISM=HMDB
NAME=HMDB:HMDB01894-1809 Aspartame M+H
PI=HMDB
DATACOLLECTOR=HMDB
SMILES=COC(=O)[C@H](CC1=CC=CC=C1)NC(=O)[C@@H](N)CC(O)=O
INCHI=InChI=1S/C14H18N2O5/c1-21-14(20)11(7-9-5-3-2-4-6-9)16-13(19)10(15)8-12(17)18/h2-6,10-11H,7-8,15H2,1H3,(H,16,19)(H,17,18)/t10-,11-/m0/s1
INCHIAUX=N/A
PUBMED=N/A
SUBMITUSER=mwang87
TAGS=
LIBRARYQUALITY=3
SPECTRUMID=CCMSLIB00000425092
SCANS=64
70.342 10.728 
76.795 17.113 
87.716 33.325 
103.104 24.775 
119.983 100.0 
128.174 12.839 
147.659 11.673 
182.412 11.95 
END IONS

BEGIN IONS
PEPMASS=441.163
CHARGE=1+
MSLEVEL=2
SOURCE_INSTRUMENT=Positive-Quattro_QQQ:40eV
FILENAME=hmdb_intermediate.mgf
SEQ=*..*
IONMODE=Positive
ORGANISM=HMDB
NAME=HMDB:HMDB01833-1689 Aminopterin M+H
PI=HMDB
DATACOLLECTOR=HMDB
SMILES=NC1=NC2=C(N=C(CNC3=CC=C(C=C3)C(=O)NC(CCC(O)=O)C(O)=O)C=N2)C(N)=N1
INCHI=InChI=1S/C19H20N8O5/c20-15-14-16(27-19(21)26-15)23-8-11(24-14)7-22-10-3-1-9(2-4-10)17(30)25-12(18(31)32)5-6-13(28)29/h1-4,8,12,22H,5-7H2,(H,25,30)(H,28,29)(H,31,32)(H4,20,21,23,26,27)
INCHIAUX=N/A
PUBMED=N/A
SUBMITUSER=mwang87
TAGS=
LIBRARYQUALITY=3
SPECTRUMID=CCMSLIB00000425093
SCANS=65
119.0 49.576 
132.0 7.922 
148.0 3.126 
174.0 100.0 
175.0 80.197 
293.0 2.61 
END IONS

BEGIN IONS
PEPMASS=428.374
CHARGE=1+
MSLEVEL=2
SOURCE_INSTRUMENT=Positive-Quattro_QQQ:10eV
FILENAME=hmdb_intermediate.mgf
SEQ=*..*
IONMODE=Positive
ORGANISM=HMDB
NAME=HMDB:HMDB00848-1196 Stearoylcarnitine M+H
PI=HMDB
DATACOLLECTOR=HMDB
SMILES=CCCCCCCCCCCCCCCCCC(=O)OC(CC([O-])=O)C[N+](C)(C)C
INCHI=InChI=1S/C25H49NO4/c1-5-6-7-8-9-10-11-12-13-14-15-16-17-18-19-20-25(29)30-23(21-24(27)28)22-26(2,3)4/h23H,5-22H2,1-4H3
INCHIAUX=N/A
PUBMED=N/A
SUBMITUSER=mwang87
TAGS=
LIBRARYQUALITY=3
SPECTRUMID=CCMSLIB00000425094
SCANS=66
85.0 10.229 
427.0 100.0 
END IONS

BEGIN IONS
PEPMASS=482.997
CHARGE=1+
MSLEVEL=2
SOURCE_INSTRUMENT=Positive-Quattro_QQQ:10eV
FILENAME=hmdb_intermediate.mgf
SEQ=*..*
IONMODE=Positive
ORGANISM=HMDB
NAME=HMDB:HMDB01342-1525 Thymidine 5'-triphosphate M+H
PI=HMDB
DATACOLLECTOR=HMDB
SMILES=CC1=CN([C@H]2C[C@H](O)[C@@H](COP(O)(=O)OP(O)(=O)OP(O)(O)=O)O2)C(=O)NC1=O
INCHI=InChI=1S/C10H17N2O14P3/c1-5-3-12(10(15)11-9(5)14)8-2-6(13)7(24-8)4-23-28(19,20)26-29(21,22)25-27(16,17)18/h3,6-8,13H,2,4H2,1H3,(H,19,20)(H,21,22)(H,11,14,15)(H2,16,17,18)/t6-,7+,8+/m0/s1
INCHIAUX=N/A
PUBMED=N/A
SUBMITUSER=mwang87
TAGS=
LIBRARYQUALITY=3
SPECTRUMID=CCMSLIB00000425095
SCANS=67
482.0 100.0 
END IONS

BEGIN IONS
PEPMASS=181.061
CHARGE=1+
MSLEVEL=2
SOURCE_INSTRUMENT=Positive-Quattro_QQQ:10eV
FILENAME=hmdb_intermediate.mgf
SEQ=*..*
IONMODE=Positive
ORGANISM=HMDB
NAME=HMDB:HMDB03269-2224 Nicotinuric acid M+H
PI=HMDB
DATACOLLECTOR=HMDB
SMILES=OC(=O)CNC(=O)C1=CN=CC=C1
INCHI=InChI=1S/C8H8N2O3/c11-7(12)5-10-8(13)6-2-1-3-9-4-6/h1-4H,5H2,(H,10,13)(H,11,12)
INCHIAUX=N/A
PUBMED=N/A
SUBMITUSER=mwang87
TAGS=
LIBRARYQUALITY=3
SPECTRUMID=CCMSLIB00000425096
SCANS=68
135.0 70.68 
181.0 100.0 
END IONS

BEGIN IONS
PEPMASS=74.0606
CHARGE=1+
MSLEVEL=2
SOURCE_INSTRUMENT=Positive-Quattro_QQQ:40eV
FILENAME=hmdb_intermediate.mgf
SEQ=*..*
IONMODE=Positive
ORGANISM=HMDB
NAME=HMDB:HMDB01888-1791 N,N-Dimethylformamide M+H
PI=HMDB
DATACOLLECTOR=HMDB
SMILES=CN(C)C=O
INCHI=InChI=1S/C3H7NO/c1-4(2)3-5/h3H,1-2H3
INCHIAUX=N/A
PUBMED=N/A
SUBMITUSER=mwang87
TAGS=
LIBRARYQUALITY=3
SPECTRUMID=CCMSLIB00000425097
SCANS=69
15.5 24.486 
30.25 55.686 
42.1 100.0 
58.02 16.865 
74.05 18.225 
END IONS

BEGIN IONS
PEPMASS=746.099
CHARGE=1+
MSLEVEL=2
SOURCE_INSTRUMENT=Positive-Quattro_QQQ:40eV
FILENAME=hmdb_intermediate.mgf
SEQ=*..*
IONMODE=Positive
ORGANISM=HMDB
NAME=HMDB:HMDB00221-363 NADPH M+H
PI=HMDB
DATACOLLECTOR=HMDB
SMILES=NC(=O)C1=CN(C=CC1)[C@H]1O[C@@H](COP(O)(=O)OP(O)(=O)OC[C@@H]2O[C@@H]([C@@H](OP(O)(O)=O)[C@H]2O)N2C=NC3=C(N)N=CN=C23)[C@H](O)[C@@H]1O
INCHI=InChI=1S/C21H30N7O17P3/c22-17-12-19(25-7-24-17)28(8-26-12)21-16(44-46(33,34)35)14(30)11(43-21)6-41-48(38,39)45-47(36,37)40-5-10-13(29)15(31)20(42-10)27-3-1-2-9(4-27)18(23)32/h1,3-4,7-8,10-11,13-16,20-21,29-31H,2,5-6H2,(H2,23,32)(H,36,37)(H,38,39)(H2,22,24,25)(H2,33,34,35)/t10-,11-,13-,14-,15-,16-,20-,21-/m0/s1
INCHIAUX=N/A
PUBMED=N/A
SUBMITUSER=mwang87
TAGS=
LIBRARYQUALITY=3
SPECTRUMID=CCMSLIB00000425098
SCANS=70
54.481 10.856 
62.949 15.448 
73.994 10.856 
74.853 11.773 
91.298 12.694 
98.294 10.856 
118.299 16.369 
127.014 14.532 
135.605 15.448 
153.403 13.611 
157.453 12.694 
165.554 17.286 
182.739 18.207 
188.999 13.611 
197.346 10.856 
214.164 15.448 
221.652 12.694 
224.966 10.856 
236.383 17.286 
253.201 16.369 
258.48 14.532 
269.283 15.448 
279.719 48.534 
287.33 14.532 
295.924 16.369 
309.061 14.532 
317.532 13.611 
330.546 15.448 
340.491 12.694 
353.137 15.448 
361.854 15.448 
370.572 10.856 
375.238 12.694 
403.969 11.773 
407.775 36.587 
419.44 11.773 
433.438 12.694 
435.28 100.0 
445.962 12.694 
454.803 16.369 
477.151 17.286 
497.781 12.694 
507.85 16.369 
519.516 13.611 
530.322 15.448 
534.865 14.532 
545.549 17.286 
563.354 37.508 
571.091 14.532 
581.897 11.773 
587.914 20.965 
601.668 13.611 
614.439 10.856 
614.685 14.532 
629.175 10.856 
641.455 15.448 
659.875 11.773 
672.524 14.532 
683.944 11.773 
686.646 19.128 
694.505 13.611 
712.68 15.448 
720.662 10.856 
725.574 15.448 
738.836 15.448 
751.976 16.369 
756.519 18.207 
768.554 31.991 
777.518 11.773 
792.499 15.448 
796.552 15.448 
807.112 29.237 
823.076 14.532 
828.11 11.773 
836.829 10.856 
849.968 12.694 
END IONS

BEGIN IONS
PEPMASS=146.082
CHARGE=1+
MSLEVEL=2
SOURCE_INSTRUMENT=Positive-Quattro_QQQ:40eV
FILENAME=hmdb_intermediate.mgf
SEQ=*..*
IONMODE=Positive
ORGANISM=HMDB
NAME=HMDB:HMDB00808-1157 N-Butyrylglycine M+H
PI=HMDB
DATACOLLECTOR=HMDB
SMILES=CCCC(=O)NCC(O)=O
INCHI=InChI=1S/C6H11NO3/c1-2-3-5(8)7-4-6(9)10/h2-4H2,1H3,(H,7,8)(H,9,10)
INCHIAUX=N/A
PUBMED=N/A
SUBMITUSER=mwang87
TAGS=
LIBRARYQUALITY=3
SPECTRUMID=CCMSLIB00000425099
SCANS=71
43.655 100.0 
71.369 15.533 
76.333 7.904 
86.349 2.597 
END IONS

BEGIN IONS
PEPMASS=175.024
CHARGE=1+
MSLEVEL=2
SOURCE_INSTRUMENT=Positive-Quattro_QQQ:40eV
FILENAME=hmdb_intermediate.mgf
SEQ=*..*
IONMODE=Positive
ORGANISM=HMDB
NAME=HMDB:HMDB00072-119 cis-Aconitic acid M+H
PI=HMDB
DATACOLLECTOR=HMDB
SMILES=OC(=O)C\C(=C\C(O)=O)C(O)=O
INCHI=InChI=1S/C6H6O6/c7-4(8)1-3(6(11)12)2-5(9)10/h1H,2H2,(H,7,8)(H,9,10)(H,11,12)/b3-1-
INCHIAUX=N/A
PUBMED=N/A
SUBMITUSER=mwang87
TAGS=
LIBRARYQUALITY=3
SPECTRUMID=CCMSLIB00000425100
SCANS=72
41.339 100.0 
67.124 2.831 
84.2 5.503 
85.05 60.87 
128.949 8.062 
172.885 10.054 
END IONS

BEGIN IONS
PEPMASS=169.098
CHARGE=1+
MSLEVEL=2
SOURCE_INSTRUMENT=Positive-Quattro_QQQ:10eV
FILENAME=hmdb_intermediate.mgf
SEQ=*..*
IONMODE=Positive
ORGANISM=HMDB
NAME=HMDB:HMDB01431-1574 Pyridoxamine M+H
PI=HMDB
DATACOLLECTOR=HMDB
SMILES=CC1=C(O)C(CN)=C(CO)C=N1
INCHI=InChI=1S/C8H12N2O2/c1-5-8(12)7(2-9)6(4-11)3-10-5/h3,11-12H,2,4,9H2,1H3
INCHIAUX=N/A
PUBMED=N/A
SUBMITUSER=mwang87
TAGS=
LIBRARYQUALITY=3
SPECTRUMID=CCMSLIB00000425101
SCANS=73
134.014 22.75 
169.018 100.0 
END IONS

BEGIN IONS
PEPMASS=141.092
CHARGE=1+
MSLEVEL=2
SOURCE_INSTRUMENT=Negative-Quattro_QQQ:10eV
FILENAME=hmdb_intermediate.mgf
SEQ=*..*
IONMODE=Negative
ORGANISM=HMDB
NAME=HMDB:HMDB01568-1654 trans-2-Octenoic acid M-H
PI=HMDB
DATACOLLECTOR=HMDB
SMILES=CCCCC\C=C\C(O)=O
INCHI=InChI=1S/C8H14O2/c1-2-3-4-5-6-7-8(9)10/h6-7H,2-5H2,1H3,(H,9,10)/b7-6+
INCHIAUX=N/A
PUBMED=N/A
SUBMITUSER=mwang87
TAGS=
LIBRARYQUALITY=3
SPECTRUMID=CCMSLIB00000425102
SCANS=74
97.121 11.166 
141.032 100.0 
END IONS

BEGIN IONS
PEPMASS=283.264
CHARGE=1+
MSLEVEL=2
SOURCE_INSTRUMENT=Positive-Quattro_QQQ:40eV
FILENAME=hmdb_intermediate.mgf
SEQ=*..*
IONMODE=Positive
ORGANISM=HMDB
NAME=HMDB:HMDB03231-2217 Vaccenic acid M+H
PI=HMDB
DATACOLLECTOR=HMDB
SMILES=CCCCCC\C=C/CCCCCCCCCC(O)=O
INCHI=InChI=1S/C18H34O2/c1-2-3-4-5-6-7-8-9-10-11-12-13-14-15-16-17-18(19)20/h7-8H,2-6,9-17H2,1H3,(H,19,20)/b8-7-
INCHIAUX=N/A
PUBMED=N/A
SUBMITUSER=mwang87
TAGS=
LIBRARYQUALITY=3
SPECTRUMID=CCMSLIB00000425103
SCANS=75
43.0 48.062 
54.0 59.574 
55.0 100.0 
69.0 69.964 
81.0 30.61 
92.0 27.233 
95.0 26.397 
128.0 17.2 
END IONS

BEGIN IONS
PEPMASS=174.92
CHARGE=1+
MSLEVEL=2
SOURCE_INSTRUMENT=Positive-Quattro_QQQ:40eV
FILENAME=hmdb_intermediate.mgf
SEQ=*..*
IONMODE=Positive
ORGANISM=HMDB
NAME=HMDB:HMDB00250-429 Pyrophosphate M+H
PI=HMDB
DATACOLLECTOR=HMDB
SMILES=[O-]P([O-])(=O)OP([O-])([O-])=O
INCHI=InChI=1S/H4O7P2/c1-8(2,3)7-9(4,5)6/h(H2,1,2,3)(H2,4,5,6)/p-4
INCHIAUX=N/A
PUBMED=N/A
SUBMITUSER=mwang87
TAGS=
LIBRARYQUALITY=3
SPECTRUMID=CCMSLIB00000425104
SCANS=76
63.0 7.108 
81.0 100.0 
85.0 4.039 
99.0 29.048 
135.0 2.72 
END IONS

BEGIN IONS
PEPMASS=186.017
CHARGE=1+
MSLEVEL=2
SOURCE_INSTRUMENT=Positive-Quattro_QQQ:10eV
FILENAME=hmdb_intermediate.mgf
SEQ=*..*
IONMODE=Positive
ORGANISM=HMDB
NAME=HMDB:HMDB00272-475 Phosphoserine M+H
PI=HMDB
DATACOLLECTOR=HMDB
SMILES=N[C@@H](COP(O)(O)=O)C(O)=O
INCHI=InChI=1S/C3H8NO6P/c4-2(3(5)6)1-10-11(7,8)9/h2H,1,4H2,(H,5,6)(H2,7,8,9)/t2-/m0/s1
INCHIAUX=N/A
PUBMED=N/A
SUBMITUSER=mwang87
TAGS=
LIBRARYQUALITY=3
SPECTRUMID=CCMSLIB00000425105
SCANS=77
70.378 4.825 
88.297 100.0 
185.999 9.156 
END IONS

BEGIN IONS
PEPMASS=75.0922
CHARGE=1+
MSLEVEL=2
SOURCE_INSTRUMENT=Positive-Quattro_QQQ:10eV
FILENAME=hmdb_intermediate.mgf
SEQ=*..*
IONMODE=Positive
ORGANISM=HMDB
NAME=HMDB:HMDB00002-4 1,3-Diaminopropane M+H
PI=HMDB
DATACOLLECTOR=HMDB
SMILES=NCCCN
INCHI=InChI=1S/C3H10N2/c4-2-1-3-5/h1-5H2
INCHIAUX=N/A
PUBMED=N/A
SUBMITUSER=mwang87
TAGS=
LIBRARYQUALITY=3
SPECTRUMID=CCMSLIB00000425106
SCANS=78
58.207 100.0 
75.127 31.356 
END IONS

BEGIN IONS
PEPMASS=76.0399
CHARGE=1+
MSLEVEL=2
SOURCE_INSTRUMENT=Positive-Quattro_QQQ:10eV
FILENAME=hmdb_intermediate.mgf
SEQ=*..*
IONMODE=Positive
ORGANISM=HMDB
NAME=HMDB:HMDB00123-180 Glycine M+H
PI=HMDB
DATACOLLECTOR=HMDB
SMILES=NCC(O)=O
INCHI=InChI=1S/C2H5NO2/c3-1-2(4)5/h1,3H2,(H,4,5)
INCHIAUX=N/A
PUBMED=N/A
SUBMITUSER=mwang87
TAGS=
LIBRARYQUALITY=3
SPECTRUMID=CCMSLIB00000425107
SCANS=79
30.445 100.0 
48.258 11.615 
76.054 90.265 
END IONS

BEGIN IONS
PEPMASS=397.347
CHARGE=1+
MSLEVEL=2
SOURCE_INSTRUMENT=Positive-Quattro_QQQ:40eV
FILENAME=hmdb_intermediate.mgf
SEQ=*..*
IONMODE=Positive
ORGANISM=HMDB
NAME=HMDB:HMDB00900-1279 Ergocalciferol M+H
PI=HMDB
DATACOLLECTOR=HMDB
SMILES=CC(C)[C@@H](C)\C=C\[C@@H](C)[C@H]1CC[C@@]2([H])\C(CCC[C@]12C)=C\C=C1\C[C@@H](O)CCC1=C
INCHI=InChI=1S/C28H44O/c1-19(2)20(3)9-10-22(5)26-15-16-27-23(8-7-17-28(26,27)6)12-13-24-18-25(29)14-11-21(24)4/h9-10,12-13,19-20,22,25-27,29H,4,7-8,11,14-18H2,1-3,5-6H3/b10-9+,23-12+,24-13-/t20-,22+,25-,26+,27-,28+/m0/s1
INCHIAUX=N/A
PUBMED=N/A
SUBMITUSER=mwang87
TAGS=
LIBRARYQUALITY=3
SPECTRUMID=CCMSLIB00000425108
SCANS=80
54.0 47.675 
57.0 54.908 
68.0 90.464 
80.0 100.0 
90.0 60.997 
104.0 66.842 
106.0 79.787 
118.0 61.058 
130.0 31.053 
144.0 51.572 
147.0 23.948 
159.0 34.487 
170.0 15.398 
END IONS

BEGIN IONS
PEPMASS=170.082
CHARGE=1+
MSLEVEL=2
SOURCE_INSTRUMENT=Positive-Quattro_QQQ:25eV
FILENAME=hmdb_intermediate.mgf
SEQ=*..*
IONMODE=Positive
ORGANISM=HMDB
NAME=HMDB:HMDB01537-1632 6-Hydroxydopamine M+H
PI=HMDB
DATACOLLECTOR=HMDB
SMILES=NCCC1=C(O)C=C(O)C(O)=C1
INCHI=InChI=1S/C8H11NO3/c9-2-1-5-3-7(11)8(12)4-6(5)10/h3-4,10-12H,1-2,9H2
INCHIAUX=N/A
PUBMED=N/A
SUBMITUSER=mwang87
TAGS=
LIBRARYQUALITY=3
SPECTRUMID=CCMSLIB00000425109
SCANS=81
83.1 4.3816264061 
107.1 20.790610098 
125.16 2.2867320323 
135.18 26.1652487322 
153.12 100.0 
170.1 5.8180325778 
END IONS

BEGIN IONS
PEPMASS=103.076
CHARGE=1+
MSLEVEL=2
SOURCE_INSTRUMENT=Positive-Quattro_QQQ:25eV
FILENAME=hmdb_intermediate.mgf
SEQ=*..*
IONMODE=Positive
ORGANISM=HMDB
NAME=HMDB:HMDB00892-1254 Valeric acid M+H
PI=HMDB
DATACOLLECTOR=HMDB
SMILES=CCCCC(O)=O
INCHI=InChI=1S/C5H10O2/c1-2-3-4-5(6)7/h2-4H2,1H3,(H,6,7)
INCHIAUX=N/A
PUBMED=N/A
SUBMITUSER=mwang87
TAGS=
LIBRARYQUALITY=3
SPECTRUMID=CCMSLIB00000425110
SCANS=82
43.0 100.0 
45.0 39.735 
57.0 40.289 
71.0 36.821 
END IONS

BEGIN IONS
PEPMASS=492.009
CHARGE=1+
MSLEVEL=2
SOURCE_INSTRUMENT=Positive-Quattro_QQQ:40eV
FILENAME=hmdb_intermediate.mgf
SEQ=*..*
IONMODE=Positive
ORGANISM=HMDB
NAME=HMDB:HMDB01532-1630 Deoxyadenosine triphosphate M+H
PI=HMDB
DATACOLLECTOR=HMDB
SMILES=NC1=NC=NC2=C1N=CN2[C@H]1C[C@H](O)[C@@H](COP(O)(=O)OP(O)(=O)OP(O)(O)=O)O1
INCHI=InChI=1S/C10H16N5O12P3/c11-9-8-10(13-3-12-9)15(4-14-8)7-1-5(16)6(25-7)2-24-29(20,21)27-30(22,23)26-28(17,18)19/h3-7,16H,1-2H2,(H,20,21)(H,22,23)(H2,11,12,13)(H2,17,18,19)/t5-,6+,7+/m0/s1
INCHIAUX=N/A
PUBMED=N/A
SUBMITUSER=mwang87
TAGS=
LIBRARYQUALITY=3
SPECTRUMID=CCMSLIB00000425111
SCANS=83
80.0 29.52 
135.0 100.0 
END IONS

BEGIN IONS
PEPMASS=259.093
CHARGE=1+
MSLEVEL=2
SOURCE_INSTRUMENT=Positive-Quattro_QQQ:40eV
FILENAME=hmdb_intermediate.mgf
SEQ=*..*
IONMODE=Positive
ORGANISM=HMDB
NAME=HMDB:HMDB00884-1249 Ribothymidine M+H
PI=HMDB
DATACOLLECTOR=HMDB
SMILES=CC1=CN([C@@H]2O[C@H](CO)[C@@H](O)[C@H]2O)C(=O)NC1=O
INCHI=InChI=1S/C10H14N2O6/c1-4-2-12(10(17)11-8(4)16)9-7(15)6(14)5(3-13)18-9/h2,5-7,9,13-15H,3H2,1H3,(H,11,16,17)/t5-,6-,7-,9-/m1/s1
INCHIAUX=N/A
PUBMED=N/A
SUBMITUSER=mwang87
TAGS=
LIBRARYQUALITY=3
SPECTRUMID=CCMSLIB00000425112
SCANS=84
43.344 10.673 
54.304 14.912 
57.287 21.784 
69.16 12.427 
84.149 35.38 
85.32 6.433 
109.788 75.439 
126.98 100.0 
END IONS

BEGIN IONS
PEPMASS=189.124
CHARGE=1+
MSLEVEL=2
SOURCE_INSTRUMENT=Positive-Quattro_QQQ:25eV
FILENAME=hmdb_intermediate.mgf
SEQ=*..*
IONMODE=Positive
ORGANISM=HMDB
NAME=HMDB:HMDB00446-651 N-Alpha-acetyllysine M+H
PI=HMDB
DATACOLLECTOR=HMDB
SMILES=CC(=O)NC(CCCCN)C(O)=O
INCHI=InChI=1S/C8H16N2O3/c1-6(11)10-7(8(12)13)4-2-3-5-9/h7H,2-5,9H2,1H3,(H,10,11)(H,12,13)
INCHIAUX=N/A
PUBMED=N/A
SUBMITUSER=mwang87
TAGS=
LIBRARYQUALITY=3
SPECTRUMID=CCMSLIB00000425113
SCANS=85
43.0 6.636 
56.0 4.168 
67.0 3.706 
84.0 100.0 
101.0 1.695 
129.0 21.818 
147.0 2.849 
189.0 3.462 
END IONS

BEGIN IONS
PEPMASS=302.055
CHARGE=1+
MSLEVEL=2
SOURCE_INSTRUMENT=Positive-Quattro_QQQ:10eV
FILENAME=hmdb_intermediate.mgf
SEQ=*..*
IONMODE=Positive
ORGANISM=HMDB
NAME=HMDB:HMDB00781-1110 N-Acetylgalactosamine 4-sulphate M+H
PI=HMDB
DATACOLLECTOR=HMDB
SMILES=CC(=O)N[C@H]1[C@H](O)O[C@H](CO)[C@H](OS(O)(=O)=O)[C@@H]1O
INCHI=InChI=1S/C8H15NO9S/c1-3(11)9-5-6(12)7(18-19(14,15)16)4(2-10)17-8(5)13/h4-8,10,12-13H,2H2,1H3,(H,9,11)(H,14,15,16)/t4-,5-,6-,7+,8-/m1/s1
INCHIAUX=N/A
PUBMED=N/A
SUBMITUSER=mwang87
TAGS=
LIBRARYQUALITY=3
SPECTRUMID=CCMSLIB00000425114
SCANS=86
126.0 19.602 
138.0 3.149 
186.0 10.319 
204.0 83.943 
205.0 3.054 
222.0 100.0 
284.0 6.597 
302.0 12.382 
END IONS

BEGIN IONS
PEPMASS=455.291
CHARGE=1+
MSLEVEL=2
SOURCE_INSTRUMENT=Positive-Quattro_QQQ:10eV
FILENAME=hmdb_intermediate.mgf
SEQ=*..*
IONMODE=Positive
ORGANISM=HMDB
NAME=HMDB:HMDB01850-1711 Verapamil M+H
PI=HMDB
DATACOLLECTOR=HMDB
SMILES=COC1=C(OC)C=C(CCN(C)CCCC(C#N)(C(C)C)C2=CC(OC)=C(OC)C=C2)C=C1
INCHI=InChI=1S/C27H38N2O4/c1-20(2)27(19-28,22-10-12-24(31-5)26(18-22)33-7)14-8-15-29(3)16-13-21-9-11-23(30-4)25(17-21)32-6/h9-12,17-18,20H,8,13-16H2,1-7H3
INCHIAUX=N/A
PUBMED=N/A
SUBMITUSER=mwang87
TAGS=
LIBRARYQUALITY=3
SPECTRUMID=CCMSLIB00000425115
SCANS=87
111.55 22.426 
178.343 100.0 
189.906 20.221 
346.22 24.632 
356.639 23.529 
451.336 47.059 
470.552 23.897 
491.963 44.485 
END IONS

BEGIN IONS
PEPMASS=244.093
CHARGE=1+
MSLEVEL=2
SOURCE_INSTRUMENT=Positive-Quattro_QQQ:25eV
FILENAME=hmdb_intermediate.mgf
SEQ=*..*
IONMODE=Positive
ORGANISM=HMDB
NAME=HMDB:HMDB00089-139 Cytidine M+H
PI=HMDB
DATACOLLECTOR=HMDB
SMILES=NC1=NC(=O)N(C=C1)[C@@H]1O[C@H](CO)[C@@H](O)[C@H]1O
INCHI=InChI=1S/C9H13N3O5/c10-5-1-2-12(9(16)11-5)8-7(15)6(14)4(3-13)17-8/h1-2,4,6-8,13-15H,3H2,(H2,10,11,16)/t4-,6-,7-,8-/m1/s1
INCHIAUX=N/A
PUBMED=N/A
SUBMITUSER=mwang87
TAGS=
LIBRARYQUALITY=3
SPECTRUMID=CCMSLIB00000425116
SCANS=88
94.769 2.571 
112.0 100.0 
END IONS

BEGIN IONS
PEPMASS=179.071
CHARGE=1+
MSLEVEL=2
SOURCE_INSTRUMENT=Positive-Quattro_QQQ:25eV
FILENAME=hmdb_intermediate.mgf
SEQ=*..*
IONMODE=Positive
ORGANISM=HMDB
NAME=HMDB:HMDB02040-1963 4-Methoxycinnamic acid M+H
PI=HMDB
DATACOLLECTOR=HMDB
SMILES=COC1=CC=C(\C=C\C(O)=O)C=C1
INCHI=InChI=1S/C10H10O3/c1-13-9-5-2-8(3-6-9)4-7-10(11)12/h2-7H,1H3,(H,11,12)/b7-4+
INCHIAUX=N/A
PUBMED=N/A
SUBMITUSER=mwang87
TAGS=
LIBRARYQUALITY=3
SPECTRUMID=CCMSLIB00000425117
SCANS=89
79.0 63.115 
90.0 47.584 
103.0 45.19 
105.0 13.065 
118.0 68.837 
133.0 100.0 
161.0 17.484 
END IONS

BEGIN IONS
PEPMASS=444.032
CHARGE=1+
MSLEVEL=2
SOURCE_INSTRUMENT=Positive-Quattro_QQQ:10eV
FILENAME=hmdb_intermediate.mgf
SEQ=*..*
IONMODE=Positive
ORGANISM=HMDB
NAME=HMDB:HMDB01201-1460 Guanosine diphosphate M+H
PI=HMDB
DATACOLLECTOR=HMDB
SMILES=NC1=NC2=C(N=CN2[C@@H]2O[C@H](COP(O)(=O)OP(O)(O)=O)[C@@H](O)[C@H]2O)C(=O)N1
INCHI=InChI=1S/C10H15N5O11P2/c11-10-13-7-4(8(18)14-10)12-2-15(7)9-6(17)5(16)3(25-9)1-24-28(22,23)26-27(19,20)21/h2-3,5-6,9,16-17H,1H2,(H,22,23)(H2,19,20,21)(H3,11,13,14,18)/t3-,5-,6-,9-/m1/s1
INCHIAUX=N/A
PUBMED=N/A
SUBMITUSER=mwang87
TAGS=
LIBRARYQUALITY=3
SPECTRUMID=CCMSLIB00000425118
SCANS=90
97.0 1.321 
152.0 100.0 
248.0 1.843 
444.0 72.976 
END IONS

BEGIN IONS
PEPMASS=298.097
CHARGE=1+
MSLEVEL=2
SOURCE_INSTRUMENT=Positive-Quattro_QQQ:10eV
FILENAME=hmdb_intermediate.mgf
SEQ=*..*
IONMODE=Positive
ORGANISM=HMDB
NAME=HMDB:HMDB01173-1448 5'-Methylthioadenosine M+H
PI=HMDB
DATACOLLECTOR=HMDB
SMILES=CSC[C@H]1O[C@H]([C@H](O)[C@@H]1O)N1C=NC2=C1N=CN=C2N
INCHI=InChI=1S/C11H15N5O3S/c1-20-2-5-7(17)8(18)11(19-5)16-4-15-6-9(12)13-3-14-10(6)16/h3-5,7-8,11,17-18H,2H2,1H3,(H2,12,13,14)/t5-,7-,8-,11-/m1/s1
INCHIAUX=N/A
PUBMED=N/A
SUBMITUSER=mwang87
TAGS=
LIBRARYQUALITY=3
SPECTRUMID=CCMSLIB00000425119
SCANS=91
136.0 100.0 
145.0 1.543 
163.0 5.106 
298.0 50.081 
END IONS

BEGIN IONS
PEPMASS=315.232
CHARGE=1+
MSLEVEL=2
SOURCE_INSTRUMENT=Positive-Quattro_QQQ:10eV
FILENAME=hmdb_intermediate.mgf
SEQ=*..*
IONMODE=Positive
ORGANISM=HMDB
NAME=HMDB:HMDB01830-1684 Progesterone M+H
PI=HMDB
DATACOLLECTOR=HMDB
SMILES=[H][C@@]12CC[C@H](C(C)=O)[C@@]1(C)CC[C@@]1([H])[C@@]2([H])CCC2=CC(=O)CC[C@]12C
INCHI=InChI=1S/C21H30O2/c1-13(22)17-6-7-18-16-5-4-14-12-15(23)8-10-20(14,2)19(16)9-11-21(17,18)3/h12,16-19H,4-11H2,1-3H3/t16-,17+,18-,19-,20-,21+/m0/s1
INCHIAUX=N/A
PUBMED=N/A
SUBMITUSER=mwang87
TAGS=
LIBRARYQUALITY=3
SPECTRUMID=CCMSLIB00000425120
SCANS=92
97.257 18.039 
109.211 9.902 
123.219 1.011 
215.141 1.244 
255.216 1.183 
279.229 1.716 
297.246 4.902 
315.265 100.0 
END IONS

BEGIN IONS
PEPMASS=289.217
CHARGE=1+
MSLEVEL=2
SOURCE_INSTRUMENT=Positive-Quattro_QQQ:10eV
FILENAME=hmdb_intermediate.mgf
SEQ=*..*
IONMODE=Positive
ORGANISM=HMDB
NAME=HMDB:HMDB00077-126 Dehydroepiandrosterone M+H
PI=HMDB
DATACOLLECTOR=HMDB
SMILES=C[C@]12CCC3C(CC=C4C[C@@H](O)CC[C@]34C)C1CCC2=O
INCHI=InChI=1S/C19H28O2/c1-18-9-7-13(20)11-12(18)3-4-14-15-5-6-17(21)19(15,2)10-8-16(14)18/h3,13-16,20H,4-11H2,1-2H3/t13-,14?,15?,16?,18-,19-/m0/s1
INCHIAUX=N/A
PUBMED=N/A
SUBMITUSER=mwang87
TAGS=
LIBRARYQUALITY=3
SPECTRUMID=CCMSLIB00000425121
SCANS=93
133.057 2.62 
145.034 2.957 
157.027 4.266 
171.035 7.784 
175.033 2.433 
197.037 9.731 
213.045 19.311 
231.053 12.275 
253.123 100.0 
271.164 85.03 
289.166 33.383 
END IONS

BEGIN IONS
PEPMASS=137.046
CHARGE=1+
MSLEVEL=2
SOURCE_INSTRUMENT=Positive-Quattro_QQQ:25eV
FILENAME=hmdb_intermediate.mgf
SEQ=*..*
IONMODE=Positive
ORGANISM=HMDB
NAME=HMDB:HMDB00157-243 Hypoxanthine M+H
PI=HMDB
DATACOLLECTOR=HMDB
SMILES=OC1=NC=NC2=C1NC=N2
INCHI=InChI=1S/C5H4N4O/c10-5-3-4(7-1-6-3)8-2-9-5/h1-2H,(H2,6,7,8,9,10)
INCHIAUX=N/A
PUBMED=N/A
SUBMITUSER=mwang87
TAGS=
LIBRARYQUALITY=3
SPECTRUMID=CCMSLIB00000425122
SCANS=94
55.211 68.148 
67.144 23.889 
82.114 95.556 
93.993 48.148 
109.933 100.0 
118.988 91.111 
136.842 68.148 
END IONS

BEGIN IONS
PEPMASS=284.099
CHARGE=1+
MSLEVEL=2
SOURCE_INSTRUMENT=Positive-Quattro_QQQ:25eV
FILENAME=hmdb_intermediate.mgf
SEQ=*..*
IONMODE=Positive
ORGANISM=HMDB
NAME=HMDB:HMDB00133-204 Guanosine M+H
PI=HMDB
DATACOLLECTOR=HMDB
SMILES=NC1=NC2=C(N=CN2[C@@H]2O[C@H](CO)[C@@H](O)[C@H]2O)C(=O)N1
INCHI=InChI=1S/C10H13N5O5/c11-10-13-7-4(8(19)14-10)12-2-15(7)9-6(18)5(17)3(1-16)20-9/h2-3,5-6,9,16-18H,1H2,(H3,11,13,14,19)/t3-,5-,6-,9-/m1/s1
INCHIAUX=N/A
PUBMED=N/A
SUBMITUSER=mwang87
TAGS=
LIBRARYQUALITY=3
SPECTRUMID=CCMSLIB00000425123
SCANS=95
109.969 2.234 
134.931 9.941 
151.946 100.0 
END IONS

BEGIN IONS
PEPMASS=425.436
CHARGE=1+
MSLEVEL=2
SOURCE_INSTRUMENT=Positive-Quattro_QQQ:25eV
FILENAME=hmdb_intermediate.mgf
SEQ=*..*
IONMODE=Positive
ORGANISM=HMDB
NAME=HMDB:HMDB02348-2071 Octacosanoic acid M+H
PI=HMDB
DATACOLLECTOR=HMDB
SMILES=CCCCCCCCCCCCCCCCCCCCCCCCCCCC(O)=O
INCHI=InChI=1S/C28H56O2/c1-2-3-4-5-6-7-8-9-10-11-12-13-14-15-16-17-18-19-20-21-22-23-24-25-26-27-28(29)30/h2-27H2,1H3,(H,29,30)
INCHIAUX=N/A
PUBMED=N/A
SUBMITUSER=mwang87
TAGS=
LIBRARYQUALITY=3
SPECTRUMID=CCMSLIB00000425124
SCANS=96
146.0 100.0 
219.0 47.657 
279.0 46.683 
396.0 44.165 
426.0 75.359 
END IONS

BEGIN IONS
PEPMASS=129.019
CHARGE=1+
MSLEVEL=2
SOURCE_INSTRUMENT=Negative-Quattro_QQQ:40eV
FILENAME=hmdb_intermediate.mgf
SEQ=*..*
IONMODE=Negative
ORGANISM=HMDB
NAME=HMDB:HMDB61185-839 2-Pentendioate M-H
PI=HMDB
DATACOLLECTOR=HMDB
SMILES=OC(=O)CC=CC(O)=O
INCHI=InChI=1S/C5H6O4/c6-4(7)2-1-3-5(8)9/h1-2H,3H2,(H,6,7)(H,8,9)/b2-1+
INCHIAUX=N/A
PUBMED=N/A
SUBMITUSER=mwang87
TAGS=
LIBRARYQUALITY=3
SPECTRUMID=CCMSLIB00000425125
SCANS=97
41.286 100.0 
67.109 24.096 
84.217 15.361 
85.083 67.47 
128.999 19.729 
END IONS

BEGIN IONS
PEPMASS=182.082
CHARGE=1+
MSLEVEL=2
SOURCE_INSTRUMENT=Positive-Quattro_QQQ:25eV
FILENAME=hmdb_intermediate.mgf
SEQ=*..*
IONMODE=Positive
ORGANISM=HMDB
NAME=HMDB:HMDB06050-2467 o-Tyrosine M+H
PI=HMDB
DATACOLLECTOR=HMDB
SMILES=NC(CC1=CC=CC=C1O)C(O)=O
INCHI=InChI=1S/C9H11NO3/c10-7(9(12)13)5-6-3-1-2-4-8(6)11/h1-4,7,11H,5,10H2,(H,12,13)
INCHIAUX=N/A
PUBMED=N/A
SUBMITUSER=mwang87
TAGS=
LIBRARYQUALITY=3
SPECTRUMID=CCMSLIB00000425126
SCANS=98
91.02 33.5773371654 
119.1 100.0 
136.14 94.4652966044 
147.06 20.0661373735 
164.1 10.5670829845 
165.12 21.1925476814 
182.1 64.8268611897 
END IONS

BEGIN IONS
PEPMASS=391.285
CHARGE=1+
MSLEVEL=2
SOURCE_INSTRUMENT=Positive-Quattro_QQQ:40eV
FILENAME=hmdb_intermediate.mgf
SEQ=*..*
IONMODE=Positive
ORGANISM=HMDB
NAME=HMDB:HMDB00467-679 Nutriacholic acid M+H
PI=HMDB
DATACOLLECTOR=HMDB
SMILES=[H][C@@]12CCC([C@@H](C)CCC(O)=O)[C@@]1(C)CC[C@@]1([H])[C@@]2([H])C(=O)C[C@]2([H])C[C@H](O)CC[C@]12C
INCHI=InChI=1S/C24H38O4/c1-14(4-7-21(27)28)17-5-6-18-22-19(9-11-24(17,18)3)23(2)10-8-16(25)12-15(23)13-20(22)26/h14-19,22,25H,4-13H2,1-3H3,(H,27,28)/t14-,15-,16+,17?,18-,19-,22-,23-,24+/m0/s1
INCHIAUX=N/A
PUBMED=N/A
SUBMITUSER=mwang87
TAGS=
LIBRARYQUALITY=3
SPECTRUMID=CCMSLIB00000425127
SCANS=99
67.147 20.647 
81.261 100.0 
90.834 31.36 
95.252 26.297 
106.912 47.609 
119.063 52.141 
132.441 49.08 
143.12 21.765 
145.207 73.273 
158.218 46.783 
174.421 30.537 
180.804 20.176 
187.187 44.605 
195.657 50.727 
211.248 16.115 
235.187 16.291 
253.971 11.111 
256.672 11.405 
317.573 13.466 
END IONS

BEGIN IONS
PEPMASS=192.066
CHARGE=1+
MSLEVEL=2
SOURCE_INSTRUMENT=Positive-Quattro_QQQ:40eV
FILENAME=hmdb_intermediate.mgf
SEQ=*..*
IONMODE=Positive
ORGANISM=HMDB
NAME=HMDB:HMDB00763-1097 5-Hydroxyindoleacetic acid M+H
PI=HMDB
DATACOLLECTOR=HMDB
SMILES=OC(=O)CC1=CNC2=CC=C(O)C=C12
INCHI=InChI=1S/C10H9NO3/c12-7-1-2-9-8(4-7)6(5-11-9)3-10(13)14/h1-2,4-5,11-12H,3H2,(H,13,14)
INCHIAUX=N/A
PUBMED=N/A
SUBMITUSER=mwang87
TAGS=
LIBRARYQUALITY=3
SPECTRUMID=CCMSLIB00000425128
SCANS=100
65.172 27.876 
77.18 12.002 
91.061 100.0 
101.109 12.389 
116.919 40.265 
127.983 8.241 
145.808 41.593 
END IONS

BEGIN IONS
PEPMASS=157.006
CHARGE=1+
MSLEVEL=2
SOURCE_INSTRUMENT=Positive-Quattro_QQQ:25eV
FILENAME=hmdb_intermediate.mgf
SEQ=*..*
IONMODE=Positive
ORGANISM=HMDB
NAME=HMDB:HMDB01544-1641 m-Chlorobenzoic acid M+H
PI=HMDB
DATACOLLECTOR=HMDB
SMILES=OC(=O)C1=CC(Cl)=CC=C1
INCHI=InChI=1S/C7H5ClO2/c8-6-3-1-2-5(4-6)7(9)10/h1-4H,(H,9,10)
INCHIAUX=N/A
PUBMED=N/A
SUBMITUSER=mwang87
TAGS=
LIBRARYQUALITY=3
SPECTRUMID=CCMSLIB00000425129
SCANS=101
63.0 19.916 
78.0 100.0 
END IONS

BEGIN IONS
PEPMASS=101.097
CHARGE=1+
MSLEVEL=2
SOURCE_INSTRUMENT=Positive-Quattro_QQQ:25eV
FILENAME=hmdb_intermediate.mgf
SEQ=*..*
IONMODE=Positive
ORGANISM=HMDB
NAME=HMDB:HMDB00753-1078 3-Hexanone M+H
PI=HMDB
DATACOLLECTOR=HMDB
SMILES=CCCC(=O)CC
INCHI=InChI=1S/C6H12O/c1-3-5-6(7)4-2/h3-5H2,1-2H3
INCHIAUX=N/A
PUBMED=N/A
SUBMITUSER=mwang87
TAGS=
LIBRARYQUALITY=3
SPECTRUMID=CCMSLIB00000425130
SCANS=102
59.04 100.0 
83.04 41.7069394046 
101.04 54.3539747691 
END IONS

BEGIN IONS
PEPMASS=132.15
CHARGE=1+
MSLEVEL=2
SOURCE_INSTRUMENT=Positive-Quattro_QQQ:40eV
FILENAME=hmdb_intermediate.mgf
SEQ=*..*
IONMODE=Positive
ORGANISM=HMDB
NAME=HMDB:HMDB11634-2495 Norspermidine M+H
PI=HMDB
DATACOLLECTOR=HMDB
SMILES=NCCCNCCCN
INCHI=InChI=1S/C6H17N3/c7-3-1-5-9-6-2-4-8/h9H,1-8H2
INCHIAUX=N/A
PUBMED=N/A
SUBMITUSER=mwang87
TAGS=
LIBRARYQUALITY=3
SPECTRUMID=CCMSLIB00000425131
SCANS=103
44.17 42.764 
58.04 100.0 
70.01 18.505 
131.47 84.037 
END IONS

BEGIN IONS
PEPMASS=159.066
CHARGE=1+
MSLEVEL=2
SOURCE_INSTRUMENT=Negative-Quattro_QQQ:25eV
FILENAME=hmdb_intermediate.mgf
SEQ=*..*
IONMODE=Negative
ORGANISM=HMDB
NAME=HMDB:HMDB00857-1206 Pimelic acid M-H
PI=HMDB
DATACOLLECTOR=HMDB
SMILES=OC(=O)CCCCCC(O)=O
INCHI=InChI=1S/C7H12O4/c8-6(9)4-2-1-3-5-7(10)11/h1-5H2,(H,8,9)(H,10,11)
INCHIAUX=N/A
PUBMED=N/A
SUBMITUSER=mwang87
TAGS=
LIBRARYQUALITY=3
SPECTRUMID=CCMSLIB00000425132
SCANS=104
41.289 2.899 
54.15 4.669 
69.104 15.06 
95.026 100.0 
114.963 10.392 
140.835 6.476 
158.55 7.492 
END IONS

BEGIN IONS
PEPMASS=285.207
CHARGE=1+
MSLEVEL=2
SOURCE_INSTRUMENT=Negative-Quattro_QQQ:25eV
FILENAME=hmdb_intermediate.mgf
SEQ=*..*
IONMODE=Negative
ORGANISM=HMDB
NAME=HMDB:HMDB00672-928 Hexadecanedioic acid M-H
PI=HMDB
DATACOLLECTOR=HMDB
SMILES=OC(=O)CCCCCCCCCCCCCCC(O)=O
INCHI=InChI=1S/C16H30O4/c17-15(18)13-11-9-7-5-3-1-2-4-6-8-10-12-14-16(19)20/h1-14H2,(H,17,18)(H,19,20)
INCHIAUX=N/A
PUBMED=N/A
SUBMITUSER=mwang87
TAGS=
LIBRARYQUALITY=3
SPECTRUMID=CCMSLIB00000425133
SCANS=105
57.441 5.804 
223.198 97.619 
241.224 1.935 
267.218 100.0 
285.219 11.429 
END IONS

BEGIN IONS
PEPMASS=331.227
CHARGE=1+
MSLEVEL=2
SOURCE_INSTRUMENT=Positive-Quattro_QQQ:40eV
FILENAME=hmdb_intermediate.mgf
SEQ=*..*
IONMODE=Positive
ORGANISM=HMDB
NAME=HMDB:HMDB00374-590 17-Hydroxyprogesterone M+H
PI=HMDB
DATACOLLECTOR=HMDB
SMILES=[H][C@@]12CC[C@](O)(C(C)=O)[C@@]1(C)CC[C@@]1([H])[C@@]2([H])CCC2=CC(=O)CC[C@]12C
INCHI=InChI=1S/C21H30O3/c1-13(22)21(24)11-8-18-16-5-4-14-12-15(23)6-9-19(14,2)17(16)7-10-20(18,21)3/h12,16-18,24H,4-11H2,1-3H3/t16-,17+,18+,19+,20+,21+/m1/s1
INCHIAUX=N/A
PUBMED=N/A
SUBMITUSER=mwang87
TAGS=
LIBRARYQUALITY=3
SPECTRUMID=CCMSLIB00000425134
SCANS=106
43.305 20.437 
55.217 5.506 
67.153 6.895 
81.103 25.595 
93.086 10.615 
97.067 100.0 
109.043 96.032 
123.025 12.302 
130.989 5.952 
143.223 4.067 
144.995 8.929 
159.065 4.415 
END IONS

BEGIN IONS
PEPMASS=489.115
CHARGE=1+
MSLEVEL=2
SOURCE_INSTRUMENT=Positive-Quattro_QQQ:10eV
FILENAME=hmdb_intermediate.mgf
SEQ=*..*
IONMODE=Positive
ORGANISM=HMDB
NAME=HMDB:HMDB01413-1565 Citicoline M+H
PI=HMDB
DATACOLLECTOR=HMDB
SMILES=C[N+](C)(C)CCOP([O-])(=O)OP(O)(=O)OC[C@H]1O[C@H]([C@H](O)[C@@H]1O)N1C=CC(N)=NC1=O
INCHI=InChI=1S/C14H26N4O11P2/c1-18(2,3)6-7-26-30(22,23)29-31(24,25)27-8-9-11(19)12(20)13(28-9)17-5-4-10(15)16-14(17)21/h4-5,9,11-13,19-20H,6-8H2,1-3H3,(H3-,15,16,21,22,23,24,25)/t9-,11-,12-,13-/m1/s1
INCHIAUX=N/A
PUBMED=N/A
SUBMITUSER=mwang87
TAGS=
LIBRARYQUALITY=3
SPECTRUMID=CCMSLIB00000425135
SCANS=107
184.0 2.638 
185.0 1.498 
264.0 3.54 
265.0 2.34 
361.0 5.96 
379.0 6.744 
490.0 100.0 
END IONS

BEGIN IONS
PEPMASS=132.102
CHARGE=1+
MSLEVEL=2
SOURCE_INSTRUMENT=Positive-Quattro_QQQ:40eV
FILENAME=hmdb_intermediate.mgf
SEQ=*..*
IONMODE=Positive
ORGANISM=HMDB
NAME=HMDB:HMDB00557-781 L-Alloisoleucine M+H
PI=HMDB
DATACOLLECTOR=HMDB
SMILES=CC[C@@H](C)[C@H](N)C(O)=O
INCHI=InChI=1S/C6H13NO2/c1-3-4(2)5(7)6(8)9/h4-5H,3,7H2,1-2H3,(H,8,9)/t4-,5+/m1/s1
INCHIAUX=N/A
PUBMED=N/A
SUBMITUSER=mwang87
TAGS=
LIBRARYQUALITY=3
SPECTRUMID=CCMSLIB00000425136
SCANS=108
41.353 100.0 
45.42 16.417 
56.015 53.667 
69.108 34.0 
86.081 42.0 
132.155 9.583 
END IONS

BEGIN IONS
PEPMASS=330.06
CHARGE=1+
MSLEVEL=2
SOURCE_INSTRUMENT=Positive-Quattro_QQQ:10eV
FILENAME=hmdb_intermediate.mgf
SEQ=*..*
IONMODE=Positive
ORGANISM=HMDB
NAME=HMDB:HMDB00058-93 Cyclic AMP M+H
PI=HMDB
DATACOLLECTOR=HMDB
SMILES=NC1=NC=NC2=C1N=CN2[C@@H]1O[C@@H]2COP(O)(=O)O[C@H]2[C@H]1O
INCHI=InChI=1S/C10H12N5O6P/c11-8-5-9(13-2-12-8)15(3-14-5)10-6(16)7-4(20-10)1-19-22(17,18)21-7/h2-4,6-7,10,16H,1H2,(H,17,18)(H2,11,12,13)/t4-,6-,7-,10-/m1/s1
INCHIAUX=N/A
PUBMED=N/A
SUBMITUSER=mwang87
TAGS=
LIBRARYQUALITY=3
SPECTRUMID=CCMSLIB00000425137
SCANS=109
329.95 100.0 
END IONS

BEGIN IONS
PEPMASS=316.249
CHARGE=1+
MSLEVEL=2
SOURCE_INSTRUMENT=Positive-Quattro_QQQ:25eV
FILENAME=hmdb_intermediate.mgf
SEQ=*..*
IONMODE=Positive
ORGANISM=HMDB
NAME=HMDB:HMDB00651-889 Decanoylcarnitine M+H
PI=HMDB
DATACOLLECTOR=HMDB
SMILES=CCCCCCCCCC(=O)OC(CC([O-])=O)C[N+](C)(C)C
INCHI=InChI=1S/C17H33NO4/c1-5-6-7-8-9-10-11-12-17(21)22-15(13-16(19)20)14-18(2,3)4/h15H,5-14H2,1-4H3
INCHIAUX=N/A
PUBMED=N/A
SUBMITUSER=mwang87
TAGS=
LIBRARYQUALITY=3
SPECTRUMID=CCMSLIB00000425138
SCANS=110
43.634 6.063 
60.468 100.0 
71.404 34.701 
81.343 18.004 
89.311 2.892 
95.307 15.485 
129.194 2.799 
144.187 24.254 
155.219 11.194 
173.197 2.029 
END IONS

BEGIN IONS
PEPMASS=90.0555
CHARGE=1+
MSLEVEL=2
SOURCE_INSTRUMENT=Positive-Quattro_QQQ:10eV
FILENAME=hmdb_intermediate.mgf
SEQ=*..*
IONMODE=Positive
ORGANISM=HMDB
NAME=HMDB:HMDB00056-90 Beta-Alanine M+H
PI=HMDB
DATACOLLECTOR=HMDB
SMILES=NCCC(O)=O
INCHI=InChI=1S/C3H7NO2/c4-2-1-3(5)6/h1-2,4H2,(H,5,6)
INCHIAUX=N/A
PUBMED=N/A
SUBMITUSER=mwang87
TAGS=
LIBRARYQUALITY=3
SPECTRUMID=CCMSLIB00000425139
SCANS=111
72.079 100.0 
90.013 64.948 
END IONS

BEGIN IONS
PEPMASS=115.076
CHARGE=1+
MSLEVEL=2
SOURCE_INSTRUMENT=Positive-Quattro_QQQ:40eV
FILENAME=hmdb_intermediate.mgf
SEQ=*..*
IONMODE=Positive
ORGANISM=HMDB
NAME=HMDB:HMDB00453-664 Delta-Hexanolactone M+H
PI=HMDB
DATACOLLECTOR=HMDB
SMILES=CC1CCCC(=O)O1
INCHI=InChI=1S/C6H10O2/c1-5-3-2-4-6(7)8-5/h5H,2-4H2,1H3
INCHIAUX=N/A
PUBMED=N/A
SUBMITUSER=mwang87
TAGS=
LIBRARYQUALITY=3
SPECTRUMID=CCMSLIB00000425140
SCANS=112
57.235 100.0 
72.378 68.835 
74.612 71.232 
86.652 38.868 
114.457 64.382 
114.829 38.868 
END IONS

BEGIN IONS
PEPMASS=305.098
CHARGE=1+
MSLEVEL=2
SOURCE_INSTRUMENT=Positive-Quattro_QQQ:40eV
FILENAME=hmdb_intermediate.mgf
SEQ=*..*
IONMODE=Positive
ORGANISM=HMDB
NAME=HMDB:HMDB01067-1414 N-Acetylaspartylglutamic acid M+H
PI=HMDB
DATACOLLECTOR=HMDB
SMILES=CC(=O)NC(CC(O)=O)C(=O)NC(CCC(O)=O)C(O)=O
INCHI=InChI=1S/C11H16N2O8/c1-5(14)12-7(4-9(17)18)10(19)13-6(11(20)21)2-3-8(15)16/h6-7H,2-4H2,1H3,(H,12,14)(H,13,19)(H,15,16)(H,17,18)(H,20,21)
INCHIAUX=N/A
PUBMED=N/A
SUBMITUSER=mwang87
TAGS=
LIBRARYQUALITY=3
SPECTRUMID=CCMSLIB00000425141
SCANS=113
70.0 46.52 
84.0 100.0 
88.0 95.998 
102.0 14.721 
130.0 12.144 
END IONS

BEGIN IONS
PEPMASS=198.077
CHARGE=1+
MSLEVEL=2
SOURCE_INSTRUMENT=Positive-Quattro_QQQ:40eV
FILENAME=hmdb_intermediate.mgf
SEQ=*..*
IONMODE=Positive
ORGANISM=HMDB
NAME=HMDB:HMDB00181-288 L-Dopa M+H
PI=HMDB
DATACOLLECTOR=HMDB
SMILES=N[C@@H](CC1=CC(O)=C(O)C=C1)C(O)=O
INCHI=InChI=1S/C9H11NO4/c10-6(9(13)14)3-5-1-2-7(11)8(12)4-5/h1-2,4,6,11-12H,3,10H2,(H,13,14)/t6-/m0/s1
INCHIAUX=N/A
PUBMED=N/A
SUBMITUSER=mwang87
TAGS=
LIBRARYQUALITY=3
SPECTRUMID=CCMSLIB00000425142
SCANS=114
65.163 74.242 
77.108 84.848 
93.05 43.939 
106.736 100.0 
122.984 12.879 
134.36 12.374 
135.352 5.777 
151.944 6.345 
END IONS

BEGIN IONS
PEPMASS=115.051
CHARGE=1+
MSLEVEL=2
SOURCE_INSTRUMENT=Positive-Quattro_QQQ:40eV
FILENAME=hmdb_intermediate.mgf
SEQ=*..*
IONMODE=Positive
ORGANISM=HMDB
NAME=HMDB:HMDB00076-125 Dihydrouracil M+H
PI=HMDB
DATACOLLECTOR=HMDB
SMILES=O=C1CCNC(=O)N1
INCHI=InChI=1S/C4H6N2O2/c7-3-1-2-5-4(8)6-3/h1-2H2,(H2,5,6,7,8)
INCHIAUX=N/A
PUBMED=N/A
SUBMITUSER=mwang87
TAGS=
LIBRARYQUALITY=3
SPECTRUMID=CCMSLIB00000425143
SCANS=115
44.236 92.233 
55.166 100.0 
73.186 17.233 
113.662 12.075 
114.887 56.553 
END IONS

BEGIN IONS
PEPMASS=477.231
CHARGE=1+
MSLEVEL=2
SOURCE_INSTRUMENT=Positive-Quattro_QQQ:40eV
FILENAME=hmdb_intermediate.mgf
SEQ=*..*
IONMODE=Positive
ORGANISM=HMDB
NAME=HMDB:HMDB04999-2432 Loperamide M+H
PI=HMDB
DATACOLLECTOR=HMDB
SMILES=CN(C)C(=O)C(CCN1CCC(O)(CC1)C1=CC=C(Cl)C=C1)(C1=CC=CC=C1)C1=CC=CC=C1
INCHI=InChI=1S/C29H33ClN2O2/c1-31(2)27(33)29(24-9-5-3-6-10-24,25-11-7-4-8-12-25)19-22-32-20-17-28(34,18-21-32)23-13-15-26(30)16-14-23/h3-16,34H,17-22H2,1-2H3
INCHIAUX=N/A
PUBMED=N/A
SUBMITUSER=mwang87
TAGS=
LIBRARYQUALITY=3
SPECTRUMID=CCMSLIB00000425144
SCANS=116
72.0 12.866 
210.0 56.104 
238.0 2.806 
266.0 100.0 
END IONS

BEGIN IONS
PEPMASS=215.165
CHARGE=1+
MSLEVEL=2
SOURCE_INSTRUMENT=Negative-Quattro_QQQ:10eV
FILENAME=hmdb_intermediate.mgf
SEQ=*..*
IONMODE=Negative
ORGANISM=HMDB
NAME=HMDB:HMDB00387-594 3-Hydroxydodecanoic acid M-H
PI=HMDB
DATACOLLECTOR=HMDB
SMILES=CCCCCCCCCC(O)CC(O)=O
INCHI=InChI=1S/C12H24O3/c1-2-3-4-5-6-7-8-9-11(13)10-12(14)15/h11,13H,2-10H2,1H3,(H,14,15)
INCHIAUX=N/A
PUBMED=N/A
SUBMITUSER=mwang87
TAGS=
LIBRARYQUALITY=3
SPECTRUMID=CCMSLIB00000425145
SCANS=117
59.444 100.0 
215.231 61.682 
END IONS

BEGIN IONS
PEPMASS=196.061
CHARGE=1+
MSLEVEL=2
SOURCE_INSTRUMENT=Positive-Quattro_QQQ:10eV
FILENAME=hmdb_intermediate.mgf
SEQ=*..*
IONMODE=Positive
ORGANISM=HMDB
NAME=HMDB:HMDB00840-1184 Salicyluric acid M+H
PI=HMDB
DATACOLLECTOR=HMDB
SMILES=OC(=O)CNC(=O)C1=CC=CC=C1O
INCHI=InChI=1S/C9H9NO4/c11-7-4-2-1-3-6(7)9(14)10-5-8(12)13/h1-4,11H,5H2,(H,10,14)(H,12,13)
INCHIAUX=N/A
PUBMED=N/A
SUBMITUSER=mwang87
TAGS=
LIBRARYQUALITY=3
SPECTRUMID=CCMSLIB00000425146
SCANS=118
120.979 100.0 
195.947 19.216 
END IONS

BEGIN IONS
PEPMASS=289.071
CHARGE=1+
MSLEVEL=2
SOURCE_INSTRUMENT=Negative-Quattro_QQQ:10eV
FILENAME=hmdb_intermediate.mgf
SEQ=*..*
IONMODE=Negative
ORGANISM=HMDB
NAME=HMDB:HMDB02780-2128 Catechin M-H
PI=HMDB
DATACOLLECTOR=HMDB
SMILES=O[C@H]1CC2=C(O)C=C(O)C=C2O[C@@H]1C1=CC(O)=C(O)C=C1
INCHI=InChI=1S/C15H14O6/c16-8-4-11(18)9-6-13(20)15(21-14(9)5-8)7-1-2-10(17)12(19)3-7/h1-5,13,15-20H,6H2/t13-,15+/m0/s1
INCHIAUX=N/A
PUBMED=N/A
SUBMITUSER=mwang87
TAGS=
LIBRARYQUALITY=3
SPECTRUMID=CCMSLIB00000425147
SCANS=119
108.0 4.133 
124.0 3.887 
125.0 3.063 
136.0 2.987 
150.0 2.526 
164.0 2.373 
166.0 2.198 
178.0 3.785 
204.0 8.45 
205.0 3.968 
244.0 15.63 
245.0 9.85 
289.0 100.0 
END IONS

BEGIN IONS
PEPMASS=169.05
CHARGE=1+
MSLEVEL=2
SOURCE_INSTRUMENT=Positive-Quattro_QQQ:25eV
FILENAME=hmdb_intermediate.mgf
SEQ=*..*
IONMODE=Positive
ORGANISM=HMDB
NAME=HMDB:HMDB01336-1520 3,4-Dihydroxybenzeneacetic acid M+H
PI=HMDB
DATACOLLECTOR=HMDB
SMILES=OC(=O)CC1=CC=C(O)C(O)=C1
INCHI=InChI=1S/C8H8O4/c9-6-2-1-5(3-7(6)10)4-8(11)12/h1-3,9-10H,4H2,(H,11,12)
INCHIAUX=N/A
PUBMED=N/A
SUBMITUSER=mwang87
TAGS=
LIBRARYQUALITY=3
SPECTRUMID=CCMSLIB00000425148
SCANS=120
67.0 2.774 
77.0 24.288 
105.0 6.043 
123.0 100.0 
END IONS

BEGIN IONS
PEPMASS=181.071
CHARGE=1+
MSLEVEL=2
SOURCE_INSTRUMENT=Positive-Quattro_QQQ:40eV
FILENAME=hmdb_intermediate.mgf
SEQ=*..*
IONMODE=Positive
ORGANISM=HMDB
NAME=HMDB:HMDB03418-2300 D-Tagatose M+H
PI=HMDB
DATACOLLECTOR=HMDB
SMILES=OC[C@@H](O)[C@H](O)[C@H](O)C(=O)CO
INCHI=InChI=1S/C6H12O6/c7-1-3(9)5(11)6(12)4(10)2-8/h3,5-9,11-12H,1-2H2/t3-,5+,6-/m1/s1
INCHIAUX=N/A
PUBMED=N/A
SUBMITUSER=mwang87
TAGS=
LIBRARYQUALITY=3
SPECTRUMID=CCMSLIB00000425149
SCANS=121
42.5 47.873 
55.38 70.287 
66.93 100.0 
80.81 58.137 
98.96 88.607 
END IONS

BEGIN IONS
PEPMASS=171.029
CHARGE=1+
MSLEVEL=2
SOURCE_INSTRUMENT=Positive-Quattro_QQQ:10eV
FILENAME=hmdb_intermediate.mgf
SEQ=*..*
IONMODE=Positive
ORGANISM=HMDB
NAME=HMDB:HMDB05807-2454 Gallic acid M+H
PI=HMDB
DATACOLLECTOR=HMDB
SMILES=OC(=O)C1=CC(O)=C(O)C(O)=C1
INCHI=InChI=1S/C7H6O5/c8-4-1-3(7(11)12)2-5(9)6(4)10/h1-2,8-10H,(H,11,12)
INCHIAUX=N/A
PUBMED=N/A
SUBMITUSER=mwang87
TAGS=
LIBRARYQUALITY=3
SPECTRUMID=CCMSLIB00000425150
SCANS=122
81.0 4.793 
109.0 32.875 
127.0 77.802 
153.0 100.0 
171.0 54.269 
END IONS

BEGIN IONS
PEPMASS=261.038
CHARGE=1+
MSLEVEL=2
SOURCE_INSTRUMENT=Positive-Quattro_QQQ:10eV
FILENAME=hmdb_intermediate.mgf
SEQ=*..*
IONMODE=Positive
ORGANISM=HMDB
NAME=HMDB:HMDB01078-1418 Mannose 6-phosphate M+H
PI=HMDB
DATACOLLECTOR=HMDB
SMILES=O[C@@H]1O[C@H](COP(O)(O)=O)[C@@H](O)[C@H](O)[C@@H]1O
INCHI=InChI=1S/C6H13O9P/c7-3-2(1-14-16(11,12)13)15-6(10)5(9)4(3)8/h2-10H,1H2,(H2,11,12,13)/t2-,3-,4+,5+,6-/m1/s1
INCHIAUX=N/A
PUBMED=N/A
SUBMITUSER=mwang87
TAGS=
LIBRARYQUALITY=3
SPECTRUMID=CCMSLIB00000425151
SCANS=123
85.0 6.373 
99.0 40.794 
109.0 34.893 
127.0 17.639 
145.0 20.452 
207.0 2.603 
225.0 15.381 
243.0 100.0 
261.0 14.821 
END IONS

BEGIN IONS
PEPMASS=150.059
CHARGE=1+
MSLEVEL=2
SOURCE_INSTRUMENT=Positive-Quattro_QQQ:25eV
FILENAME=hmdb_intermediate.mgf
SEQ=*..*
IONMODE=Positive
ORGANISM=HMDB
NAME=HMDB:HMDB00696-970 L-Methionine M+H
PI=HMDB
DATACOLLECTOR=HMDB
SMILES=CSCC[C@H](N)C(O)=O
INCHI=InChI=1S/C5H11NO2S/c1-9-3-2-4(6)5(7)8/h4H,2-3,6H2,1H3,(H,7,8)/t4-/m0/s1
INCHIAUX=N/A
PUBMED=N/A
SUBMITUSER=mwang87
TAGS=
LIBRARYQUALITY=3
SPECTRUMID=CCMSLIB00000425152
SCANS=124
61.135 100.0 
74.099 20.792 
84.012 4.517 
87.033 9.777 
103.995 5.322 
END IONS

BEGIN IONS
PEPMASS=649.592
CHARGE=1+
MSLEVEL=2
SOURCE_INSTRUMENT=Positive-Quattro_QQQ:25eV
FILENAME=hmdb_intermediate.mgf
SEQ=*..*
IONMODE=Positive
ORGANISM=HMDB
NAME=HMDB:HMDB00610-829 CE(18:2(9Z,12Z)) M+H
PI=HMDB
DATACOLLECTOR=HMDB
SMILES=CCCCC\C=C/C\C=C/CCCCCCCC(=O)O[C@H]1CC[C@@]2(C)C(=CC[C@@]3([H])[C@]4([H])CC[C@]([H])([C@H](C)CCCC(C)C)[C@@]4(C)CC[C@]23[H])C1
INCHI=InChI=1S/C45H76O2/c1-7-8-9-10-11-12-13-14-15-16-17-18-19-20-21-25-43(46)47-38-30-32-44(5)37(34-38)26-27-39-41-29-28-40(36(4)24-22-23-35(2)3)45(41,6)33-31-42(39)44/h11-12,14-15,26,35-36,38-42H,7-10,13,16-25,27-34H2,1-6H3/b12-11-,15-14-/t36-,38+,39+,40-,41+,42+,44+,45-/m1/s1
INCHIAUX=N/A
PUBMED=N/A
SUBMITUSER=mwang87
TAGS=
LIBRARYQUALITY=3
SPECTRUMID=CCMSLIB00000425153
SCANS=125
605.0 14.804 
649.0 100.0 
END IONS

BEGIN IONS
PEPMASS=124.04
CHARGE=1+
MSLEVEL=2
SOURCE_INSTRUMENT=Positive-Quattro_QQQ:10eV
FILENAME=hmdb_intermediate.mgf
SEQ=*..*
IONMODE=Positive
ORGANISM=HMDB
NAME=HMDB:HMDB01488-1604 Nicotinic acid M+H
PI=HMDB
DATACOLLECTOR=HMDB
SMILES=OC(=O)C1=CN=CC=C1
INCHI=InChI=1S/C6H5NO2/c8-6(9)5-2-1-3-7-4-5/h1-4H,(H,8,9)
INCHIAUX=N/A
PUBMED=N/A
SUBMITUSER=mwang87
TAGS=
LIBRARYQUALITY=3
SPECTRUMID=CCMSLIB00000425154
SCANS=126
80.11 9.02 
106.024 3.235 
123.935 100.0 
END IONS

BEGIN IONS
PEPMASS=138.055
CHARGE=1+
MSLEVEL=2
SOURCE_INSTRUMENT=Positive-Quattro_QQQ:25eV
FILENAME=hmdb_intermediate.mgf
SEQ=*..*
IONMODE=Positive
ORGANISM=HMDB
NAME=HMDB:HMDB00875-1236 Trigonelline M+H
PI=HMDB
DATACOLLECTOR=HMDB
SMILES=C[N+]1=CC(=CC=C1)C([O-])=O
INCHI=InChI=1S/C7H7NO2/c1-8-4-2-3-6(5-8)7(9)10/h2-5H,1H3
INCHIAUX=N/A
PUBMED=N/A
SUBMITUSER=mwang87
TAGS=
LIBRARYQUALITY=3
SPECTRUMID=CCMSLIB00000425155
SCANS=127
92.462 21.189 
138.145 100.0 
END IONS

BEGIN IONS
PEPMASS=112.04
CHARGE=1+
MSLEVEL=2
SOURCE_INSTRUMENT=Positive-Quattro_QQQ:40eV
FILENAME=hmdb_intermediate.mgf
SEQ=*..*
IONMODE=Positive
ORGANISM=HMDB
NAME=HMDB:HMDB04230-2378 Pyrrole-2-carboxylic acid M+H
PI=HMDB
DATACOLLECTOR=HMDB
SMILES=OC(=O)C1=CC=CN1
INCHI=InChI=1S/C5H5NO2/c7-5(8)4-2-1-3-6-4/h1-3,6H,(H,7,8)
INCHIAUX=N/A
PUBMED=N/A
SUBMITUSER=mwang87
TAGS=
LIBRARYQUALITY=3
SPECTRUMID=CCMSLIB00000425156
SCANS=128
39.22 100.0 
65.77 18.271 
END IONS

BEGIN IONS
PEPMASS=325.044
CHARGE=1+
MSLEVEL=2
SOURCE_INSTRUMENT=Positive-Quattro_QQQ:25eV
FILENAME=hmdb_intermediate.mgf
SEQ=*..*
IONMODE=Positive
ORGANISM=HMDB
NAME=HMDB:HMDB00288-487 Uridine 5'-monophosphate M+H
PI=HMDB
DATACOLLECTOR=HMDB
SMILES=O[C@H]1[C@@H](O)[C@@H](O[C@@H]1COP(O)(O)=O)N1C=CC(=O)NC1=O
INCHI=InChI=1S/C9H13N2O9P/c12-5-1-2-11(9(15)10-5)8-7(14)6(13)4(20-8)3-19-21(16,17)18/h1-2,4,6-8,13-14H,3H2,(H,10,12,15)(H2,16,17,18)/t4-,6-,7-,8-/m1/s1
INCHIAUX=N/A
PUBMED=N/A
SUBMITUSER=mwang87
TAGS=
LIBRARYQUALITY=3
SPECTRUMID=CCMSLIB00000425157
SCANS=129
113.0 100.0 
115.0 7.702 
138.0 3.446 
148.0 2.614 
155.0 2.831 
166.0 5.703 
209.0 1.707 
220.0 12.444 
227.0 5.382 
END IONS

BEGIN IONS
PEPMASS=104.071
CHARGE=1+
MSLEVEL=2
SOURCE_INSTRUMENT=Positive-Quattro_QQQ:40eV
FILENAME=hmdb_intermediate.mgf
SEQ=*..*
IONMODE=Positive
ORGANISM=HMDB
NAME=HMDB:HMDB03911-2351 3-Aminoisobutanoic acid M+H
PI=HMDB
DATACOLLECTOR=HMDB
SMILES=CC(CN)C(O)=O
INCHI=InChI=1S/C4H9NO2/c1-3(2-5)4(6)7/h3H,2,5H2,1H3,(H,6,7)
INCHIAUX=N/A
PUBMED=N/A
SUBMITUSER=mwang87
TAGS=
LIBRARYQUALITY=3
SPECTRUMID=CCMSLIB00000425158
SCANS=130
73.0 43.818 
86.0 35.208 
104.0 100.0 
105.0 14.3 
END IONS

BEGIN IONS
PEPMASS=732.615
CHARGE=1+
MSLEVEL=2
SOURCE_INSTRUMENT=Positive-Quattro_QQQ:40eV
FILENAME=hmdb_intermediate.mgf
SEQ=*..*
IONMODE=Positive
ORGANISM=HMDB
NAME=HMDB:HMDB01348-1530 SM(d18:1/18:0) M+H
PI=HMDB
DATACOLLECTOR=HMDB
SMILES=CCCCCCCCCCCCCCCCCC(=O)N[C@@]([H])(COP(O)(=O)OCC[N+](C)(C)C)[C@]([H])(O)\C=C\CCCCCCCCCCCCC
INCHI=InChI=1S/C41H83N2O6P/c1-6-8-10-12-14-16-18-20-21-23-25-27-29-31-33-35-41(45)42-39(38-49-50(46,47)48-37-36-43(3,4)5)40(44)34-32-30-28-26-24-22-19-17-15-13-11-9-7-2/h32,34,39-40,44H,6-31,33,35-38H2,1-5H3,(H-,42,45,46,47)/p+1/b34-32+/t39-,40+/m0/s1
INCHIAUX=N/A
PUBMED=N/A
SUBMITUSER=mwang87
TAGS=
LIBRARYQUALITY=3
SPECTRUMID=CCMSLIB00000425159
SCANS=131
86.0 11.922 
184.0 100.0 
END IONS

BEGIN IONS
PEPMASS=239.092
CHARGE=1+
MSLEVEL=2
SOURCE_INSTRUMENT=Positive-Quattro_QQQ:40eV
FILENAME=hmdb_intermediate.mgf
SEQ=*..*
IONMODE=Positive
ORGANISM=HMDB
NAME=HMDB:HMDB02511-2115 3,4,5-Trimethoxycinnamic acid M+H
PI=HMDB
DATACOLLECTOR=HMDB
SMILES=COC1=CC(\C=C\C(O)=O)=CC(OC)=C1OC
INCHI=InChI=1S/C12H14O5/c1-15-9-6-8(4-5-11(13)14)7-10(16-2)12(9)17-3/h4-7H,1-3H3,(H,13,14)/b5-4+
INCHIAUX=N/A
PUBMED=N/A
SUBMITUSER=mwang87
TAGS=
LIBRARYQUALITY=3
SPECTRUMID=CCMSLIB00000425160
SCANS=132
90.0 100.0 
END IONS

BEGIN IONS
PEPMASS=87.0446
CHARGE=1+
MSLEVEL=2
SOURCE_INSTRUMENT=Negative-Quattro_QQQ:25eV
FILENAME=hmdb_intermediate.mgf
SEQ=*..*
IONMODE=Negative
ORGANISM=HMDB
NAME=HMDB:HMDB00039-67 Butyric acid M-H
PI=HMDB
DATACOLLECTOR=HMDB
SMILES=CCCC(O)=O
INCHI=InChI=1S/C4H8O2/c1-2-3-4(5)6/h2-3H2,1H3,(H,5,6)
INCHIAUX=N/A
PUBMED=N/A
SUBMITUSER=mwang87
TAGS=
LIBRARYQUALITY=3
SPECTRUMID=CCMSLIB00000425161
SCANS=133
58.236 5.8 
84.455 4.673 
87.076 100.0 
END IONS

BEGIN IONS
PEPMASS=175.024
CHARGE=1+
MSLEVEL=2
SOURCE_INSTRUMENT=Positive-Quattro_QQQ:10eV
FILENAME=hmdb_intermediate.mgf
SEQ=*..*
IONMODE=Positive
ORGANISM=HMDB
NAME=HMDB:HMDB01264-1497 Dehydroascorbic acid M+H
PI=HMDB
DATACOLLECTOR=HMDB
SMILES=[H][C@@]1(OC(=O)C(=O)C1=O)[C@H](O)CO
INCHI=InChI=1S/C6H6O6/c7-1-2(8)5-3(9)4(10)6(11)12-5/h2,5,7-8H,1H2/t2-,5-/m1/s1
INCHIAUX=N/A
PUBMED=N/A
SUBMITUSER=mwang87
TAGS=
LIBRARYQUALITY=3
SPECTRUMID=CCMSLIB00000425162
SCANS=134
61.0 9.431 
73.0 47.781 
83.0 32.264 
85.0 66.54 
101.0 30.629 
111.0 56.534 
115.0 21.206 
129.0 53.531 
143.0 64.633 
147.0 11.688 
157.0 74.102 
175.0 100.0 
END IONS

BEGIN IONS
PEPMASS=138.055
CHARGE=1+
MSLEVEL=2
SOURCE_INSTRUMENT=Positive-Quattro_QQQ:40eV
FILENAME=hmdb_intermediate.mgf
SEQ=*..*
IONMODE=Positive
ORGANISM=HMDB
NAME=HMDB:HMDB01538-1636 3-Pyridylacetic acid M+H
PI=HMDB
DATACOLLECTOR=HMDB
SMILES=OC(=O)CC1=CN=CC=C1
INCHI=InChI=1S/C7H7NO2/c9-7(10)4-6-2-1-3-8-5-6/h1-3,5H,4H2,(H,9,10)
INCHIAUX=N/A
PUBMED=N/A
SUBMITUSER=mwang87
TAGS=
LIBRARYQUALITY=3
SPECTRUMID=CCMSLIB00000425163
SCANS=135
65.0 51.451 
78.0 8.774 
92.0 100.0 
END IONS

BEGIN IONS
PEPMASS=768.123
CHARGE=1+
MSLEVEL=2
SOURCE_INSTRUMENT=Positive-Quattro_QQQ:25eV
FILENAME=hmdb_intermediate.mgf
SEQ=*..*
IONMODE=Positive
ORGANISM=HMDB
NAME=HMDB:HMDB01423-1572 Coenzyme A M+H
PI=HMDB
DATACOLLECTOR=HMDB
SMILES=CC(C)(COP(O)(=O)OP(O)(=O)OC[C@H]1O[C@H]([C@H](O)[C@@H]1OP(O)(O)=O)N1C=NC2=C1N=CN=C2N)C(O)C(=O)NCCC(=O)NCCS
INCHI=InChI=1S/C21H36N7O16P3S/c1-21(2,16(31)19(32)24-4-3-12(29)23-5-6-48)8-41-47(38,39)44-46(36,37)40-7-11-15(43-45(33,34)35)14(30)20(42-11)28-10-27-13-17(22)25-9-26-18(13)28/h9-11,14-16,20,30-31,48H,3-8H2,1-2H3,(H,23,29)(H,24,32)(H,36,37)(H,38,39)(H2,22,25,26)(H2,33,34,35)/t11-,14-,15-,16?,20-/m1/s1
INCHIAUX=N/A
PUBMED=N/A
SUBMITUSER=mwang87
TAGS=
LIBRARYQUALITY=3
SPECTRUMID=CCMSLIB00000425164
SCANS=136
136.0 3.438 
159.0 6.322 
243.0 1.83 
261.0 100.0 
330.0 1.07 
341.0 3.629 
359.0 0.846 
410.0 2.459 
428.0 23.074 
508.0 1.418 
768.0 2.96 
END IONS

BEGIN IONS
PEPMASS=397.405
CHARGE=1+
MSLEVEL=2
SOURCE_INSTRUMENT=Positive-Quattro_QQQ:25eV
FILENAME=hmdb_intermediate.mgf
SEQ=*..*
IONMODE=Positive
ORGANISM=HMDB
NAME=HMDB:HMDB60125-2077 Hexacosanoic acid M+H
PI=HMDB
DATACOLLECTOR=HMDB
SMILES=CCCCCCCCCCCCCCCCCCCCCCCCCC(O)=O
INCHI=InChI=1S/C26H52O2/c1-2-3-4-5-6-7-8-9-10-11-12-13-14-15-16-17-18-19-20-21-22-23-24-25-26(27)28/h2-25H2,1H3,(H,27,28)
INCHIAUX=N/A
PUBMED=N/A
SUBMITUSER=mwang87
TAGS=
LIBRARYQUALITY=3
SPECTRUMID=CCMSLIB00000425165
SCANS=137
73.48 94.77 
103.03 67.222 
209.62 68.558 
227.77 69.726 
252.45 85.708 
294.19 92.585 
298.87 78.641 
309.42 100.0 
END IONS

BEGIN IONS
PEPMASS=123.045
CHARGE=1+
MSLEVEL=2
SOURCE_INSTRUMENT=Positive-Quattro_QQQ:10eV
FILENAME=hmdb_intermediate.mgf
SEQ=*..*
IONMODE=Positive
ORGANISM=HMDB
NAME=HMDB:HMDB01870-1756 Benzoic acid M+H
PI=HMDB
DATACOLLECTOR=HMDB
SMILES=OC(=O)C1=CC=CC=C1
INCHI=InChI=1S/C7H6O2/c8-7(9)6-4-2-1-3-5-6/h1-5H,(H,8,9)
INCHIAUX=N/A
PUBMED=N/A
SUBMITUSER=mwang87
TAGS=
LIBRARYQUALITY=3
SPECTRUMID=CCMSLIB00000425166
SCANS=138
77.106 100.0 
120.972 59.195 
END IONS

BEGIN IONS
PEPMASS=450.322
CHARGE=1+
MSLEVEL=2
SOURCE_INSTRUMENT=Positive-Quattro_QQQ:25eV
FILENAME=hmdb_intermediate.mgf
SEQ=*..*
IONMODE=Positive
ORGANISM=HMDB
NAME=HMDB:HMDB00631-862 Deoxycholic acid glycine conjugate M+H
PI=HMDB
DATACOLLECTOR=HMDB
SMILES=[H][C@]12CCC3C4CC[C@H]([C@H](C)CCC(=O)NCC(O)=O)[C@@]4(C)[C@@H](O)CC3[C@@]1(C)CC[C@@H](O)C2
INCHI=InChI=1S/C26H43NO5/c1-15(4-9-23(30)27-14-24(31)32)19-7-8-20-18-6-5-16-12-17(28)10-11-25(16,2)21(18)13-22(29)26(19,20)3/h15-22,28-29H,4-14H2,1-3H3,(H,27,30)(H,31,32)/t15-,16-,17-,18?,19-,20?,21?,22+,25+,26-/m1/s1
INCHIAUX=N/A
PUBMED=N/A
SUBMITUSER=mwang87
TAGS=
LIBRARYQUALITY=3
SPECTRUMID=CCMSLIB00000425167
SCANS=139
76.129 95.076 
85.121 8.049 
95.152 12.405 
107.087 16.572 
121.069 15.436 
133.068 11.08 
135.059 28.03 
149.034 25.379 
158.012 35.227 
173.089 11.648 
175.041 21.875 
188.994 17.235 
203.026 31.818 
211.076 28.788 
215.067 56.439 
229.037 48.864 
243.023 30.682 
252.066 12.027 
257.057 11.364 
265.694 7.955 
278.011 7.67 
297.044 12.311 
321.202 65.909 
339.23 83.333 
414.27 100.0 
414.903 16.098 
END IONS

BEGIN IONS
PEPMASS=232.118
CHARGE=1+
MSLEVEL=2
SOURCE_INSTRUMENT=Positive-Quattro_QQQ:10eV
FILENAME=hmdb_intermediate.mgf
SEQ=*..*
IONMODE=Positive
ORGANISM=HMDB
NAME=HMDB:HMDB00953-1345 Suberylglycine M+H
PI=HMDB
DATACOLLECTOR=HMDB
SMILES=OC(=O)CCCCCCC(=O)NCC(O)=O
INCHI=InChI=1S/C10H17NO5/c12-8(11-7-10(15)16)5-3-1-2-4-6-9(13)14/h1-7H2,(H,11,12)(H,13,14)(H,15,16)
INCHIAUX=N/A
PUBMED=N/A
SUBMITUSER=mwang87
TAGS=
LIBRARYQUALITY=3
SPECTRUMID=CCMSLIB00000425168
SCANS=140
83.0 8.369 
111.0 6.285 
157.0 30.719 
168.0 32.382 
186.0 44.161 
214.0 100.0 
232.0 6.702 
END IONS

BEGIN IONS
PEPMASS=152.071
CHARGE=1+
MSLEVEL=2
SOURCE_INSTRUMENT=Positive-Quattro_QQQ:40eV
FILENAME=hmdb_intermediate.mgf
SEQ=*..*
IONMODE=Positive
ORGANISM=HMDB
NAME=HMDB:HMDB02210-2033 2-Phenylglycine M+H
PI=HMDB
DATACOLLECTOR=HMDB
SMILES=NC(C(O)=O)C1=CC=CC=C1
INCHI=InChI=1S/C8H9NO2/c9-7(8(10)11)6-4-2-1-3-5-6/h1-5,7H,9H2,(H,10,11)
INCHIAUX=N/A
PUBMED=N/A
SUBMITUSER=mwang87
TAGS=
LIBRARYQUALITY=3
SPECTRUMID=CCMSLIB00000425169
SCANS=141
76.0 100.0 
END IONS

BEGIN IONS
PEPMASS=151.061
CHARGE=1+
MSLEVEL=2
SOURCE_INSTRUMENT=Positive-Quattro_QQQ:40eV
FILENAME=hmdb_intermediate.mgf
SEQ=*..*
IONMODE=Positive
ORGANISM=HMDB
NAME=HMDB:HMDB00098-155 D-Xylose M+H
PI=HMDB
DATACOLLECTOR=HMDB
SMILES=O[C@@H]1COC(O)[C@H](O)[C@H]1O
INCHI=InChI=1S/C5H10O5/c6-2-1-10-5(9)4(8)3(2)7/h2-9H,1H2/t2-,3+,4-,5?/m1/s1
INCHIAUX=N/A
PUBMED=N/A
SUBMITUSER=mwang87
TAGS=
LIBRARYQUALITY=3
SPECTRUMID=CCMSLIB00000425170
SCANS=142
87.0 77.099 
101.0 100.0 
119.0 49.978 
133.0 29.987 
151.0 32.037 
END IONS

BEGIN IONS
PEPMASS=289.18
CHARGE=1+
MSLEVEL=2
SOURCE_INSTRUMENT=Positive-Quattro_QQQ:40eV
FILENAME=hmdb_intermediate.mgf
SEQ=*..*
IONMODE=Positive
ORGANISM=HMDB
NAME=HMDB:HMDB00347-560 16b-Hydroxyestradiol M+H
PI=HMDB
DATACOLLECTOR=HMDB
SMILES=[H][C@@]12C[C@H](O)[C@H](O)[C@@]1(C)CC[C@]1([H])C3=C(CC[C@@]21[H])C=C(O)C=C3
INCHI=InChI=1S/C18H24O3/c1-18-7-6-13-12-5-3-11(19)8-10(12)2-4-14(13)15(18)9-16(20)17(18)21/h3,5,8,13-17,19-21H,2,4,6-7,9H2,1H3/t13-,14-,15+,16+,17+,18+/m1/s1
INCHIAUX=N/A
PUBMED=N/A
SUBMITUSER=mwang87
TAGS=
LIBRARYQUALITY=3
SPECTRUMID=CCMSLIB00000425171
SCANS=143
43.599 3.762 
55.483 7.888 
67.376 14.32 
79.318 26.214 
91.262 17.476 
95.286 9.102 
107.2 100.0 
121.176 4.612 
133.102 11.226 
144.874 5.279 
157.029 5.461 
END IONS

BEGIN IONS
PEPMASS=442.147
CHARGE=1+
MSLEVEL=2
SOURCE_INSTRUMENT=Positive-Quattro_QQQ:40eV
FILENAME=hmdb_intermediate.mgf
SEQ=*..*
IONMODE=Positive
ORGANISM=HMDB
NAME=HMDB:HMDB00121-176 Folic acid M+H
PI=HMDB
DATACOLLECTOR=HMDB
SMILES=NC1=NC(=O)C2=NC(CNC3=CC=C(C=C3)C(=O)N[C@@H](CCC(O)=O)C(O)=O)=CN=C2N1
INCHI=InChI=1S/C19H19N7O6/c20-19-25-15-14(17(30)26-19)23-11(8-22-15)7-21-10-3-1-9(2-4-10)16(29)24-12(18(31)32)5-6-13(27)28/h1-4,8,12,21H,5-7H2,(H,24,29)(H,27,28)(H,31,32)(H3,20,22,25,26,30)/t12-/m0/s1
INCHIAUX=N/A
PUBMED=N/A
SUBMITUSER=mwang87
TAGS=
LIBRARYQUALITY=3
SPECTRUMID=CCMSLIB00000425172
SCANS=144
294.35 70.336 
295.31 100.0 
442.4 29.541 
END IONS

BEGIN IONS
PEPMASS=149.06
CHARGE=1+
MSLEVEL=2
SOURCE_INSTRUMENT=Positive-Quattro_QQQ:10eV
FILENAME=hmdb_intermediate.mgf
SEQ=*..*
IONMODE=Positive
ORGANISM=HMDB
NAME=HMDB:HMDB00930-1324 trans-Cinnamic acid M+H
PI=HMDB
DATACOLLECTOR=HMDB
SMILES=OC(=O)\C=C\C1=CC=CC=C1
INCHI=InChI=1S/C9H8O2/c10-9(11)7-6-8-4-2-1-3-5-8/h1-7H,(H,10,11)/b7-6+
INCHIAUX=N/A
PUBMED=N/A
SUBMITUSER=mwang87
TAGS=
LIBRARYQUALITY=3
SPECTRUMID=CCMSLIB00000425173
SCANS=145
102.0 13.252 
130.0 100.0 
148.0 11.653 
END IONS

BEGIN IONS
PEPMASS=403.358
CHARGE=1+
MSLEVEL=2
SOURCE_INSTRUMENT=Positive-Quattro_QQQ:10eV
FILENAME=hmdb_intermediate.mgf
SEQ=*..*
IONMODE=Positive
ORGANISM=HMDB
NAME=HMDB:HMDB02902-2157 Delta-Tocopherol M+H
PI=HMDB
DATACOLLECTOR=HMDB
SMILES=CC(C)CCC[C@@H](C)CCC[C@@H](C)CCC[C@]1(C)CCC2=C(O1)C(C)=CC(O)=C2
INCHI=InChI=1S/C27H46O2/c1-20(2)10-7-11-21(3)12-8-13-22(4)14-9-16-27(6)17-15-24-19-25(28)18-23(5)26(24)29-27/h18-22,28H,7-17H2,1-6H3/t21-,22-,27-/m1/s1
INCHIAUX=N/A
PUBMED=N/A
SUBMITUSER=mwang87
TAGS=
LIBRARYQUALITY=3
SPECTRUMID=CCMSLIB00000425174
SCANS=146
70.0 11.046 
84.0 2.478 
85.0 1.849 
96.0 4.285 
110.0 4.106 
136.0 45.912 
403.0 100.0 
END IONS

BEGIN IONS
PEPMASS=216.043
CHARGE=1+
MSLEVEL=2
SOURCE_INSTRUMENT=Positive-Quattro_QQQ:10eV
FILENAME=hmdb_intermediate.mgf
SEQ=*..*
IONMODE=Positive
ORGANISM=HMDB
NAME=HMDB:HMDB01885-1783 3-Chlorotyrosine M+H
PI=HMDB
DATACOLLECTOR=HMDB
SMILES=NC(CC1=CC(Cl)=C(O)C=C1)C(O)=O
INCHI=InChI=1S/C9H10ClNO3/c10-6-3-5(1-2-8(6)12)4-7(11)9(13)14/h1-3,7,12H,4,11H2,(H,13,14)
INCHIAUX=N/A
PUBMED=N/A
SUBMITUSER=mwang87
TAGS=
LIBRARYQUALITY=3
SPECTRUMID=CCMSLIB00000425175
SCANS=147
153.12 4.3551946225 
157.14 6.5140208109 
170.1 58.1949487159 
181.08 12.843854066 
199.08 42.3011177531 
216.06 100.0 
END IONS

BEGIN IONS
PEPMASS=160.097
CHARGE=1+
MSLEVEL=2
SOURCE_INSTRUMENT=Positive-Quattro_QQQ:10eV
FILENAME=hmdb_intermediate.mgf
SEQ=*..*
IONMODE=Positive
ORGANISM=HMDB
NAME=HMDB:HMDB00678-939 Isovalerylglycine M+H
PI=HMDB
DATACOLLECTOR=HMDB
SMILES=CC(C)CC(=O)NCC(O)=O
INCHI=InChI=1S/C7H13NO3/c1-5(2)3-6(9)8-4-7(10)11/h5H,3-4H2,1-2H3,(H,8,9)(H,10,11)
INCHIAUX=N/A
PUBMED=N/A
SUBMITUSER=mwang87
TAGS=
LIBRARYQUALITY=3
SPECTRUMID=CCMSLIB00000425176
SCANS=148
57.505 31.944 
76.333 100.0 
85.327 93.333 
160.115 5.694 
END IONS

BEGIN IONS
PEPMASS=500.305
CHARGE=1+
MSLEVEL=2
SOURCE_INSTRUMENT=Positive-Quattro_QQQ:10eV
FILENAME=hmdb_intermediate.mgf
SEQ=*..*
IONMODE=Positive
ORGANISM=HMDB
NAME=HMDB:HMDB00896-1265 Taurodeoxycholic acid M+H
PI=HMDB
DATACOLLECTOR=HMDB
SMILES=[H][C@@]1(CC[C@@]2([H])[C@]3([H])CC[C@]4([H])C[C@H](O)CC[C@]4(C)[C@@]3([H])C[C@H](O)[C@]12C)[C@H](C)CCC(=O)NCCS(O)(=O)=O
INCHI=InChI=1S/C26H45NO6S/c1-16(4-9-24(30)27-12-13-34(31,32)33)20-7-8-21-19-6-5-17-14-18(28)10-11-25(17,2)22(19)15-23(29)26(20,21)3/h16-23,28-29H,4-15H2,1-3H3,(H,27,30)(H,31,32,33)/t16-,17-,18-,19+,20-,21+,22+,23+,25+,26-/m1/s1
INCHIAUX=N/A
PUBMED=N/A
SUBMITUSER=mwang87
TAGS=
LIBRARYQUALITY=3
SPECTRUMID=CCMSLIB00000425177
SCANS=149
89.213 6.591 
100.85 5.469 
113.119 5.189 
124.629 5.189 
207.488 21.458 
215.458 20.336 
224.694 6.873 
243.545 87.382 
312.758 5.189 
330.22 6.031 
341.609 20.336 
358.567 20.056 
370.336 37.449 
377.55 6.591 
398.558 56.524 
407.038 6.031 
441.59 49.511 
454.247 6.031 
463.614 100.0 
464.626 54.0 
501.713 92.429 
507.029 6.591 
END IONS

BEGIN IONS
PEPMASS=152.057
CHARGE=1+
MSLEVEL=2
SOURCE_INSTRUMENT=Positive-Quattro_QQQ:25eV
FILENAME=hmdb_intermediate.mgf
SEQ=*..*
IONMODE=Positive
ORGANISM=HMDB
NAME=HMDB:HMDB00403-613 2-Hydroxyadenine M+H
PI=HMDB
DATACOLLECTOR=HMDB
SMILES=NC1=NC(O)=NC2=C1NC=N2
INCHI=InChI=1S/C5H5N5O/c6-3-2-4(8-1-7-2)10-5(11)9-3/h1H,(H4,6,7,8,9,10,11)
INCHIAUX=N/A
PUBMED=N/A
SUBMITUSER=mwang87
TAGS=
LIBRARYQUALITY=3
SPECTRUMID=CCMSLIB00000425178
SCANS=150
54.0 3.756 
79.0 18.329 
91.0 4.529 
106.0 28.689 
134.0 100.0 
135.0 6.844 
151.0 13.557 
END IONS

BEGIN IONS
PEPMASS=283.264
CHARGE=1+
MSLEVEL=2
SOURCE_INSTRUMENT=Negative-Quattro_QQQ:10eV
FILENAME=hmdb_intermediate.mgf
SEQ=*..*
IONMODE=Negative
ORGANISM=HMDB
NAME=HMDB:HMDB00827-1176 Stearic acid M-H
PI=HMDB
DATACOLLECTOR=HMDB
SMILES=CCCCCCCCCCCCCCCCCC(O)=O
INCHI=InChI=1S/C18H36O2/c1-2-3-4-5-6-7-8-9-10-11-12-13-14-15-16-17-18(19)20/h2-17H2,1H3,(H,19,20)
INCHIAUX=N/A
PUBMED=N/A
SUBMITUSER=mwang87
TAGS=
LIBRARYQUALITY=3
SPECTRUMID=CCMSLIB00000425179
SCANS=151
283.251 100.0 
END IONS

BEGIN IONS
PEPMASS=194.082
CHARGE=1+
MSLEVEL=2
SOURCE_INSTRUMENT=Positive-Quattro_QQQ:40eV
FILENAME=hmdb_intermediate.mgf
SEQ=*..*
IONMODE=Positive
ORGANISM=HMDB
NAME=HMDB:HMDB00821-1172 Phenylacetylglycine M+H
PI=HMDB
DATACOLLECTOR=HMDB
SMILES=OC(=O)CNC(=O)CC1=CC=CC=C1
INCHI=InChI=1S/C10H11NO3/c12-9(11-7-10(13)14)6-8-4-2-1-3-5-8/h1-5H,6-7H2,(H,11,12)(H,13,14)
INCHIAUX=N/A
PUBMED=N/A
SUBMITUSER=mwang87
TAGS=
LIBRARYQUALITY=3
SPECTRUMID=CCMSLIB00000425180
SCANS=152
76.0 10.227 
91.0 100.0 
END IONS

BEGIN IONS
PEPMASS=178.05
CHARGE=1+
MSLEVEL=2
SOURCE_INSTRUMENT=Negative-Quattro_QQQ:40eV
FILENAME=hmdb_intermediate.mgf
SEQ=*..*
IONMODE=Negative
ORGANISM=HMDB
NAME=HMDB:HMDB00714-998 Hippuric acid M-H
PI=HMDB
DATACOLLECTOR=HMDB
SMILES=OC(=O)CNC(=O)C1=CC=CC=C1
INCHI=InChI=1S/C9H9NO3/c11-8(12)6-10-9(13)7-4-2-1-3-5-7/h1-5H,6H2,(H,10,13)(H,11,12)
INCHIAUX=N/A
PUBMED=N/A
SUBMITUSER=mwang87
TAGS=
LIBRARYQUALITY=3
SPECTRUMID=CCMSLIB00000425181
SCANS=153
42.312 12.619 
56.203 9.94 
77.061 100.0 
134.06 4.881 
177.989 12.917 
END IONS

BEGIN IONS
PEPMASS=106.087
CHARGE=1+
MSLEVEL=2
SOURCE_INSTRUMENT=Positive-Quattro_QQQ:25eV
FILENAME=hmdb_intermediate.mgf
SEQ=*..*
IONMODE=Positive
ORGANISM=HMDB
NAME=HMDB:HMDB04437-2386 Diethanolamine M+H
PI=HMDB
DATACOLLECTOR=HMDB
SMILES=OCCNCCO
INCHI=InChI=1S/C4H11NO2/c6-3-1-5-2-4-7/h5-7H,1-4H2
INCHIAUX=N/A
PUBMED=N/A
SUBMITUSER=mwang87
TAGS=
LIBRARYQUALITY=3
SPECTRUMID=CCMSLIB00000425182
SCANS=154
42.0 41.237 
45.0 100.0 
55.0 5.523 
70.0 29.993 
88.0 4.953 
106.0 6.345 
END IONS

BEGIN IONS
PEPMASS=209.097
CHARGE=1+
MSLEVEL=2
SOURCE_INSTRUMENT=Positive-Quattro_QQQ:25eV
FILENAME=hmdb_intermediate.mgf
SEQ=*..*
IONMODE=Positive
ORGANISM=HMDB
NAME=HMDB:HMDB03066-2186 Chalcone M+H
PI=HMDB
DATACOLLECTOR=HMDB
SMILES=O=C(\C=C\C1=CC=CC=C1)C1=CC=CC=C1
INCHI=InChI=1S/C15H12O/c16-15(14-9-5-2-6-10-14)12-11-13-7-3-1-4-8-13/h1-12H/b12-11+
INCHIAUX=N/A
PUBMED=N/A
SUBMITUSER=mwang87
TAGS=
LIBRARYQUALITY=3
SPECTRUMID=CCMSLIB00000425183
SCANS=155
102.9 100.0 
130.86 35.316 
END IONS

BEGIN IONS
PEPMASS=301.18
CHARGE=1+
MSLEVEL=2
SOURCE_INSTRUMENT=Positive-Quattro_QQQ:40eV
FILENAME=hmdb_intermediate.mgf
SEQ=*..*
IONMODE=Positive
ORGANISM=HMDB
NAME=HMDB:HMDB00010-15 2-Methoxyestrone M+H
PI=HMDB
DATACOLLECTOR=HMDB
SMILES=[H][C@@]12CCC(=O)[C@@]1(C)CC[C@]1([H])C3=C(CC[C@@]21[H])C=C(O)C(OC)=C3
INCHI=InChI=1S/C19H24O3/c1-19-8-7-12-13(15(19)5-6-18(19)21)4-3-11-9-16(20)17(22-2)10-14(11)12/h9-10,12-13,15,20H,3-8H2,1-2H3/t12-,13+,15-,19-/m0/s1
INCHIAUX=N/A
PUBMED=N/A
SUBMITUSER=mwang87
TAGS=
LIBRARYQUALITY=3
SPECTRUMID=CCMSLIB00000425184
SCANS=156
67.0 15.12 
81.0 22.457 
91.0 23.06 
103.0 88.807 
122.0 20.221 
131.0 100.0 
137.0 70.639 
153.0 13.797 
157.0 33.896 
172.0 31.945 
181.0 15.821 
187.0 45.813 
195.0 12.092 
END IONS

BEGIN IONS
PEPMASS=151.061
CHARGE=1+
MSLEVEL=2
SOURCE_INSTRUMENT=Positive-Quattro_QQQ:25eV
FILENAME=hmdb_intermediate.mgf
SEQ=*..*
IONMODE=Positive
ORGANISM=HMDB
NAME=HMDB:HMDB00621-841 D-Ribulose M+H
PI=HMDB
DATACOLLECTOR=HMDB
SMILES=OC[C@@H](O)[C@@H](O)C(=O)CO
INCHI=InChI=1S/C5H10O5/c6-1-3(8)5(10)4(9)2-7/h3,5-8,10H,1-2H2/t3-,5-/m1/s1
INCHIAUX=N/A
PUBMED=N/A
SUBMITUSER=mwang87
TAGS=
LIBRARYQUALITY=3
SPECTRUMID=CCMSLIB00000425185
SCANS=157
69.0 100.0 
114.0 99.0366112717 
123.0 36.4161849711 
END IONS

BEGIN IONS
PEPMASS=149.009
CHARGE=1+
MSLEVEL=2
SOURCE_INSTRUMENT=Negative-Quattro_QQQ:40eV
FILENAME=hmdb_intermediate.mgf
SEQ=*..*
IONMODE=Negative
ORGANISM=HMDB
NAME=HMDB:HMDB00956-1356 Tartaric acid M-H
PI=HMDB
DATACOLLECTOR=HMDB
SMILES=O[C@H]([C@@H](O)C(O)=O)C(O)=O
INCHI=InChI=1S/C4H6O6/c5-1(3(7)8)2(6)4(9)10/h1-2,5-6H,(H,7,8)(H,9,10)/t1-,2-/m1/s1
INCHIAUX=N/A
PUBMED=N/A
SUBMITUSER=mwang87
TAGS=
LIBRARYQUALITY=3
SPECTRUMID=CCMSLIB00000425186
SCANS=158
43.598 100.0 
45.561 25.0 
59.421 30.285 
73.292 49.39 
75.03 5.081 
87.196 14.837 
148.995 20.732 
END IONS

BEGIN IONS
PEPMASS=383.389
CHARGE=1+
MSLEVEL=2
SOURCE_INSTRUMENT=Positive-Quattro_QQQ:10eV
FILENAME=hmdb_intermediate.mgf
SEQ=*..*
IONMODE=Positive
ORGANISM=HMDB
NAME=HMDB:HMDB02361-2082 Pentacosanoic acid M+H
PI=HMDB
DATACOLLECTOR=HMDB
SMILES=CCCCCCCCCCCCCCCCCCCCCCCCC(O)=O
INCHI=InChI=1S/C25H50O2/c1-2-3-4-5-6-7-8-9-10-11-12-13-14-15-16-17-18-19-20-21-22-23-24-25(26)27/h2-24H2,1H3,(H,26,27)
INCHIAUX=N/A
PUBMED=N/A
SUBMITUSER=mwang87
TAGS=
LIBRARYQUALITY=3
SPECTRUMID=CCMSLIB00000425187
SCANS=159
383.0 100.0 
END IONS

BEGIN IONS
PEPMASS=117.055
CHARGE=1+
MSLEVEL=2
SOURCE_INSTRUMENT=Negative-Quattro_QQQ:25eV
FILENAME=hmdb_intermediate.mgf
SEQ=*..*
IONMODE=Negative
ORGANISM=HMDB
NAME=HMDB:HMDB00407-619 2-Hydroxy-3-methylbutyric acid M-H
PI=HMDB
DATACOLLECTOR=HMDB
SMILES=CC(C)C(O)C(O)=O
INCHI=InChI=1S/C5H10O3/c1-3(2)4(6)5(7)8/h3-4,6H,1-2H3,(H,7,8)
INCHIAUX=N/A
PUBMED=N/A
SUBMITUSER=mwang87
TAGS=
LIBRARYQUALITY=3
SPECTRUMID=CCMSLIB00000425188
SCANS=160
45.575 100.0 
71.41 78.4 
117.394 21.4 
END IONS

BEGIN IONS
PEPMASS=255.232
CHARGE=1+
MSLEVEL=2
SOURCE_INSTRUMENT=Negative-Quattro_QQQ:25eV
FILENAME=hmdb_intermediate.mgf
SEQ=*..*
IONMODE=Negative
ORGANISM=HMDB
NAME=HMDB:HMDB60083-359 Palmitic acid M-H
PI=HMDB
DATACOLLECTOR=HMDB
SMILES=CCCCCCCCCCCCCCCC(O)=O
INCHI=InChI=1S/C16H32O2/c1-2-3-4-5-6-7-8-9-10-11-12-13-14-15-16(17)18/h2-15H2,1H3,(H,17,18)
INCHIAUX=N/A
PUBMED=N/A
SUBMITUSER=mwang87
TAGS=
LIBRARYQUALITY=3
SPECTRUMID=CCMSLIB00000425189
SCANS=161
45.313 4.384 
59.249 1.597 
80.06 1.959 
237.103 7.556 
253.792 1.224 
255.112 100.0 
END IONS

BEGIN IONS
PEPMASS=153.041
CHARGE=1+
MSLEVEL=2
SOURCE_INSTRUMENT=Positive-Quattro_QQQ:40eV
FILENAME=hmdb_intermediate.mgf
SEQ=*..*
IONMODE=Positive
ORGANISM=HMDB
NAME=HMDB:HMDB00786-1124 Oxypurinol M+H
PI=HMDB
DATACOLLECTOR=HMDB
SMILES=O=C1NC2=C(C=NN2)C(=O)N1
INCHI=InChI=1S/C5H4N4O2/c10-4-2-1-6-9-3(2)7-5(11)8-4/h1H,(H3,6,7,8,9,10,11)
INCHIAUX=N/A
PUBMED=N/A
SUBMITUSER=mwang87
TAGS=
LIBRARYQUALITY=3
SPECTRUMID=CCMSLIB00000425190
SCANS=162
52.147 21.574 
57.2 47.919 
69.579 100.0 
76.527 90.755 
91.938 37.159 
97.876 27.809 
109.877 20.167 
140.196 18.154 
153.209 14.434 
END IONS

BEGIN IONS
PEPMASS=260.054
CHARGE=1+
MSLEVEL=2
SOURCE_INSTRUMENT=Positive-Quattro_QQQ:10eV
FILENAME=hmdb_intermediate.mgf
SEQ=*..*
IONMODE=Positive
ORGANISM=HMDB
NAME=HMDB:HMDB01254-1484 Glucosamine 6-phosphate M+H
PI=HMDB
DATACOLLECTOR=HMDB
SMILES=N[C@H]1[C@@H](O)O[C@H](COP(O)(O)=O)[C@@H](O)[C@@H]1O
INCHI=InChI=1S/C6H14NO8P/c7-3-5(9)4(8)2(15-6(3)10)1-14-16(11,12)13/h2-6,8-10H,1,7H2,(H2,11,12,13)/t2-,3-,4-,5-,6+/m1/s1
INCHIAUX=N/A
PUBMED=N/A
SUBMITUSER=mwang87
TAGS=
LIBRARYQUALITY=3
SPECTRUMID=CCMSLIB00000425191
SCANS=163
84.0 9.292 
98.0 3.729 
108.0 6.857 
126.0 100.0 
144.0 23.553 
206.0 47.405 
224.0 23.055 
242.0 16.681 
260.0 15.957 
END IONS

BEGIN IONS
PEPMASS=387.363
CHARGE=1+
MSLEVEL=2
SOURCE_INSTRUMENT=Positive-Quattro_QQQ:10eV
FILENAME=hmdb_intermediate.mgf
SEQ=*..*
IONMODE=Positive
ORGANISM=HMDB
NAME=HMDB:HMDB00871-1226 5alpha-Cholestanone M+H
PI=HMDB
DATACOLLECTOR=HMDB
SMILES=[H][C@@]1(CC[C@@]2([H])[C@]3([H])CC[C@@]4([H])CC(=O)CC[C@]4(C)[C@@]3([H])CC[C@]12C)[C@H](C)CCCC(C)C
INCHI=InChI=1S/C27H46O/c1-18(2)7-6-8-19(3)23-11-12-24-22-10-9-20-17-21(28)13-15-26(20,4)25(22)14-16-27(23,24)5/h18-20,22-25H,6-17H2,1-5H3/t19-,20+,22+,23-,24+,25+,26+,27-/m1/s1
INCHIAUX=N/A
PUBMED=N/A
SUBMITUSER=mwang87
TAGS=
LIBRARYQUALITY=3
SPECTRUMID=CCMSLIB00000425192
SCANS=164
368.98 7.337 
387.14 100.0 
END IONS

BEGIN IONS
PEPMASS=167.034
CHARGE=1+
MSLEVEL=2
SOURCE_INSTRUMENT=Negative-Quattro_QQQ:10eV
FILENAME=hmdb_intermediate.mgf
SEQ=*..*
IONMODE=Negative
ORGANISM=HMDB
NAME=HMDB:HMDB00750-1071 3-Hydroxymandelic acid M-H
PI=HMDB
DATACOLLECTOR=HMDB
SMILES=OC(C(O)=O)C1=CC(O)=CC=C1
INCHI=InChI=1S/C8H8O4/c9-6-3-1-2-5(4-6)7(10)8(11)12/h1-4,7,9-10H,(H,11,12)
INCHIAUX=N/A
PUBMED=N/A
SUBMITUSER=mwang87
TAGS=
LIBRARYQUALITY=3
SPECTRUMID=CCMSLIB00000425193
SCANS=165
123.157 100.0 
167.066 55.526 
END IONS

BEGIN IONS
PEPMASS=187.097
CHARGE=1+
MSLEVEL=2
SOURCE_INSTRUMENT=Negative-Quattro_QQQ:10eV
FILENAME=hmdb_intermediate.mgf
SEQ=*..*
IONMODE=Negative
ORGANISM=HMDB
NAME=HMDB:HMDB00784-1119 Azelaic acid M-H
PI=HMDB
DATACOLLECTOR=HMDB
SMILES=OC(=O)CCCCCCCC(O)=O
INCHI=InChI=1S/C9H16O4/c10-8(11)6-4-2-1-3-5-7-9(12)13/h1-7H2,(H,10,11)(H,12,13)
INCHIAUX=N/A
PUBMED=N/A
SUBMITUSER=mwang87
TAGS=
LIBRARYQUALITY=3
SPECTRUMID=CCMSLIB00000425194
SCANS=166
125.044 31.918 
168.994 8.766 
186.981 100.0 
END IONS

BEGIN IONS
PEPMASS=184.028
CHARGE=1+
MSLEVEL=2
SOURCE_INSTRUMENT=Positive-Quattro_QQQ:25eV
FILENAME=hmdb_intermediate.mgf
SEQ=*..*
IONMODE=Positive
ORGANISM=HMDB
NAME=HMDB:HMDB02205-2029 L-Homocysteic acid M+H
PI=HMDB
DATACOLLECTOR=HMDB
SMILES=N[C@@H](CCS(O)(=O)=O)C(O)=O
INCHI=InChI=1S/C4H9NO5S/c5-3(4(6)7)1-2-11(8,9)10/h3H,1-2,5H2,(H,6,7)(H,8,9,10)/t3-/m0/s1
INCHIAUX=N/A
PUBMED=N/A
SUBMITUSER=mwang87
TAGS=
LIBRARYQUALITY=3
SPECTRUMID=CCMSLIB00000425195
SCANS=167
56.02 100.0 
END IONS

BEGIN IONS
PEPMASS=183.052
CHARGE=1+
MSLEVEL=2
SOURCE_INSTRUMENT=Positive-Quattro_QQQ:25eV
FILENAME=hmdb_intermediate.mgf
SEQ=*..*
IONMODE=Positive
ORGANISM=HMDB
NAME=HMDB:HMDB01973-1918 9-Methyluric acid M+H
PI=HMDB
DATACOLLECTOR=HMDB
SMILES=CN1C(=O)NC2=C1NC(=O)NC2=O
INCHI=InChI=1S/C6H6N4O3/c1-10-3-2(7-6(10)13)4(11)9-5(12)8-3/h1H3,(H,7,13)(H2,8,9,11,12)
INCHIAUX=N/A
PUBMED=N/A
SUBMITUSER=mwang87
TAGS=
LIBRARYQUALITY=3
SPECTRUMID=CCMSLIB00000425196
SCANS=168
67.0 62.734 
84.0 100.0 
85.0 20.235 
95.0 20.966 
112.0 66.217 
123.0 17.932 
127.0 30.925 
140.0 60.219 
153.0 62.969 
155.0 76.968 
167.0 42.625 
183.0 28.192 
END IONS

BEGIN IONS
PEPMASS=153.041
CHARGE=1+
MSLEVEL=2
SOURCE_INSTRUMENT=Positive-Quattro_QQQ:40eV
FILENAME=hmdb_intermediate.mgf
SEQ=*..*
IONMODE=Positive
ORGANISM=HMDB
NAME=HMDB:HMDB00292-497 Xanthine M+H
PI=HMDB
DATACOLLECTOR=HMDB
SMILES=O=C1NC2=C(NC=N2)C(=O)N1
INCHI=InChI=1S/C5H4N4O2/c10-4-2-3(7-1-6-2)8-5(11)9-4/h1H,(H3,6,7,8,9,10,11)
INCHIAUX=N/A
PUBMED=N/A
SUBMITUSER=mwang87
TAGS=
LIBRARYQUALITY=3
SPECTRUMID=CCMSLIB00000425197
SCANS=169
53.206 15.139 
55.188 100.0 
81.038 47.778 
109.904 31.944 
135.908 7.014 
152.999 14.444 
END IONS

BEGIN IONS
PEPMASS=255.232
CHARGE=1+
MSLEVEL=2
SOURCE_INSTRUMENT=Negative-Quattro_QQQ:40eV
FILENAME=hmdb_intermediate.mgf
SEQ=*..*
IONMODE=Negative
ORGANISM=HMDB
NAME=HMDB:HMDB00220-360 Palmitic acid M-H
PI=HMDB
DATACOLLECTOR=HMDB
SMILES=CCCCCCCCCCCCCCCC(O)=O
INCHI=InChI=1S/C16H32O2/c1-2-3-4-5-6-7-8-9-10-11-12-13-14-15-16(17)18/h2-15H2,1H3,(H,17,18)
INCHIAUX=N/A
PUBMED=N/A
SUBMITUSER=mwang87
TAGS=
LIBRARYQUALITY=3
SPECTRUMID=CCMSLIB00000425198
SCANS=170
54.305 82.069 
59.226 35.862 
71.137 42.759 
75.123 100.0 
93.237 30.345 
117.737 31.034 
148.891 54.483 
183.018 32.414 
254.956 46.207 
END IONS

BEGIN IONS
PEPMASS=523.998
CHARGE=1+
MSLEVEL=2
SOURCE_INSTRUMENT=Positive-Quattro_QQQ:25eV
FILENAME=hmdb_intermediate.mgf
SEQ=*..*
IONMODE=Positive
ORGANISM=HMDB
NAME=HMDB:HMDB01273-1502 Guanosine triphosphate M+H
PI=HMDB
DATACOLLECTOR=HMDB
SMILES=NC1=NC2=C(N=CN2[C@@H]2O[C@H](COP(O)(=O)OP(O)(=O)OP(O)(O)=O)[C@@H](O)[C@H]2O)C(=O)N1
INCHI=InChI=1S/C10H16N5O14P3/c11-10-13-7-4(8(18)14-10)12-2-15(7)9-6(17)5(16)3(27-9)1-26-31(22,23)29-32(24,25)28-30(19,20)21/h2-3,5-6,9,16-17H,1H2,(H,22,23)(H,24,25)(H2,19,20,21)(H3,11,13,14,18)/t3-,5-,6-,9-/m1/s1
INCHIAUX=N/A
PUBMED=N/A
SUBMITUSER=mwang87
TAGS=
LIBRARYQUALITY=3
SPECTRUMID=CCMSLIB00000425199
SCANS=171
445.0 100.0 
523.0 51.252 
END IONS

BEGIN IONS
PEPMASS=120.066
CHARGE=1+
MSLEVEL=2
SOURCE_INSTRUMENT=Positive-Quattro_QQQ:25eV
FILENAME=hmdb_intermediate.mgf
SEQ=*..*
IONMODE=Positive
ORGANISM=HMDB
NAME=HMDB:HMDB00719-1009 L-Homoserine M+H
PI=HMDB
DATACOLLECTOR=HMDB
SMILES=N[C@@H](CCO)C(O)=O
INCHI=InChI=1S/C4H9NO3/c5-3(1-2-6)4(7)8/h3,6H,1-2,5H2,(H,7,8)/t3-/m0/s1
INCHIAUX=N/A
PUBMED=N/A
SUBMITUSER=mwang87
TAGS=
LIBRARYQUALITY=3
SPECTRUMID=CCMSLIB00000425200
SCANS=172
44.313 44.022 
56.214 100.0 
74.078 43.478 
119.912 7.405 
END IONS

BEGIN IONS
PEPMASS=142.027
CHARGE=1+
MSLEVEL=2
SOURCE_INSTRUMENT=Positive-Quattro_QQQ:10eV
FILENAME=hmdb_intermediate.mgf
SEQ=*..*
IONMODE=Positive
ORGANISM=HMDB
NAME=HMDB:HMDB60151-370 O-Phosphoethanolamine M+H
PI=HMDB
DATACOLLECTOR=HMDB
SMILES=NCCOP(O)(O)=O
INCHI=InChI=1S/C2H8NO4P/c3-1-2-7-8(4,5)6/h1-3H2,(H2,4,5,6)
INCHIAUX=N/A
PUBMED=N/A
SUBMITUSER=mwang87
TAGS=
LIBRARYQUALITY=3
SPECTRUMID=CCMSLIB00000425201
SCANS=173
44.628 100.0 
142.085 20.062 
END IONS

BEGIN IONS
PEPMASS=60.0813
CHARGE=1+
MSLEVEL=2
SOURCE_INSTRUMENT=Positive-Quattro_QQQ:25eV
FILENAME=hmdb_intermediate.mgf
SEQ=*..*
IONMODE=Positive
ORGANISM=HMDB
NAME=HMDB:HMDB00906-1293 Trimethylamine M+H
PI=HMDB
DATACOLLECTOR=HMDB
SMILES=CN(C)C
INCHI=InChI=1S/C3H9N/c1-4(2)3/h1-3H3
INCHIAUX=N/A
PUBMED=N/A
SUBMITUSER=mwang87
TAGS=
LIBRARYQUALITY=3
SPECTRUMID=CCMSLIB00000425202
SCANS=174
44.0 100.0 
45.0 15.923 
59.0 20.282 
END IONS

BEGIN IONS
PEPMASS=189.135
CHARGE=1+
MSLEVEL=2
SOURCE_INSTRUMENT=Positive-Quattro_QQQ:10eV
FILENAME=hmdb_intermediate.mgf
SEQ=*..*
IONMODE=Positive
ORGANISM=HMDB
NAME=HMDB:HMDB00670-921 Homo-L-arginine M+H
PI=HMDB
DATACOLLECTOR=HMDB
SMILES=N[C@@H](CCCCNC(N)=N)C(O)=O
INCHI=InChI=1S/C7H16N4O2/c8-5(6(12)13)3-1-2-4-11-7(9)10/h5H,1-4,8H2,(H,12,13)(H4,9,10,11)/t5-/m0/s1
INCHIAUX=N/A
PUBMED=N/A
SUBMITUSER=mwang87
TAGS=
LIBRARYQUALITY=3
SPECTRUMID=CCMSLIB00000425203
SCANS=175
60.192 5.172 
84.116 15.196 
86.013 2.623 
129.98 11.275 
144.026 40.784 
171.979 16.569 
188.994 100.0 
END IONS

BEGIN IONS
PEPMASS=167.057
CHARGE=1+
MSLEVEL=2
SOURCE_INSTRUMENT=Positive-Quattro_QQQ:10eV
FILENAME=hmdb_intermediate.mgf
SEQ=*..*
IONMODE=Positive
ORGANISM=HMDB
NAME=HMDB:HMDB01886-1786 3-Methylxanthine M+H
PI=HMDB
DATACOLLECTOR=HMDB
SMILES=CN1C2=C(NC=N2)C(=O)NC1=O
INCHI=InChI=1S/C6H6N4O2/c1-10-4-3(7-2-8-4)5(11)9-6(10)12/h2H,1H3,(H,7,8)(H,9,11,12)
INCHIAUX=N/A
PUBMED=N/A
SUBMITUSER=mwang87
TAGS=
LIBRARYQUALITY=3
SPECTRUMID=CCMSLIB00000425204
SCANS=176
43.34 14.504 
83.616 11.217 
94.408 9.507 
94.909 7.85 
124.398 39.147 
125.151 100.0 
166.437 32.072 
END IONS

BEGIN IONS
PEPMASS=90.0555
CHARGE=1+
MSLEVEL=2
SOURCE_INSTRUMENT=Positive-Quattro_QQQ:40eV
FILENAME=hmdb_intermediate.mgf
SEQ=*..*
IONMODE=Positive
ORGANISM=HMDB
NAME=HMDB:HMDB01310-1512 D-Alanine M+H
PI=HMDB
DATACOLLECTOR=HMDB
SMILES=C[C@@H](N)C(O)=O
INCHI=InChI=1S/C3H7NO2/c1-2(4)3(5)6/h2H,4H2,1H3,(H,5,6)/t2-/m1/s1
INCHIAUX=N/A
PUBMED=N/A
SUBMITUSER=mwang87
TAGS=
LIBRARYQUALITY=3
SPECTRUMID=CCMSLIB00000425205
SCANS=177
29.0 30.467 
44.0 100.0 
45.0 68.207 
90.0 20.341 
END IONS

BEGIN IONS
PEPMASS=308.092
CHARGE=1+
MSLEVEL=2
SOURCE_INSTRUMENT=Positive-Quattro_QQQ:10eV
FILENAME=hmdb_intermediate.mgf
SEQ=*..*
IONMODE=Positive
ORGANISM=HMDB
NAME=HMDB:HMDB00125-186 Glutathione M+H
PI=HMDB
DATACOLLECTOR=HMDB
SMILES=N[C@@H](CCC(=O)N[C@@H](CS)C(=O)NCC(O)=O)C(O)=O
INCHI=InChI=1S/C10H17N3O6S/c11-5(10(18)19)1-2-7(14)13-6(4-20)9(17)12-3-8(15)16/h5-6,20H,1-4,11H2,(H,12,17)(H,13,14)(H,15,16)(H,18,19)/t5-,6-/m0/s1
INCHIAUX=N/A
PUBMED=N/A
SUBMITUSER=mwang87
TAGS=
LIBRARYQUALITY=3
SPECTRUMID=CCMSLIB00000425206
SCANS=178
76.063 41.372 
85.057 6.637 
129.998 100.0 
161.879 7.301 
178.911 21.903 
198.77 4.867 
210.765 6.416 
233.32 15.044 
243.005 17.035 
244.856 8.131 
256.821 7.633 
270.709 5.199 
276.035 26.549 
290.04 6.527 
299.297 30.088 
307.967 91.15 
END IONS

BEGIN IONS
PEPMASS=195.077
CHARGE=1+
MSLEVEL=2
SOURCE_INSTRUMENT=Positive-Quattro_QQQ:40eV
FILENAME=hmdb_intermediate.mgf
SEQ=*..*
IONMODE=Positive
ORGANISM=HMDB
NAME=HMDB:HMDB01867-1752 4-Aminohippuric acid M+H
PI=HMDB
DATACOLLECTOR=HMDB
SMILES=NC1=CC=C(C=C1)C(=O)NCC(O)=O
INCHI=InChI=1S/C9H10N2O3/c10-7-3-1-6(2-4-7)9(14)11-5-8(12)13/h1-4H,5,10H2,(H,11,14)(H,12,13)
INCHIAUX=N/A
PUBMED=N/A
SUBMITUSER=mwang87
TAGS=
LIBRARYQUALITY=3
SPECTRUMID=CCMSLIB00000425207
SCANS=179
64.446 38.743 
65.575 100.0 
74.609 19.719 
92.427 88.699 
103.344 10.732 
120.409 52.7 
148.895 14.069 
END IONS

BEGIN IONS
PEPMASS=112.937
CHARGE=1+
MSLEVEL=2
SOURCE_INSTRUMENT=Positive-Quattro_QQQ:25eV
FILENAME=hmdb_intermediate.mgf
SEQ=*..*
IONMODE=Positive
ORGANISM=HMDB
NAME=HMDB:HMDB00257-446 Thiosulfate M+H
PI=HMDB
DATACOLLECTOR=HMDB
SMILES=[O-]S([S-])(=O)=O
INCHI=InChI=1S/H2O3S2/c1-5(2,3)4/h(H2,1,2,3,4)/p-2
INCHIAUX=N/A
PUBMED=N/A
SUBMITUSER=mwang87
TAGS=
LIBRARYQUALITY=3
SPECTRUMID=CCMSLIB00000425208
SCANS=180
54.054 32.622 
55.059 100.0 
70.39 84.489 
79.69 26.873 
86.35 25.315 
97.786 38.073 
113.118 33.7 
END IONS

BEGIN IONS
PEPMASS=159.139
CHARGE=1+
MSLEVEL=2
SOURCE_INSTRUMENT=Positive-Quattro_QQQ:10eV
FILENAME=hmdb_intermediate.mgf
SEQ=*..*
IONMODE=Positive
ORGANISM=HMDB
NAME=HMDB:HMDB00847-1193 Pelargonic acid M+H
PI=HMDB
DATACOLLECTOR=HMDB
SMILES=CCCCCCCCC(O)=O
INCHI=InChI=1S/C9H18O2/c1-2-3-4-5-6-7-8-9(10)11/h2-8H2,1H3,(H,10,11)
INCHIAUX=N/A
PUBMED=N/A
SUBMITUSER=mwang87
TAGS=
LIBRARYQUALITY=3
SPECTRUMID=CCMSLIB00000425209
SCANS=181
43.0 83.332 
56.0 23.444 
70.0 32.311 
82.0 18.605 
88.0 100.0 
102.0 51.317 
158.0 53.649 
END IONS

BEGIN IONS
PEPMASS=125.06
CHARGE=1+
MSLEVEL=2
SOURCE_INSTRUMENT=Positive-Quattro_QQQ:10eV
FILENAME=hmdb_intermediate.mgf
SEQ=*..*
IONMODE=Positive
ORGANISM=HMDB
NAME=HMDB:HMDB00873-1232 4-Methylcatechol M+H
PI=HMDB
DATACOLLECTOR=HMDB
SMILES=CC1=CC(O)=C(O)C=C1
INCHI=InChI=1S/C7H8O2/c1-5-2-3-6(8)7(9)4-5/h2-4,8-9H,1H3
INCHIAUX=N/A
PUBMED=N/A
SUBMITUSER=mwang87
TAGS=
LIBRARYQUALITY=3
SPECTRUMID=CCMSLIB00000425210
SCANS=182
79.111 18.634 
107.031 100.0 
125.005 55.093 
END IONS

BEGIN IONS
PEPMASS=183.052
CHARGE=1+
MSLEVEL=2
SOURCE_INSTRUMENT=Positive-Quattro_QQQ:10eV
FILENAME=hmdb_intermediate.mgf
SEQ=*..*
IONMODE=Positive
ORGANISM=HMDB
NAME=HMDB:HMDB03099-2194 1-Methyluric acid M+H
PI=HMDB
DATACOLLECTOR=HMDB
SMILES=CN1C(=O)NC2=C(NC(=O)N2)C1=O
INCHI=InChI=1S/C6H6N4O3/c1-10-4(11)2-3(9-6(10)13)8-5(12)7-2/h1H3,(H,9,13)(H2,7,8,12)
INCHIAUX=N/A
PUBMED=N/A
SUBMITUSER=mwang87
TAGS=
LIBRARYQUALITY=3
SPECTRUMID=CCMSLIB00000425211
SCANS=183
90.0 16.24 
104.0 5.36 
105.0 2.871 
140.0 4.652 
154.0 9.399 
155.0 5.275 
167.0 17.007 
182.0 100.0 
END IONS

BEGIN IONS
PEPMASS=400.343
CHARGE=1+
MSLEVEL=2
SOURCE_INSTRUMENT=Positive-Quattro_QQQ:40eV
FILENAME=hmdb_intermediate.mgf
SEQ=*..*
IONMODE=Positive
ORGANISM=HMDB
NAME=HMDB:HMDB00222-366 L-Palmitoylcarnitine M+H
PI=HMDB
DATACOLLECTOR=HMDB
SMILES=CCCCCCCCCCCCCCCC(=O)O[C@H](CC([O-])=O)C[N+](C)(C)C
INCHI=InChI=1S/C23H45NO4/c1-5-6-7-8-9-10-11-12-13-14-15-16-17-18-23(27)28-21(19-22(25)26)20-24(2,3)4/h21H,5-20H2,1-4H3/t21-/m1/s1
INCHIAUX=N/A
PUBMED=N/A
SUBMITUSER=mwang87
TAGS=
LIBRARYQUALITY=3
SPECTRUMID=CCMSLIB00000425212
SCANS=184
57.443 9.064 
71.351 2.764 
85.198 100.0 
END IONS

BEGIN IONS
PEPMASS=260.165
CHARGE=1+
MSLEVEL=2
SOURCE_INSTRUMENT=Positive-Quattro_QQQ:10eV
FILENAME=hmdb_intermediate.mgf
SEQ=*..*
IONMODE=Positive
ORGANISM=HMDB
NAME=HMDB:HMDB01849-1708 Propranolol M+H
PI=HMDB
DATACOLLECTOR=HMDB
SMILES=CC(C)NCC(O)COC1=CC=CC2=CC=CC=C12
INCHI=InChI=1S/C16H21NO2/c1-12(2)17-10-14(18)11-19-16-9-5-7-13-6-3-4-8-15(13)16/h3-9,12,14,17-18H,10-11H2,1-2H3
INCHIAUX=N/A
PUBMED=N/A
SUBMITUSER=mwang87
TAGS=
LIBRARYQUALITY=3
SPECTRUMID=CCMSLIB00000425213
SCANS=185
116.097 7.034 
183.086 5.453 
260.402 100.0 
END IONS

BEGIN IONS
PEPMASS=162.055
CHARGE=1+
MSLEVEL=2
SOURCE_INSTRUMENT=Positive-Quattro_QQQ:10eV
FILENAME=hmdb_intermediate.mgf
SEQ=*..*
IONMODE=Positive
ORGANISM=HMDB
NAME=HMDB:HMDB03320-2242 Indole-3-carboxylic acid M+H
PI=HMDB
DATACOLLECTOR=HMDB
SMILES=OC(=O)C1=CNC2=CC=CC=C12
INCHI=InChI=1S/C9H7NO2/c11-9(12)7-5-10-8-4-2-1-3-6(7)8/h1-5,10H,(H,11,12)
INCHIAUX=N/A
PUBMED=N/A
SUBMITUSER=mwang87
TAGS=
LIBRARYQUALITY=3
SPECTRUMID=CCMSLIB00000425214
SCANS=186
91.0 6.532 
104.0 9.855 
105.0 17.968 
118.0 14.464 
129.0 19.077 
143.0 4.668 
146.0 35.375 
161.0 100.0 
END IONS

BEGIN IONS
PEPMASS=285.083
CHARGE=1+
MSLEVEL=2
SOURCE_INSTRUMENT=Positive-Quattro_QQQ:25eV
FILENAME=hmdb_intermediate.mgf
SEQ=*..*
IONMODE=Positive
ORGANISM=HMDB
NAME=HMDB:HMDB00299-508 Xanthosine M+H
PI=HMDB
DATACOLLECTOR=HMDB
SMILES=OC[C@H]1O[C@H]([C@H](O)[C@@H]1O)N1C=NC2=C1N=C(O)N=C2O
INCHI=InChI=1S/C10H12N4O6/c15-1-3-5(16)6(17)9(20-3)14-2-11-4-7(14)12-10(19)13-8(4)18/h2-3,5-6,9,15-17H,1H2,(H2,12,13,18,19)/t3-,5-,6-,9-/m1/s1
INCHIAUX=N/A
PUBMED=N/A
SUBMITUSER=mwang87
TAGS=
LIBRARYQUALITY=3
SPECTRUMID=CCMSLIB00000425215
SCANS=187
43.319 5.998 
57.207 22.148 
73.1 17.953 
85.068 17.282 
97.036 7.844 
110.004 6.921 
114.993 6.795 
132.957 8.305 
135.932 31.711 
152.938 100.0 
END IONS

BEGIN IONS
PEPMASS=167.071
CHARGE=1+
MSLEVEL=2
SOURCE_INSTRUMENT=Positive-Quattro_QQQ:40eV
FILENAME=hmdb_intermediate.mgf
SEQ=*..*
IONMODE=Positive
ORGANISM=HMDB
NAME=HMDB:HMDB02072-1983 4-Methoxyphenylacetic acid M+H
PI=HMDB
DATACOLLECTOR=HMDB
SMILES=COC1=CC=C(CC(O)=O)C=C1
INCHI=InChI=1S/C9H10O3/c1-12-8-4-2-7(3-5-8)6-9(10)11/h2-5H,6H2,1H3,(H,10,11)
INCHIAUX=N/A
PUBMED=N/A
SUBMITUSER=mwang87
TAGS=
LIBRARYQUALITY=3
SPECTRUMID=CCMSLIB00000425216
SCANS=188
65.0 19.96 
78.0 100.0 
91.0 24.382 
106.0 10.18 
121.0 28.803 
END IONS

BEGIN IONS
PEPMASS=146.082
CHARGE=1+
MSLEVEL=2
SOURCE_INSTRUMENT=Positive-Quattro_QQQ:25eV
FILENAME=hmdb_intermediate.mgf
SEQ=*..*
IONMODE=Positive
ORGANISM=HMDB
NAME=HMDB:HMDB00730-1027 Isobutyrylglycine M+H
PI=HMDB
DATACOLLECTOR=HMDB
SMILES=CC(C)C(=O)NCC(O)=O
INCHI=InChI=1S/C6H11NO3/c1-4(2)6(10)7-3-5(8)9/h4H,3H2,1-2H3,(H,7,10)(H,8,9)
INCHIAUX=N/A
PUBMED=N/A
SUBMITUSER=mwang87
TAGS=
LIBRARYQUALITY=3
SPECTRUMID=CCMSLIB00000425217
SCANS=189
43.639 100.0 
71.408 8.608 
76.318 4.363 
END IONS

BEGIN IONS
PEPMASS=119.082
CHARGE=1+
MSLEVEL=2
SOURCE_INSTRUMENT=Positive-Quattro_QQQ:10eV
FILENAME=hmdb_intermediate.mgf
SEQ=*..*
IONMODE=Positive
ORGANISM=HMDB
NAME=HMDB:HMDB02362-2083 2,4-Diaminobutyric acid M+H
PI=HMDB
DATACOLLECTOR=HMDB
SMILES=NCCC(N)C(O)=O
INCHI=InChI=1S/C4H10N2O2/c5-2-1-3(6)4(7)8/h3H,1-2,5-6H2,(H,7,8)
INCHIAUX=N/A
PUBMED=N/A
SUBMITUSER=mwang87
TAGS=
LIBRARYQUALITY=3
SPECTRUMID=CCMSLIB00000425218
SCANS=190
44.0 18.359 
56.0 15.099 
73.0 42.919 
84.0 4.75 
101.0 100.0 
119.0 19.421 
END IONS

BEGIN IONS
PEPMASS=131.071
CHARGE=1+
MSLEVEL=2
SOURCE_INSTRUMENT=Positive-Quattro_QQQ:40eV
FILENAME=hmdb_intermediate.mgf
SEQ=*..*
IONMODE=Positive
ORGANISM=HMDB
NAME=HMDB:HMDB01864-1746 2-Ketohexanoic acid M+H
PI=HMDB
DATACOLLECTOR=HMDB
SMILES=CCCCC(=O)C(O)=O
INCHI=InChI=1S/C6H10O3/c1-2-3-4-5(7)6(8)9/h2-4H2,1H3,(H,8,9)
INCHIAUX=N/A
PUBMED=N/A
SUBMITUSER=mwang87
TAGS=
LIBRARYQUALITY=3
SPECTRUMID=CCMSLIB00000425219
SCANS=191
48.904 73.211 
62.633 100.0 
68.748 55.036 
81.853 56.627 
86.845 48.34 
113.68 19.001 
124.29 50.729 
END IONS

BEGIN IONS
PEPMASS=137.045
CHARGE=1+
MSLEVEL=2
SOURCE_INSTRUMENT=Positive-Quattro_QQQ:25eV
FILENAME=hmdb_intermediate.mgf
SEQ=*..*
IONMODE=Positive
ORGANISM=HMDB
NAME=HMDB:HMDB00943-1337 Threonic acid M+H
PI=HMDB
DATACOLLECTOR=HMDB
SMILES=OC[C@@H](O)[C@H](O)C(O)=O
INCHI=InChI=1S/C4H8O5/c5-1-2(6)3(7)4(8)9/h2-3,5-7H,1H2,(H,8,9)/t2-,3+/m1/s1
INCHIAUX=N/A
PUBMED=N/A
SUBMITUSER=mwang87
TAGS=
LIBRARYQUALITY=3
SPECTRUMID=CCMSLIB00000425220
SCANS=192
53.882 22.829 
55.378 29.492 
67.59 52.42 
81.672 96.803 
92.888 26.982 
96.128 100.0 
107.719 19.541 
122.425 12.792 
136.508 43.595 
END IONS

BEGIN IONS
PEPMASS=169.036
CHARGE=1+
MSLEVEL=2
SOURCE_INSTRUMENT=Positive-Quattro_QQQ:25eV
FILENAME=hmdb_intermediate.mgf
SEQ=*..*
IONMODE=Positive
ORGANISM=HMDB
NAME=HMDB:HMDB00289-490 Uric acid M+H
PI=HMDB
DATACOLLECTOR=HMDB
SMILES=O=C1NC2=C(N1)C(=O)NC(=O)N2
INCHI=InChI=1S/C5H4N4O3/c10-3-1-2(7-4(11)6-1)8-5(12)9-3/h(H4,6,7,8,9,10,11,12)
INCHIAUX=N/A
PUBMED=N/A
SUBMITUSER=mwang87
TAGS=
LIBRARYQUALITY=3
SPECTRUMID=CCMSLIB00000425221
SCANS=193
43.328 40.171 
53.216 9.348 
55.198 31.838 
70.106 88.889 
95.989 100.0 
123.866 30.556 
125.911 31.197 
140.901 48.077 
151.824 52.564 
168.635 32.265 
END IONS

BEGIN IONS
PEPMASS=282.12
CHARGE=1+
MSLEVEL=2
SOURCE_INSTRUMENT=Positive-Quattro_QQQ:25eV
FILENAME=hmdb_intermediate.mgf
SEQ=*..*
IONMODE=Positive
ORGANISM=HMDB
NAME=HMDB:HMDB03331-2246 1-Methyladenosine M+H
PI=HMDB
DATACOLLECTOR=HMDB
SMILES=CN1C=NC2=C(N=CN2[C@@H]2O[C@H](CO)[C@@H](O)[C@H]2O)C1=N
INCHI=InChI=1S/C11H15N5O4/c1-15-3-14-10-6(9(15)12)13-4-16(10)11-8(19)7(18)5(2-17)20-11/h3-5,7-8,11-12,17-19H,2H2,1H3/t5-,7-,8-,11-/m1/s1
INCHIAUX=N/A
PUBMED=N/A
SUBMITUSER=mwang87
TAGS=
LIBRARYQUALITY=3
SPECTRUMID=CCMSLIB00000425222
SCANS=194
133.0 1.738 
150.0 100.0 
END IONS

BEGIN IONS
PEPMASS=261.038
CHARGE=1+
MSLEVEL=2
SOURCE_INSTRUMENT=Positive-Quattro_QQQ:40eV
FILENAME=hmdb_intermediate.mgf
SEQ=*..*
IONMODE=Positive
ORGANISM=HMDB
NAME=HMDB:HMDB01078-1420 Mannose 6-phosphate M+H
PI=HMDB
DATACOLLECTOR=HMDB
SMILES=O[C@@H]1O[C@H](COP(O)(O)=O)[C@@H](O)[C@H](O)[C@@H]1O
INCHI=InChI=1S/C6H13O9P/c7-3-2(1-14-16(11,12)13)15-6(10)5(9)4(3)8/h2-10H,1H2,(H2,11,12,13)/t2-,3-,4+,5+,6-/m1/s1
INCHIAUX=N/A
PUBMED=N/A
SUBMITUSER=mwang87
TAGS=
LIBRARYQUALITY=3
SPECTRUMID=CCMSLIB00000425223
SCANS=195
69.0 60.045 
81.0 85.177 
85.0 46.905 
99.0 100.0 
109.0 17.634 
END IONS

BEGIN IONS
PEPMASS=132.066
CHARGE=1+
MSLEVEL=2
SOURCE_INSTRUMENT=Positive-Quattro_QQQ:10eV
FILENAME=hmdb_intermediate.mgf
SEQ=*..*
IONMODE=Positive
ORGANISM=HMDB
NAME=HMDB:HMDB01149-1433 5-Aminolevulinic acid M+H
PI=HMDB
DATACOLLECTOR=HMDB
SMILES=NCC(=O)CCC(O)=O
INCHI=InChI=1S/C5H9NO3/c6-3-4(7)1-2-5(8)9/h1-3,6H2,(H,8,9)
INCHIAUX=N/A
PUBMED=N/A
SUBMITUSER=mwang87
TAGS=
LIBRARYQUALITY=3
SPECTRUMID=CCMSLIB00000425224
SCANS=196
58.509 13.213 
70.086 13.18 
86.143 35.824 
103.944 100.0 
104.691 66.253 
114.899 13.329 
131.83 34.833 
END IONS

BEGIN IONS
PEPMASS=62.0606
CHARGE=1+
MSLEVEL=2
SOURCE_INSTRUMENT=Positive-Quattro_QQQ:10eV
FILENAME=hmdb_intermediate.mgf
SEQ=*..*
IONMODE=Positive
ORGANISM=HMDB
NAME=HMDB:HMDB00149-224 Ethanolamine M+H
PI=HMDB
DATACOLLECTOR=HMDB
SMILES=NCCO
INCHI=InChI=1S/C2H7NO/c3-1-2-4/h4H,1-3H2
INCHIAUX=N/A
PUBMED=N/A
SUBMITUSER=mwang87
TAGS=
LIBRARYQUALITY=3
SPECTRUMID=CCMSLIB00000425225
SCANS=197
44.0 93.904 
45.0 9.469 
62.0 100.0 
END IONS

BEGIN IONS
PEPMASS=117.092
CHARGE=1+
MSLEVEL=2
SOURCE_INSTRUMENT=Positive-Quattro_QQQ:40eV
FILENAME=hmdb_intermediate.mgf
SEQ=*..*
IONMODE=Positive
ORGANISM=HMDB
NAME=HMDB:HMDB00689-957 Isocaproic acid M+H
PI=HMDB
DATACOLLECTOR=HMDB
SMILES=CC(C)CCC(O)=O
INCHI=InChI=1S/C6H12O2/c1-5(2)3-4-6(7)8/h5H,3-4H2,1-2H3,(H,7,8)
INCHIAUX=N/A
PUBMED=N/A
SUBMITUSER=mwang87
TAGS=
LIBRARYQUALITY=3
SPECTRUMID=CCMSLIB00000425226
SCANS=198
81.11 100.0 
90.53 93.902 
98.96 72.561 
113.27 47.561 
122.22 50.0 
124.57 42.683 
137.38 42.683 
152.89 51.22 
159.28 53.049 
183.11 50.0 
END IONS

BEGIN IONS
PEPMASS=175.12
CHARGE=1+
MSLEVEL=2
SOURCE_INSTRUMENT=Positive-Quattro_QQQ:40eV
FILENAME=hmdb_intermediate.mgf
SEQ=*..*
IONMODE=Positive
ORGANISM=HMDB
NAME=HMDB:HMDB00517-742 L-Arginine M+H
PI=HMDB
DATACOLLECTOR=HMDB
SMILES=N[C@@H](CCCN=C(N)N)C(O)=O
INCHI=InChI=1S/C6H14N4O2/c7-4(5(11)12)2-1-3-10-6(8)9/h4H,1-3,7H2,(H,11,12)(H4,8,9,10)/t4-/m0/s1
INCHIAUX=N/A
PUBMED=N/A
SUBMITUSER=mwang87
TAGS=
LIBRARYQUALITY=3
SPECTRUMID=CCMSLIB00000425227
SCANS=199
43.326 13.333 
60.059 7.969 
70.143 100.0 
END IONS

BEGIN IONS
PEPMASS=107.05
CHARGE=1+
MSLEVEL=2
SOURCE_INSTRUMENT=Positive-Quattro_QQQ:40eV
FILENAME=hmdb_intermediate.mgf
SEQ=*..*
IONMODE=Positive
ORGANISM=HMDB
NAME=HMDB:HMDB06115-2474 Benzaldehyde M+H
PI=HMDB
DATACOLLECTOR=HMDB
SMILES=O=CC1=CC=CC=C1
INCHI=InChI=1S/C7H6O/c8-6-7-4-2-1-3-5-7/h1-6H
INCHIAUX=N/A
PUBMED=N/A
SUBMITUSER=mwang87
TAGS=
LIBRARYQUALITY=3
SPECTRUMID=CCMSLIB00000425228
SCANS=200
39.0 21.356 
51.0 86.048 
58.0 17.81 
65.0 12.905 
77.0 100.0 
89.0 22.147 
107.0 56.037 
END IONS

BEGIN IONS
PEPMASS=516.299
CHARGE=1+
MSLEVEL=2
SOURCE_INSTRUMENT=Positive-Quattro_QQQ:25eV
FILENAME=hmdb_intermediate.mgf
SEQ=*..*
IONMODE=Positive
ORGANISM=HMDB
NAME=HMDB:HMDB00036-61 Taurocholic acid M+H
PI=HMDB
DATACOLLECTOR=HMDB
SMILES=[H][C@@]12C[C@H](O)CCC1(C)C1C[C@H](O)C3(C)C(CCC3C1[C@H](O)C2)C(C)CCC(=O)NCCS(O)(=O)=O
INCHI=InChI=1S/C26H45NO7S/c1-15(4-7-23(31)27-10-11-35(32,33)34)18-5-6-19-24-20(14-22(30)26(18,19)3)25(2)9-8-17(28)12-16(25)13-21(24)29/h15-22,24,28-30H,4-14H2,1-3H3,(H,27,31)(H,32,33,34)/t15?,16-,17+,18?,19?,20?,21+,22-,24?,25?,26?/m0/s1
INCHIAUX=N/A
PUBMED=N/A
SUBMITUSER=mwang87
TAGS=
LIBRARYQUALITY=3
SPECTRUMID=CCMSLIB00000425229
SCANS=201
126.05 13.458 
208.52 15.196 
226.77 22.816 
318.8 23.156 
337.32 38.789 
461.85 100.0 
END IONS

BEGIN IONS
PEPMASS=90.0555
CHARGE=1+
MSLEVEL=2
SOURCE_INSTRUMENT=Positive-Quattro_QQQ:25eV
FILENAME=hmdb_intermediate.mgf
SEQ=*..*
IONMODE=Positive
ORGANISM=HMDB
NAME=HMDB:HMDB01310-1511 D-Alanine M+H
PI=HMDB
DATACOLLECTOR=HMDB
SMILES=C[C@@H](N)C(O)=O
INCHI=InChI=1S/C3H7NO2/c1-2(4)3(5)6/h2H,4H2,1H3,(H,5,6)/t2-/m1/s1
INCHIAUX=N/A
PUBMED=N/A
SUBMITUSER=mwang87
TAGS=
LIBRARYQUALITY=3
SPECTRUMID=CCMSLIB00000425230
SCANS=202
44.0 100.0 
45.0 33.22 
90.0 9.007 
END IONS

BEGIN IONS
PEPMASS=233.129
CHARGE=1+
MSLEVEL=2
SOURCE_INSTRUMENT=Positive-Quattro_QQQ:25eV
FILENAME=hmdb_intermediate.mgf
SEQ=*..*
IONMODE=Positive
ORGANISM=HMDB
NAME=HMDB:HMDB01389-1548 Melatonin M+H
PI=HMDB
DATACOLLECTOR=HMDB
SMILES=COC1=CC2=C(NC=C2CCNC(C)=O)C=C1
INCHI=InChI=1S/C13H16N2O2/c1-9(16)14-6-5-10-8-15-13-4-3-11(17-2)7-12(10)13/h3-4,7-8,15H,5-6H2,1-2H3,(H,14,16)
INCHIAUX=N/A
PUBMED=N/A
SUBMITUSER=mwang87
TAGS=
LIBRARYQUALITY=3
SPECTRUMID=CCMSLIB00000425231
SCANS=203
116.0 4.92 
130.0 20.806 
142.0 28.749 
146.0 4.103 
158.0 87.221 
173.0 100.0 
END IONS

BEGIN IONS
PEPMASS=89.0603
CHARGE=1+
MSLEVEL=2
SOURCE_INSTRUMENT=Positive-Quattro_QQQ:40eV
FILENAME=hmdb_intermediate.mgf
SEQ=*..*
IONMODE=Positive
ORGANISM=HMDB
NAME=HMDB:HMDB03243-2220 Acetoin M+H
PI=HMDB
DATACOLLECTOR=HMDB
SMILES=CC(O)C(C)=O
INCHI=InChI=1S/C4H8O2/c1-3(5)4(2)6/h3,5H,1-2H3
INCHIAUX=N/A
PUBMED=N/A
SUBMITUSER=mwang87
TAGS=
LIBRARYQUALITY=3
SPECTRUMID=CCMSLIB00000425232
SCANS=204
43.0 100.0 
45.0 22.777 
55.0 11.348 
89.0 10.056 
END IONS

BEGIN IONS
PEPMASS=162.077
CHARGE=1+
MSLEVEL=2
SOURCE_INSTRUMENT=Positive-Quattro_QQQ:10eV
FILENAME=hmdb_intermediate.mgf
SEQ=*..*
IONMODE=Positive
ORGANISM=HMDB
NAME=HMDB:HMDB00510-731 Aminoadipic acid M+H
PI=HMDB
DATACOLLECTOR=HMDB
SMILES=NC(CCCC(O)=O)C(O)=O
INCHI=InChI=1S/C6H11NO4/c7-4(6(10)11)2-1-3-5(8)9/h4H,1-3,7H2,(H,8,9)(H,10,11)
INCHIAUX=N/A
PUBMED=N/A
SUBMITUSER=mwang87
TAGS=
LIBRARYQUALITY=3
SPECTRUMID=CCMSLIB00000425233
SCANS=205
98.012 69.0 
115.959 63.5 
143.924 82.0 
161.898 100.0 
END IONS

BEGIN IONS
PEPMASS=104.071
CHARGE=1+
MSLEVEL=2
SOURCE_INSTRUMENT=Positive-Quattro_QQQ:25eV
FILENAME=hmdb_intermediate.mgf
SEQ=*..*
IONMODE=Positive
ORGANISM=HMDB
NAME=HMDB:HMDB01906-1826 2-Aminoisobutyric acid M+H
PI=HMDB
DATACOLLECTOR=HMDB
SMILES=CC(C)(N)C(O)=O
INCHI=InChI=1S/C4H9NO2/c1-4(2,5)3(6)7/h5H2,1-2H3,(H,6,7)
INCHIAUX=N/A
PUBMED=N/A
SUBMITUSER=mwang87
TAGS=
LIBRARYQUALITY=3
SPECTRUMID=CCMSLIB00000425234
SCANS=206
73.0 26.348 
75.0 9.937 
86.0 54.053 
104.0 100.0 
END IONS

BEGIN IONS
PEPMASS=170.022
CHARGE=1+
MSLEVEL=2
SOURCE_INSTRUMENT=Positive-Quattro_QQQ:25eV
FILENAME=hmdb_intermediate.mgf
SEQ=*..*
IONMODE=Positive
ORGANISM=HMDB
NAME=HMDB:HMDB00370-586 2-Amino-3-phosphonopropionic acid M+H
PI=HMDB
DATACOLLECTOR=HMDB
SMILES=NC(CP(O)(O)=O)C(O)=O
INCHI=InChI=1S/C3H8NO5P/c4-2(3(5)6)1-10(7,8)9/h2H,1,4H2,(H,5,6)(H2,7,8,9)
INCHIAUX=N/A
PUBMED=N/A
SUBMITUSER=mwang87
TAGS=
LIBRARYQUALITY=3
SPECTRUMID=CCMSLIB00000425235
SCANS=207
44.0 4.032 
80.0 45.505 
106.0 100.0 
124.0 26.008 
END IONS

BEGIN IONS
PEPMASS=197.067
CHARGE=1+
MSLEVEL=2
SOURCE_INSTRUMENT=Positive-Quattro_QQQ:10eV
FILENAME=hmdb_intermediate.mgf
SEQ=*..*
IONMODE=Positive
ORGANISM=HMDB
NAME=HMDB:HMDB01982-1923 3,7-Dimethyluric acid M+H
PI=HMDB
DATACOLLECTOR=HMDB
SMILES=CN1C(=O)NC2=C1C(=O)NC(=O)N2C
INCHI=InChI=1S/C7H8N4O3/c1-10-3-4(8-6(10)13)11(2)7(14)9-5(3)12/h1-2H3,(H,8,13)(H,9,12,14)
INCHIAUX=N/A
PUBMED=N/A
SUBMITUSER=mwang87
TAGS=
LIBRARYQUALITY=3
SPECTRUMID=CCMSLIB00000425236
SCANS=208
197.0 100.0 
END IONS

BEGIN IONS
PEPMASS=164.094
CHARGE=1+
MSLEVEL=2
SOURCE_INSTRUMENT=Positive-Quattro_QQQ:10eV
FILENAME=hmdb_intermediate.mgf
SEQ=*..*
IONMODE=Positive
ORGANISM=HMDB
NAME=HMDB:HMDB00473-689 6-Dimethylaminopurine M+H
PI=HMDB
DATACOLLECTOR=HMDB
SMILES=CN(C)C1=NC=NC2=C1NC=N2
INCHI=InChI=1S/C7H9N5/c1-12(2)7-5-6(9-3-8-5)10-4-11-7/h3-4H,1-2H3,(H,8,9,10,11)
INCHIAUX=N/A
PUBMED=N/A
SUBMITUSER=mwang87
TAGS=
LIBRARYQUALITY=3
SPECTRUMID=CCMSLIB00000425237
SCANS=209
71.141 18.023 
81.095 5.16 
92.994 21.076 
95.922 10.756 
107.985 13.081 
119.868 100.0 
148.695 24.709 
163.961 93.605 
END IONS

BEGIN IONS
PEPMASS=159.041
CHARGE=1+
MSLEVEL=2
SOURCE_INSTRUMENT=Positive-Quattro_QQQ:25eV
FILENAME=hmdb_intermediate.mgf
SEQ=*..*
IONMODE=Positive
ORGANISM=HMDB
NAME=HMDB:HMDB03349-2257 L-Dihydroorotic acid M+H
PI=HMDB
DATACOLLECTOR=HMDB
SMILES=OC(=O)[C@@H]1CC(=O)NC(=O)N1
INCHI=InChI=1S/C5H6N2O4/c8-3-1-2(4(9)10)6-5(11)7-3/h2H,1H2,(H,9,10)(H2,6,7,8,11)/t2-/m0/s1
INCHIAUX=N/A
PUBMED=N/A
SUBMITUSER=mwang87
TAGS=
LIBRARYQUALITY=3
SPECTRUMID=CCMSLIB00000425238
SCANS=210
28.0 18.214 
43.0 57.462 
46.0 15.932 
61.0 12.213 
70.0 100.0 
81.0 7.657 
99.0 35.874 
113.0 9.625 
END IONS

BEGIN IONS
PEPMASS=343.124
CHARGE=1+
MSLEVEL=2
SOURCE_INSTRUMENT=Positive-Quattro_QQQ:10eV
FILENAME=hmdb_intermediate.mgf
SEQ=*..*
IONMODE=Positive
ORGANISM=HMDB
NAME=HMDB:HMDB00975-1372 Trehalose M+H
PI=HMDB
DATACOLLECTOR=HMDB
SMILES=OC[C@H]1O[C@H](O[C@H]2O[C@H](CO)[C@@H](O)[C@H](O)[C@H]2O)[C@H](O)[C@@H](O)[C@@H]1O
INCHI=InChI=1S/C12H22O11/c13-1-3-5(15)7(17)9(19)11(21-3)23-12-10(20)8(18)6(16)4(2-14)22-12/h3-20H,1-2H2/t3-,4-,5-,6-,7+,8+,9-,10-,11-,12-/m1/s1
INCHIAUX=N/A
PUBMED=N/A
SUBMITUSER=mwang87
TAGS=
LIBRARYQUALITY=3
SPECTRUMID=CCMSLIB00000425239
SCANS=211
85.0 17.892 
145.0 21.665 
163.0 100.0 
181.0 8.074 
325.0 12.359 
343.0 10.042 
END IONS

BEGIN IONS
PEPMASS=151.04
CHARGE=1+
MSLEVEL=2
SOURCE_INSTRUMENT=Positive-Quattro_QQQ:25eV
FILENAME=hmdb_intermediate.mgf
SEQ=*..*
IONMODE=Positive
ORGANISM=HMDB
NAME=HMDB:HMDB01587-1661 Phenylglyoxylic acid M+H
PI=HMDB
DATACOLLECTOR=HMDB
SMILES=OC(=O)C(=O)C1=CC=CC=C1
INCHI=InChI=1S/C8H6O3/c9-7(8(10)11)6-4-2-1-3-5-6/h1-5H,(H,10,11)
INCHIAUX=N/A
PUBMED=N/A
SUBMITUSER=mwang87
TAGS=
LIBRARYQUALITY=3
SPECTRUMID=CCMSLIB00000425240
SCANS=212
77.0 100.0 
87.0 12.025 
104.0 9.613 
105.0 38.008 
END IONS

BEGIN IONS
PEPMASS=155.144
CHARGE=1+
MSLEVEL=2
SOURCE_INSTRUMENT=Positive-Quattro_QQQ:10eV
FILENAME=hmdb_intermediate.mgf
SEQ=*..*
IONMODE=Positive
ORGANISM=HMDB
NAME=HMDB:HMDB04472-2391 Eucalyptol M+H
PI=HMDB
DATACOLLECTOR=HMDB
SMILES=CC12CCC(CC1)C(C)(C)O2
INCHI=InChI=1S/C10H18O/c1-9(2)8-4-6-10(3,11-9)7-5-8/h8H,4-7H2,1-3H3
INCHIAUX=N/A
PUBMED=N/A
SUBMITUSER=mwang87
TAGS=
LIBRARYQUALITY=3
SPECTRUMID=CCMSLIB00000425241
SCANS=213
81.0 100.0 
95.0 10.538 
123.0 15.96 
137.0 40.531 
155.0 3.15 
END IONS

BEGIN IONS
PEPMASS=525.901
CHARGE=1+
MSLEVEL=2
SOURCE_INSTRUMENT=Positive-Quattro_QQQ:25eV
FILENAME=hmdb_intermediate.mgf
SEQ=*..*
IONMODE=Positive
ORGANISM=HMDB
NAME=HMDB:HMDB00582-811 3,5-Diiodothyronine M+H
PI=HMDB
DATACOLLECTOR=HMDB
SMILES=NC(CC1=CC(I)=C(OC2=CC=C(O)C=C2)C(I)=C1)C(O)=O
INCHI=InChI=1S/C15H13I2NO4/c16-11-5-8(7-13(18)15(20)21)6-12(17)14(11)22-10-3-1-9(19)2-4-10/h1-6,13,19H,7,18H2,(H,20,21)
INCHIAUX=N/A
PUBMED=N/A
SUBMITUSER=mwang87
TAGS=
LIBRARYQUALITY=3
SPECTRUMID=CCMSLIB00000425242
SCANS=214
288.18 1.2985318513 
325.2 1.9515883563 
353.22 5.4032857347 
382.2 29.8686568081 
467.1 6.1920398846 
480.0 100.0 
508.98 14.4473590691 
525.96 81.4430483705 
END IONS

BEGIN IONS
PEPMASS=209.081
CHARGE=1+
MSLEVEL=2
SOURCE_INSTRUMENT=Positive-Quattro_QQQ:40eV
FILENAME=hmdb_intermediate.mgf
SEQ=*..*
IONMODE=Positive
ORGANISM=HMDB
NAME=HMDB:HMDB12127-2507 (R)-2-Benzylsuccinate M+H
PI=HMDB
DATACOLLECTOR=HMDB
SMILES=OC(=O)C[C@H](CC1=CC=CC=C1)C(O)=O
INCHI=InChI=1S/C11H12O4/c12-10(13)7-9(11(14)15)6-8-4-2-1-3-5-8/h1-5,9H,6-7H2,(H,12,13)(H,14,15)/t9-/m0/s1
INCHIAUX=N/A
PUBMED=N/A
SUBMITUSER=mwang87
TAGS=
LIBRARYQUALITY=3
SPECTRUMID=CCMSLIB00000425243
SCANS=215
91.14 17.0006264771 
117.06 100.0 
127.02 4.9579693503 
145.08 30.7658822457 
END IONS

BEGIN IONS
PEPMASS=166.073
CHARGE=1+
MSLEVEL=2
SOURCE_INSTRUMENT=Positive-Quattro_QQQ:10eV
FILENAME=hmdb_intermediate.mgf
SEQ=*..*
IONMODE=Positive
ORGANISM=HMDB
NAME=HMDB:HMDB03282-2227 1-Methylguanine M+H
PI=HMDB
DATACOLLECTOR=HMDB
SMILES=CN1C(N)=NC2=C(NC=N2)C1=O
INCHI=InChI=1S/C6H7N5O/c1-11-5(12)3-4(9-2-8-3)10-6(11)7/h2H,1H3,(H2,7,10)(H,8,9)
INCHIAUX=N/A
PUBMED=N/A
SUBMITUSER=mwang87
TAGS=
LIBRARYQUALITY=3
SPECTRUMID=CCMSLIB00000425244
SCANS=216
134.772 6.053 
148.84 37.814 
165.857 100.0 
END IONS

BEGIN IONS
PEPMASS=190.072
CHARGE=1+
MSLEVEL=2
SOURCE_INSTRUMENT=Positive-Quattro_QQQ:25eV
FILENAME=hmdb_intermediate.mgf
SEQ=*..*
IONMODE=Positive
ORGANISM=HMDB
NAME=HMDB:HMDB00590-814 Glutarylglycine M+H
PI=HMDB
DATACOLLECTOR=HMDB
SMILES=OC(=O)CCCC(=O)NCC(O)=O
INCHI=InChI=1S/C7H11NO5/c9-5(8-4-7(12)13)2-1-3-6(10)11/h1-4H2,(H,8,9)(H,10,11)(H,12,13)
INCHIAUX=N/A
PUBMED=N/A
SUBMITUSER=mwang87
TAGS=
LIBRARYQUALITY=3
SPECTRUMID=CCMSLIB00000425245
SCANS=217
70.0 70.441 
77.0 59.565 
98.0 100.0 
126.0 44.989 
158.0 13.114 
END IONS

BEGIN IONS
PEPMASS=227.128
CHARGE=1+
MSLEVEL=2
SOURCE_INSTRUMENT=Negative-Quattro_QQQ:25eV
FILENAME=hmdb_intermediate.mgf
SEQ=*..*
IONMODE=Negative
ORGANISM=HMDB
NAME=HMDB:HMDB00933-1328 Traumatic acid M-H
PI=HMDB
DATACOLLECTOR=HMDB
SMILES=OC(=O)CCCCCCCC\C=C\C(O)=O
INCHI=InChI=1S/C12H20O4/c13-11(14)9-7-5-3-1-2-4-6-8-10-12(15)16/h7,9H,1-6,8,10H2,(H,13,14)(H,15,16)/b9-7+
INCHIAUX=N/A
PUBMED=N/A
SUBMITUSER=mwang87
TAGS=
LIBRARYQUALITY=3
SPECTRUMID=CCMSLIB00000425246
SCANS=218
67.8 79.126 
78.48 100.0 
84.95 72.33 
96.57 59.223 
107.2 64.078 
133.95 55.34 
186.1 68.447 
195.95 65.534 
206.4 91.748 
END IONS

BEGIN IONS
PEPMASS=131.071
CHARGE=1+
MSLEVEL=2
SOURCE_INSTRUMENT=Negative-Quattro_QQQ:10eV
FILENAME=hmdb_intermediate.mgf
SEQ=*..*
IONMODE=Negative
ORGANISM=HMDB
NAME=HMDB:HMDB01624-1663 2-Hydroxycaproic acid M-H
PI=HMDB
DATACOLLECTOR=HMDB
SMILES=CCCCC(O)C(O)=O
INCHI=InChI=1S/C6H12O3/c1-2-3-4-5(7)6(8)9/h5,7H,2-4H2,1H3,(H,8,9)
INCHIAUX=N/A
PUBMED=N/A
SUBMITUSER=mwang87
TAGS=
LIBRARYQUALITY=3
SPECTRUMID=CCMSLIB00000425247
SCANS=219
45.615 15.924 
85.386 100.0 
131.262 84.713 
END IONS

BEGIN IONS
PEPMASS=245.234
CHARGE=1+
MSLEVEL=2
SOURCE_INSTRUMENT=Positive-Quattro_QQQ:10eV
FILENAME=hmdb_intermediate.mgf
SEQ=*..*
IONMODE=Positive
ORGANISM=HMDB
NAME=HMDB:HMDB01186-1454 N1-Acetylspermine M+H
PI=HMDB
DATACOLLECTOR=HMDB
SMILES=CC(=O)NCCCNCCCCNCCCN
INCHI=InChI=1S/C12H28N4O/c1-12(17)16-11-5-10-15-8-3-2-7-14-9-4-6-13/h14-15H,2-11,13H2,1H3,(H,16,17)
INCHIAUX=N/A
PUBMED=N/A
SUBMITUSER=mwang87
TAGS=
LIBRARYQUALITY=3
SPECTRUMID=CCMSLIB00000425248
SCANS=220
99.0 22.874 
111.0 16.743 
128.0 70.044 
170.0 76.99 
226.0 3.908 
244.0 100.0 
245.0 47.496 
END IONS

BEGIN IONS
PEPMASS=164.038
CHARGE=1+
MSLEVEL=2
SOURCE_INSTRUMENT=Positive-Quattro_QQQ:25eV
FILENAME=hmdb_intermediate.mgf
SEQ=*..*
IONMODE=Positive
ORGANISM=HMDB
NAME=HMDB:HMDB01890-1796 Acetylcysteine M+H
PI=HMDB
DATACOLLECTOR=HMDB
SMILES=CC(=O)N[C@@H](CS)C(O)=O
INCHI=InChI=1S/C5H9NO3S/c1-3(7)6-4(2-10)5(8)9/h4,10H,2H2,1H3,(H,6,7)(H,8,9)/t4-/m0/s1
INCHIAUX=N/A
PUBMED=N/A
SUBMITUSER=mwang87
TAGS=
LIBRARYQUALITY=3
SPECTRUMID=CCMSLIB00000425249
SCANS=221
43.301 39.521 
59.173 39.521 
76.091 100.0 
87.037 24.551 
104.971 12.126 
121.734 8.308 
END IONS

BEGIN IONS
PEPMASS=181.071
CHARGE=1+
MSLEVEL=2
SOURCE_INSTRUMENT=Positive-Quattro_QQQ:40eV
FILENAME=hmdb_intermediate.mgf
SEQ=*..*
IONMODE=Positive
ORGANISM=HMDB
NAME=HMDB:HMDB03449-2318 Beta-D-Galactose M+H
PI=HMDB
DATACOLLECTOR=HMDB
SMILES=OC[C@H]1O[C@@H](O)[C@H](O)[C@@H](O)[C@H]1O
INCHI=InChI=1S/C6H12O6/c7-1-2-3(8)4(9)5(10)6(11)12-2/h2-11H,1H2/t2-,3+,4+,5-,6-/m1/s1
INCHIAUX=N/A
PUBMED=N/A
SUBMITUSER=mwang87
TAGS=
LIBRARYQUALITY=3
SPECTRUMID=CCMSLIB00000425250
SCANS=222
55.0 98.773 
67.0 100.0 
77.0 64.344 
END IONS

BEGIN IONS
PEPMASS=171.066
CHARGE=1+
MSLEVEL=2
SOURCE_INSTRUMENT=Positive-Quattro_QQQ:40eV
FILENAME=hmdb_intermediate.mgf
SEQ=*..*
IONMODE=Positive
ORGANISM=HMDB
NAME=HMDB:HMDB00318-533 3,4-Dihydroxyphenylglycol M+H
PI=HMDB
DATACOLLECTOR=HMDB
SMILES=OCC(O)C1=CC(O)=C(O)C=C1
INCHI=InChI=1S/C8H10O4/c9-4-8(12)5-1-2-6(10)7(11)3-5/h1-3,8-12H,4H2
INCHIAUX=N/A
PUBMED=N/A
SUBMITUSER=mwang87
TAGS=
LIBRARYQUALITY=3
SPECTRUMID=CCMSLIB00000425251
SCANS=223
55.751 100.0 
66.169 83.333 
79.475 88.889 
90.308 62.5 
140.494 51.389 
148.807 55.556 
176.448 48.611 
END IONS

BEGIN IONS
PEPMASS=343.124
CHARGE=1+
MSLEVEL=2
SOURCE_INSTRUMENT=Positive-Quattro_QQQ:40eV
FILENAME=hmdb_intermediate.mgf
SEQ=*..*
IONMODE=Positive
ORGANISM=HMDB
NAME=HMDB:HMDB00186-294 Alpha-Lactose M+H
PI=HMDB
DATACOLLECTOR=HMDB
SMILES=OC[C@H]1O[C@@H](O[C@H]2[C@H](O)[C@@H](O)[C@@H](O)O[C@@H]2CO)[C@H](O)[C@@H](O)[C@H]1O
INCHI=InChI=1S/C12H22O11/c13-1-3-5(15)6(16)9(19)12(22-3)23-10-4(2-14)21-11(20)8(18)7(10)17/h3-20H,1-2H2/t3-,4-,5+,6+,7-,8-,9-,10-,11+,12+/m1/s1
INCHIAUX=N/A
PUBMED=N/A
SUBMITUSER=mwang87
TAGS=
LIBRARYQUALITY=3
SPECTRUMID=CCMSLIB00000425252
SCANS=224
43.351 7.277 
45.349 9.546 
61.187 71.233 
73.115 40.24 
81.101 7.791 
85.067 100.0 
97.034 27.74 
108.979 5.223 
126.966 9.461 
144.993 9.589 
162.905 6.207 
END IONS

BEGIN IONS
PEPMASS=151.076
CHARGE=1+
MSLEVEL=2
SOURCE_INSTRUMENT=Positive-Quattro_QQQ:40eV
FILENAME=hmdb_intermediate.mgf
SEQ=*..*
IONMODE=Positive
ORGANISM=HMDB
NAME=HMDB:HMDB02097-2003 4-Ethylbenzoic acid M+H
PI=HMDB
DATACOLLECTOR=HMDB
SMILES=CCC1=CC=C(C=C1)C(O)=O
INCHI=InChI=1S/C9H10O2/c1-2-7-3-5-8(6-4-7)9(10)11/h3-6H,2H2,1H3,(H,10,11)
INCHIAUX=N/A
PUBMED=N/A
SUBMITUSER=mwang87
TAGS=
LIBRARYQUALITY=3
SPECTRUMID=CCMSLIB00000425253
SCANS=225
50.0 17.931 
64.0 7.434 
76.0 100.0 
90.0 6.52 
102.0 7.49 
END IONS

BEGIN IONS
PEPMASS=206.082
CHARGE=1+
MSLEVEL=2
SOURCE_INSTRUMENT=Positive-Quattro_QQQ:10eV
FILENAME=hmdb_intermediate.mgf
SEQ=*..*
IONMODE=Positive
ORGANISM=HMDB
NAME=HMDB:HMDB00671-924 Indolelactic acid M+H
PI=HMDB
DATACOLLECTOR=HMDB
SMILES=OC(CC1=CNC2=C1C=CC=C2)C(O)=O
INCHI=InChI=1S/C11H11NO3/c13-10(11(14)15)5-7-6-12-9-4-2-1-3-8(7)9/h1-4,6,10,12-13H,5H2,(H,14,15)
INCHIAUX=N/A
PUBMED=N/A
SUBMITUSER=mwang87
TAGS=
LIBRARYQUALITY=3
SPECTRUMID=CCMSLIB00000425254
SCANS=226
118.034 13.347 
130.042 14.407 
144.003 3.178 
146.009 14.407 
160.017 51.907 
169.996 7.892 
187.987 54.237 
205.979 100.0 
END IONS

BEGIN IONS
PEPMASS=175.12
CHARGE=1+
MSLEVEL=2
SOURCE_INSTRUMENT=Positive-Quattro_QQQ:10eV
FILENAME=hmdb_intermediate.mgf
SEQ=*..*
IONMODE=Positive
ORGANISM=HMDB
NAME=HMDB:HMDB03416-2292 D-Arginine M+H
PI=HMDB
DATACOLLECTOR=HMDB
SMILES=N[C@H](CCCNC(N)=N)C(O)=O
INCHI=InChI=1S/C6H14N4O2/c7-4(5(11)12)2-1-3-10-6(8)9/h4H,1-3,7H2,(H,11,12)(H4,8,9,10)/t4-/m1/s1
INCHIAUX=N/A
PUBMED=N/A
SUBMITUSER=mwang87
TAGS=
LIBRARYQUALITY=3
SPECTRUMID=CCMSLIB00000425255
SCANS=227
70.026 16.154 
115.909 19.269 
174.908 100.0 
END IONS

BEGIN IONS
PEPMASS=255.232
CHARGE=1+
MSLEVEL=2
SOURCE_INSTRUMENT=Negative-Quattro_QQQ:10eV
FILENAME=hmdb_intermediate.mgf
SEQ=*..*
IONMODE=Negative
ORGANISM=HMDB
NAME=HMDB:HMDB00220-358 Palmitic acid M-H
PI=HMDB
DATACOLLECTOR=HMDB
SMILES=CCCCCCCCCCCCCCCC(O)=O
INCHI=InChI=1S/C16H32O2/c1-2-3-4-5-6-7-8-9-10-11-12-13-14-15-16(17)18/h2-15H2,1H3,(H,17,18)
INCHIAUX=N/A
PUBMED=N/A
SUBMITUSER=mwang87
TAGS=
LIBRARYQUALITY=3
SPECTRUMID=CCMSLIB00000425256
SCANS=228
255.143 100.0 
END IONS

BEGIN IONS
PEPMASS=176.067
CHARGE=1+
MSLEVEL=2
SOURCE_INSTRUMENT=Positive-Quattro_QQQ:40eV
FILENAME=hmdb_intermediate.mgf
SEQ=*..*
IONMODE=Positive
ORGANISM=HMDB
NAME=HMDB:HMDB03157-2208 Guanidinosuccinic acid M+H
PI=HMDB
DATACOLLECTOR=HMDB
SMILES=NC(=N)N[C@@H](CC(O)=O)C(O)=O
INCHI=InChI=1S/C5H9N3O4/c6-5(7)8-2(4(11)12)1-3(9)10/h2H,1H2,(H,9,10)(H,11,12)(H4,6,7,8)/t2-/m0/s1
INCHIAUX=N/A
PUBMED=N/A
SUBMITUSER=mwang87
TAGS=
LIBRARYQUALITY=3
SPECTRUMID=CCMSLIB00000425257
SCANS=229
28.0 18.497 
43.0 100.0 
46.0 14.213 
60.0 5.788 
70.0 41.713 
86.0 9.966 
END IONS

BEGIN IONS
PEPMASS=369.373
CHARGE=1+
MSLEVEL=2
SOURCE_INSTRUMENT=Positive-Quattro_QQQ:10eV
FILENAME=hmdb_intermediate.mgf
SEQ=*..*
IONMODE=Positive
ORGANISM=HMDB
NAME=HMDB:HMDB02003-1938 Tetracosanoic acid M+H
PI=HMDB
DATACOLLECTOR=HMDB
SMILES=CCCCCCCCCCCCCCCCCCCCCCCC(O)=O
INCHI=InChI=1S/C24H48O2/c1-2-3-4-5-6-7-8-9-10-11-12-13-14-15-16-17-18-19-20-21-22-23-24(25)26/h2-23H2,1H3,(H,25,26)
INCHIAUX=N/A
PUBMED=N/A
SUBMITUSER=mwang87
TAGS=
LIBRARYQUALITY=3
SPECTRUMID=CCMSLIB00000425258
SCANS=230
72.0 20.086 
177.0 69.401 
309.0 19.54 
369.0 100.0 
END IONS

BEGIN IONS
PEPMASS=148.061
CHARGE=1+
MSLEVEL=2
SOURCE_INSTRUMENT=Positive-Quattro_QQQ:25eV
FILENAME=hmdb_intermediate.mgf
SEQ=*..*
IONMODE=Positive
ORGANISM=HMDB
NAME=HMDB:HMDB00148-222 L-Glutamic acid M+H
PI=HMDB
DATACOLLECTOR=HMDB
SMILES=N[C@@H](CCC(O)=O)C(O)=O
INCHI=InChI=1S/C5H9NO4/c6-3(5(9)10)1-2-4(7)8/h3H,1-2,6H2,(H,7,8)(H,9,10)/t3-/m0/s1
INCHIAUX=N/A
PUBMED=N/A
SUBMITUSER=mwang87
TAGS=
LIBRARYQUALITY=3
SPECTRUMID=CCMSLIB00000425259
SCANS=231
41.324 14.619 
56.207 33.051 
84.062 100.0 
101.952 4.661 
END IONS

BEGIN IONS
PEPMASS=189.124
CHARGE=1+
MSLEVEL=2
SOURCE_INSTRUMENT=Positive-Quattro_QQQ:10eV
FILENAME=hmdb_intermediate.mgf
SEQ=*..*
IONMODE=Positive
ORGANISM=HMDB
NAME=HMDB:HMDB00446-650 N-Alpha-acetyllysine M+H
PI=HMDB
DATACOLLECTOR=HMDB
SMILES=CC(=O)NC(CCCCN)C(O)=O
INCHI=InChI=1S/C8H16N2O3/c1-6(11)10-7(8(12)13)4-2-3-5-9/h7H,2-5,9H2,1H3,(H,10,11)(H,12,13)
INCHIAUX=N/A
PUBMED=N/A
SUBMITUSER=mwang87
TAGS=
LIBRARYQUALITY=3
SPECTRUMID=CCMSLIB00000425260
SCANS=232
84.0 40.57 
101.0 4.343 
129.0 80.737 
147.0 17.895 
171.0 11.0 
189.0 100.0 
END IONS

BEGIN IONS
PEPMASS=138.055
CHARGE=1+
MSLEVEL=2
SOURCE_INSTRUMENT=Positive-Quattro_QQQ:10eV
FILENAME=hmdb_intermediate.mgf
SEQ=*..*
IONMODE=Positive
ORGANISM=HMDB
NAME=HMDB:HMDB00875-1235 Trigonelline M+H
PI=HMDB
DATACOLLECTOR=HMDB
SMILES=C[N+]1=CC(=CC=C1)C([O-])=O
INCHI=InChI=1S/C7H7NO2/c1-8-4-2-3-6(5-8)7(9)10/h2-5H,1H3
INCHIAUX=N/A
PUBMED=N/A
SUBMITUSER=mwang87
TAGS=
LIBRARYQUALITY=3
SPECTRUMID=CCMSLIB00000425261
SCANS=233
71.743 10.715 
96.081 19.895 
119.921 14.671 
138.519 100.0 
END IONS

BEGIN IONS
PEPMASS=441.163
CHARGE=1+
MSLEVEL=2
SOURCE_INSTRUMENT=Positive-Quattro_QQQ:10eV
FILENAME=hmdb_intermediate.mgf
SEQ=*..*
IONMODE=Positive
ORGANISM=HMDB
NAME=HMDB:HMDB01833-1687 Aminopterin M+H
PI=HMDB
DATACOLLECTOR=HMDB
SMILES=NC1=NC2=C(N=C(CNC3=CC=C(C=C3)C(=O)NC(CCC(O)=O)C(O)=O)C=N2)C(N)=N1
INCHI=InChI=1S/C19H20N8O5/c20-15-14-16(27-19(21)26-15)23-8-11(24-14)7-22-10-3-1-9(2-4-10)17(30)25-12(18(31)32)5-6-13(28)29/h1-4,8,12,22H,5-7H2,(H,25,30)(H,28,29)(H,31,32)(H4,20,21,23,26,27)
INCHIAUX=N/A
PUBMED=N/A
SUBMITUSER=mwang87
TAGS=
LIBRARYQUALITY=3
SPECTRUMID=CCMSLIB00000425262
SCANS=234
119.0 4.791 
174.0 5.734 
175.0 2.37 
293.0 47.406 
295.0 7.949 
312.0 3.592 
440.0 100.0 
END IONS

BEGIN IONS
PEPMASS=75.0446
CHARGE=1+
MSLEVEL=2
SOURCE_INSTRUMENT=Positive-Quattro_QQQ:40eV
FILENAME=hmdb_intermediate.mgf
SEQ=*..*
IONMODE=Positive
ORGANISM=HMDB
NAME=HMDB:HMDB00237-399 Propionic acid M+H
PI=HMDB
DATACOLLECTOR=HMDB
SMILES=CCC(O)=O
INCHI=InChI=1S/C3H6O2/c1-2-3(4)5/h2H2,1H3,(H,4,5)
INCHIAUX=N/A
PUBMED=N/A
SUBMITUSER=mwang87
TAGS=
LIBRARYQUALITY=3
SPECTRUMID=CCMSLIB00000425263
SCANS=235
15.0 84.97 
42.0 100.0 
45.0 28.933 
74.0 62.85 
75.0 38.034 
END IONS

BEGIN IONS
PEPMASS=181.073
CHARGE=1+
MSLEVEL=2
SOURCE_INSTRUMENT=Positive-Quattro_QQQ:40eV
FILENAME=hmdb_intermediate.mgf
SEQ=*..*
IONMODE=Positive
ORGANISM=HMDB
NAME=HMDB:HMDB02825-2145 Theobromine M+H
PI=HMDB
DATACOLLECTOR=HMDB
SMILES=CN1C=NC2=C1C(=O)NC(=O)N2C
INCHI=InChI=1S/C7H8N4O2/c1-10-3-8-5-4(10)6(12)9-7(13)11(5)2/h3H,1-2H3,(H,9,12,13)
INCHIAUX=N/A
PUBMED=N/A
SUBMITUSER=mwang87
TAGS=
LIBRARYQUALITY=3
SPECTRUMID=CCMSLIB00000425264
SCANS=236
42.15 86.731 
67.0 100.0 
END IONS

BEGIN IONS
PEPMASS=80.05
CHARGE=1+
MSLEVEL=2
SOURCE_INSTRUMENT=Positive-Quattro_QQQ:25eV
FILENAME=hmdb_intermediate.mgf
SEQ=*..*
IONMODE=Positive
ORGANISM=HMDB
NAME=HMDB:HMDB00926-1316 Pyridine M+H
PI=HMDB
DATACOLLECTOR=HMDB
SMILES=C1=CC=NC=C1
INCHI=InChI=1S/C5H5N/c1-2-4-6-5-3-1/h1-5H
INCHIAUX=N/A
PUBMED=N/A
SUBMITUSER=mwang87
TAGS=
LIBRARYQUALITY=3
SPECTRUMID=CCMSLIB00000425265
SCANS=237
53.235 86.567 
80.07 100.0 
END IONS

BEGIN IONS
PEPMASS=143.107
CHARGE=1+
MSLEVEL=2
SOURCE_INSTRUMENT=Positive-Quattro_QQQ:40eV
FILENAME=hmdb_intermediate.mgf
SEQ=*..*
IONMODE=Positive
ORGANISM=HMDB
NAME=HMDB:HMDB00392-599 2-Octenoic acid M+H
PI=HMDB
DATACOLLECTOR=HMDB
SMILES=CCCCC\C=C/C(O)=O
INCHI=InChI=1S/C8H14O2/c1-2-3-4-5-6-7-8(9)10/h6-7H,2-5H2,1H3,(H,9,10)/b7-6-
INCHIAUX=N/A
PUBMED=N/A
SUBMITUSER=mwang87
TAGS=
LIBRARYQUALITY=3
SPECTRUMID=CCMSLIB00000425266
SCANS=238
41.0 10.403 
54.0 100.0 
55.0 8.541 
72.0 26.507 
END IONS

BEGIN IONS
PEPMASS=269.063
CHARGE=1+
MSLEVEL=2
SOURCE_INSTRUMENT=Positive-Quattro_QQQ:10eV
FILENAME=hmdb_intermediate.mgf
SEQ=*..*
IONMODE=Positive
ORGANISM=HMDB
NAME=HMDB:HMDB00676-936 L-Homocystine M+H
PI=HMDB
DATACOLLECTOR=HMDB
SMILES=NC(CCSSCC[C@H](N)C(O)=O)C(O)=O
INCHI=InChI=1S/C8H16N2O4S2/c9-5(7(11)12)1-3-15-16-4-2-6(10)8(13)14/h5-6H,1-4,9-10H2,(H,11,12)(H,13,14)/t5-,6?/m0/s1
INCHIAUX=N/A
PUBMED=N/A
SUBMITUSER=mwang87
TAGS=
LIBRARYQUALITY=3
SPECTRUMID=CCMSLIB00000425267
SCANS=239
90.0 8.089 
118.0 6.167 
134.0 31.665 
135.0 100.0 
269.0 10.9 
END IONS

BEGIN IONS
PEPMASS=343.124
CHARGE=1+
MSLEVEL=2
SOURCE_INSTRUMENT=Positive-Quattro_QQQ:40eV
FILENAME=hmdb_intermediate.mgf
SEQ=*..*
IONMODE=Positive
ORGANISM=HMDB
NAME=HMDB:HMDB11740-2498 Turanose M+H
PI=HMDB
DATACOLLECTOR=HMDB
SMILES=OC[C@@H](O)[C@@H](O)[C@H](O[C@H]1O[C@H](CO)[C@@H](O)[C@H](O)[C@H]1O)C(=O)CO
INCHI=InChI=1S/C12H22O11/c13-1-4(16)7(18)11(5(17)2-14)23-12-10(21)9(20)8(19)6(3-15)22-12/h4,6-16,18-21H,1-3H2/t4-,6-,7-,8-,9+,10-,11-,12-/m1/s1
INCHIAUX=N/A
PUBMED=N/A
SUBMITUSER=mwang87
TAGS=
LIBRARYQUALITY=3
SPECTRUMID=CCMSLIB00000425268
SCANS=240
55.38 6.7024132754 
69.0 31.5013418636 
81.06 5.898123647 
85.02 100.0 
97.02 72.9222572858 
109.02 18.632709578 
115.02 8.5790887802 
127.02 53.4852554252 
151.08 3.2171585138 
240.3 9.2493302847 
251.28 3.3512066377 
284.82 3.3512066377 
343.2 5.3619302664 
END IONS

BEGIN IONS
PEPMASS=749.516
CHARGE=1+
MSLEVEL=2
SOURCE_INSTRUMENT=Positive-Quattro_QQQ:25eV
FILENAME=hmdb_intermediate.mgf
SEQ=*..*
IONMODE=Positive
ORGANISM=HMDB
NAME=HMDB:HMDB01916-1832 Azythromycin M+H
PI=HMDB
DATACOLLECTOR=HMDB
SMILES=CC[C@@H]1OC(=O)[C@H](C)[C@@H](O[C@@H]2C[C@](C)(OC)[C@H](O)[C@@H](C)O2)[C@@H](C)[C@H](O[C@H]2O[C@@H](C)C[C@H]([C@@H]2O)N(C)C)[C@@](C)(O)C[C@H](C)CN(C)[C@@H](C)[C@@H](O)[C@]1(C)O
INCHI=InChI=1S/C38H72N2O12/c1-15-27-38(10,46)31(42)24(6)40(13)19-20(2)17-36(8,45)33(52-35-29(41)26(39(11)12)16-21(3)48-35)22(4)30(23(5)34(44)50-27)51-28-18-37(9,47-14)32(43)25(7)49-28/h20-33,35,41-43,45-46H,15-19H2,1-14H3/t20-,21-,22+,23+,24-,25+,26+,27-,28+,29-,30-,31+,32+,33-,35+,36-,37-,38+/m0/s1
INCHIAUX=N/A
PUBMED=N/A
SUBMITUSER=mwang87
TAGS=
LIBRARYQUALITY=3
SPECTRUMID=CCMSLIB00000425269
SCANS=241
72.718 19.26 
82.798 19.044 
98.228 5.324 
114.406 25.222 
114.904 57.472 
127.1 37.721 
158.587 66.597 
174.144 11.143 
181.737 17.536 
185.595 8.27 
433.833 15.381 
434.58 10.999 
572.551 16.961 
591.23 100.0 
748.756 50.289 
END IONS

BEGIN IONS
PEPMASS=166.087
CHARGE=1+
MSLEVEL=2
SOURCE_INSTRUMENT=Positive-Quattro_QQQ:25eV
FILENAME=hmdb_intermediate.mgf
SEQ=*..*
IONMODE=Positive
ORGANISM=HMDB
NAME=HMDB:HMDB04992-2428 Benzocaine M+H
PI=HMDB
DATACOLLECTOR=HMDB
SMILES=CCOC(=O)C1=CC=C(N)C=C1
INCHI=InChI=1S/C9H11NO2/c1-2-12-9(11)7-3-5-8(10)6-4-7/h3-6H,2,10H2,1H3
INCHIAUX=N/A
PUBMED=N/A
SUBMITUSER=mwang87
TAGS=
LIBRARYQUALITY=3
SPECTRUMID=CCMSLIB00000425270
SCANS=242
65.08 16.643 
76.91 17.995 
91.76 42.581 
119.75 100.0 
END IONS

BEGIN IONS
PEPMASS=191.019
CHARGE=1+
MSLEVEL=2
SOURCE_INSTRUMENT=Negative-Quattro_QQQ:10eV
FILENAME=hmdb_intermediate.mgf
SEQ=*..*
IONMODE=Negative
ORGANISM=HMDB
NAME=HMDB:HMDB01874-1765 D-threo-Isocitric acid M-H
PI=HMDB
DATACOLLECTOR=HMDB
SMILES=O[C@H]([C@H](CC(O)=O)C(O)=O)C(O)=O
INCHI=InChI=1S/C6H8O7/c7-3(8)1-2(5(10)11)4(9)6(12)13/h2,4,9H,1H2,(H,7,8)(H,10,11)(H,12,13)/t2-,4+/m0/s1
INCHIAUX=N/A
PUBMED=N/A
SUBMITUSER=mwang87
TAGS=
LIBRARYQUALITY=3
SPECTRUMID=CCMSLIB00000425271
SCANS=243
80.512 5.973 
109.799 8.805 
119.271 7.131 
135.473 6.195 
151.925 100.0 
166.258 5.013 
174.734 6.737 
192.309 8.977 
END IONS

BEGIN IONS
PEPMASS=131.034
CHARGE=1+
MSLEVEL=2
SOURCE_INSTRUMENT=Positive-Quattro_QQQ:10eV
FILENAME=hmdb_intermediate.mgf
SEQ=*..*
IONMODE=Positive
ORGANISM=HMDB
NAME=HMDB:HMDB00749-1068 Mesaconic acid M+H
PI=HMDB
DATACOLLECTOR=HMDB
SMILES=C\C(=C/C(O)=O)C(O)=O
INCHI=InChI=1S/C5H6O4/c1-3(5(8)9)2-4(6)7/h2H,1H3,(H,6,7)(H,8,9)/b3-2+
INCHIAUX=N/A
PUBMED=N/A
SUBMITUSER=mwang87
TAGS=
LIBRARYQUALITY=3
SPECTRUMID=CCMSLIB00000425272
SCANS=244
71.0 16.753 
85.0 100.0 
99.0 60.149 
113.0 35.132 
131.0 45.69 
END IONS

BEGIN IONS
PEPMASS=181.071
CHARGE=1+
MSLEVEL=2
SOURCE_INSTRUMENT=Positive-Quattro_QQQ:40eV
FILENAME=hmdb_intermediate.mgf
SEQ=*..*
IONMODE=Positive
ORGANISM=HMDB
NAME=HMDB:HMDB03345-2255 Alpha-D-Glucose M+H
PI=HMDB
DATACOLLECTOR=HMDB
SMILES=OC[C@H]1O[C@H](O)[C@H](O)[C@@H](O)[C@@H]1O
INCHI=InChI=1S/C6H12O6/c7-1-2-3(8)4(9)5(10)6(11)12-2/h2-11H,1H2/t2-,3-,4+,5-,6+/m1/s1
INCHIAUX=N/A
PUBMED=N/A
SUBMITUSER=mwang87
TAGS=
LIBRARYQUALITY=3
SPECTRUMID=CCMSLIB00000425273
SCANS=245
41.0 39.27 
45.0 29.753 
61.0 21.287 
73.0 78.769 
75.0 20.548 
85.0 100.0 
117.0 9.719 
END IONS

BEGIN IONS
PEPMASS=162.972
CHARGE=1+
MSLEVEL=2
SOURCE_INSTRUMENT=Positive-Quattro_QQQ:40eV
FILENAME=hmdb_intermediate.mgf
SEQ=*..*
IONMODE=Positive
ORGANISM=HMDB
NAME=HMDB:HMDB04811-2402 2,4-Dichlorophenol M+H
PI=HMDB
DATACOLLECTOR=HMDB
SMILES=OC1=CC=C(Cl)C=C1Cl
INCHI=InChI=1S/C6H4Cl2O/c7-4-1-2-6(9)5(8)3-4/h1-3,9H
INCHIAUX=N/A
PUBMED=N/A
SUBMITUSER=mwang87
TAGS=
LIBRARYQUALITY=3
SPECTRUMID=CCMSLIB00000425274
SCANS=246
51.0 13.687 
77.0 100.0 
105.0 12.927 
END IONS

BEGIN IONS
PEPMASS=335.064
CHARGE=1+
MSLEVEL=2
SOURCE_INSTRUMENT=Positive-Quattro_QQQ:40eV
FILENAME=hmdb_intermediate.mgf
SEQ=*..*
IONMODE=Positive
ORGANISM=HMDB
NAME=HMDB:HMDB00229-384 Nicotinamide ribotide M+H
PI=HMDB
DATACOLLECTOR=HMDB
SMILES=NC(=O)C1=CC=C[N+](=C1)[C@@H]1O[C@H](COP(O)([O-])=O)[C@@H](O)[C@H]1O
INCHI=InChI=1S/C11H15N2O8P/c12-10(16)6-2-1-3-13(4-6)11-9(15)8(14)7(21-11)5-20-22(17,18)19/h1-4,7-9,11,14-15H,5H2,(H3-,12,16,17,18,19)/t7-,8-,9-,11-/m1/s1
INCHIAUX=N/A
PUBMED=N/A
SUBMITUSER=mwang87
TAGS=
LIBRARYQUALITY=3
SPECTRUMID=CCMSLIB00000425275
SCANS=247
70.121 14.686 
92.673 28.446 
98.186 100.0 
104.951 15.239 
116.854 68.078 
177.501 75.234 
264.475 14.138 
341.688 16.887 
346.577 20.742 
357.107 15.786 
386.192 18.54 
END IONS

BEGIN IONS
PEPMASS=385.347
CHARGE=1+
MSLEVEL=2
SOURCE_INSTRUMENT=Positive-Quattro_QQQ:25eV
FILENAME=hmdb_intermediate.mgf
SEQ=*..*
IONMODE=Positive
ORGANISM=HMDB
NAME=HMDB:HMDB00921-1310 Cholestenone M+H
PI=HMDB
DATACOLLECTOR=HMDB
SMILES=[H][C@@]12CC[C@H]([C@H](C)CCCC(C)C)[C@@]1(C)CC[C@@]1([H])[C@@]2([H])CCC2=CC(=O)CC[C@]12C
INCHI=InChI=1S/C27H44O/c1-18(2)7-6-8-19(3)23-11-12-24-22-10-9-20-17-21(28)13-15-26(20,4)25(22)14-16-27(23,24)5/h17-19,22-25H,6-16H2,1-5H3/t19-,22+,23-,24+,25+,26+,27-/m1/s1
INCHIAUX=N/A
PUBMED=N/A
SUBMITUSER=mwang87
TAGS=
LIBRARYQUALITY=3
SPECTRUMID=CCMSLIB00000425276
SCANS=248
57.0 21.572 
69.0 33.42 
81.0 65.233 
97.0 52.05 
108.0 40.204 
121.0 24.143 
135.0 26.64 
149.0 24.028 
163.0 25.314 
176.0 18.071 
248.0 22.713 
384.0 100.0 
385.0 32.584 
END IONS

BEGIN IONS
PEPMASS=43.0058
CHARGE=1+
MSLEVEL=2
SOURCE_INSTRUMENT=Positive-Quattro_QQQ:25eV
FILENAME=hmdb_intermediate.mgf
SEQ=*..*
IONMODE=Positive
ORGANISM=HMDB
NAME=HMDB:HMDB02078-1988 Cyanate M+H
PI=HMDB
DATACOLLECTOR=HMDB
SMILES=[O-]C#N
INCHI=InChI=1S/CHNO/c2-1-3/h3H/p-1
INCHIAUX=N/A
PUBMED=N/A
SUBMITUSER=mwang87
TAGS=
LIBRARYQUALITY=3
SPECTRUMID=CCMSLIB00000425277
SCANS=249
29.0 39.805 
43.0 100.0 
END IONS

BEGIN IONS
PEPMASS=260.186
CHARGE=1+
MSLEVEL=2
SOURCE_INSTRUMENT=Positive-Quattro_QQQ:40eV
FILENAME=hmdb_intermediate.mgf
SEQ=*..*
IONMODE=Positive
ORGANISM=HMDB
NAME=HMDB:HMDB00756-1088 L-Hexanoylcarnitine M+H
PI=HMDB
DATACOLLECTOR=HMDB
SMILES=CCCCCC(=O)O[C@H](CC([O-])=O)C[N+](C)(C)C
INCHI=InChI=1S/C13H25NO4/c1-5-6-7-8-13(17)18-11(9-12(15)16)10-14(2,3)4/h11H,5-10H2,1-4H3/t11-/m1/s1
INCHIAUX=N/A
PUBMED=N/A
SUBMITUSER=mwang87
TAGS=
LIBRARYQUALITY=3
SPECTRUMID=CCMSLIB00000425278
SCANS=250
43.598 17.219 
57.468 18.367 
85.201 100.0 
END IONS

BEGIN IONS
PEPMASS=161.045
CHARGE=1+
MSLEVEL=2
SOURCE_INSTRUMENT=Negative-Quattro_QQQ:25eV
FILENAME=hmdb_intermediate.mgf
SEQ=*..*
IONMODE=Negative
ORGANISM=HMDB
NAME=HMDB:HMDB00321-535 2-Hydroxyadipic acid M-H
PI=HMDB
DATACOLLECTOR=HMDB
SMILES=OC(CCCC(O)=O)C(O)=O
INCHI=InChI=1S/C6H10O5/c7-4(6(10)11)2-1-3-5(8)9/h4,7H,1-3H2,(H,8,9)(H,10,11)
INCHIAUX=N/A
PUBMED=N/A
SUBMITUSER=mwang87
TAGS=
LIBRARYQUALITY=3
SPECTRUMID=CCMSLIB00000425279
SCANS=251
43.637 22.697 
45.593 30.263 
59.446 100.0 
71.415 89.474 
99.281 6.086 
115.203 8.224 
160.832 3.783 
END IONS

BEGIN IONS
PEPMASS=365.233
CHARGE=1+
MSLEVEL=2
SOURCE_INSTRUMENT=Positive-Quattro_QQQ:40eV
FILENAME=hmdb_intermediate.mgf
SEQ=*..*
IONMODE=Positive
ORGANISM=HMDB
NAME=HMDB:HMDB00903-1285 Tetrahydrocortisone M+H
PI=HMDB
DATACOLLECTOR=HMDB
SMILES=[H][C@@]12CC[C@](O)(C(=O)CO)[C@@]1(C)CC(=O)[C@@]1([H])[C@@]2([H])CC[C@@]2([H])C[C@@H](O)CC[C@]12C
INCHI=InChI=1S/C21H32O5/c1-19-7-5-13(23)9-12(19)3-4-14-15-6-8-21(26,17(25)11-22)20(15,2)10-16(24)18(14)19/h12-15,18,22-23,26H,3-11H2,1-2H3/t12-,13-,14-,15-,18+,19-,20-,21-/m0/s1
INCHIAUX=N/A
PUBMED=N/A
SUBMITUSER=mwang87
TAGS=
LIBRARYQUALITY=3
SPECTRUMID=CCMSLIB00000425280
SCANS=252
43.572 30.903 
55.473 31.597 
67.384 59.028 
81.315 90.278 
93.277 100.0 
95.281 50.347 
105.232 76.736 
121.182 59.375 
131.151 41.319 
135.168 36.458 
145.147 59.028 
159.144 60.069 
169.14 40.278 
175.102 20.573 
184.951 21.441 
END IONS

BEGIN IONS
PEPMASS=289.067
CHARGE=1+
MSLEVEL=2
SOURCE_INSTRUMENT=Positive-Quattro_QQQ:10eV
FILENAME=hmdb_intermediate.mgf
SEQ=*..*
IONMODE=Positive
ORGANISM=HMDB
NAME=HMDB:HMDB00788-1125 Orotidine M+H
PI=HMDB
DATACOLLECTOR=HMDB
SMILES=OC[C@H]1O[C@H]([C@H](O)[C@@H]1O)N1C(=O)NC(=O)C=C1C(O)=O
INCHI=InChI=1S/C10H12N2O8/c13-2-4-6(15)7(16)8(20-4)12-3(9(17)18)1-5(14)11-10(12)19/h1,4,6-8,13,15-16H,2H2,(H,17,18)(H,11,14,19)/t4-,6-,7-,8-/m1/s1
INCHIAUX=N/A
PUBMED=N/A
SUBMITUSER=mwang87
TAGS=
LIBRARYQUALITY=3
SPECTRUMID=CCMSLIB00000425281
SCANS=253
72.3 77.8103139743 
77.9 53.4895070766 
99.7 91.6056612982 
132.3 27.8021799252 
143.6 35.1553603384 
150.1 99.934927607 
157.2 95.1033024239 
210.6 72.9949568895 
229.1 54.3517162844 
248.5 100.0 
289.2 39.7917683423 
END IONS

BEGIN IONS
PEPMASS=61.0653
CHARGE=1+
MSLEVEL=2
SOURCE_INSTRUMENT=Positive-Quattro_QQQ:25eV
FILENAME=hmdb_intermediate.mgf
SEQ=*..*
IONMODE=Positive
ORGANISM=HMDB
NAME=HMDB:HMDB00820-1168 Propyl alcohol M+H
PI=HMDB
DATACOLLECTOR=HMDB
SMILES=CCCO
INCHI=InChI=1S/C3H8O/c1-2-3-4/h4H,2-3H2,1H3
INCHIAUX=N/A
PUBMED=N/A
SUBMITUSER=mwang87
TAGS=
LIBRARYQUALITY=3
SPECTRUMID=CCMSLIB00000425282
SCANS=254
15.0 39.654 
43.0 60.249 
45.0 45.571 
60.0 100.0 
END IONS

BEGIN IONS
PEPMASS=291.232
CHARGE=1+
MSLEVEL=2
SOURCE_INSTRUMENT=Positive-Quattro_QQQ:10eV
FILENAME=hmdb_intermediate.mgf
SEQ=*..*
IONMODE=Positive
ORGANISM=HMDB
NAME=HMDB:HMDB00365-582 Epiandrosterone M+H
PI=HMDB
DATACOLLECTOR=HMDB
SMILES=[H][C@@]12CCC(=O)[C@@]1(C)CC[C@@]1([H])[C@@]2([H])CCC2C[C@@H](O)CC[C@]12C
INCHI=InChI=1S/C19H30O2/c1-18-9-7-13(20)11-12(18)3-4-14-15-5-6-17(21)19(15,2)10-8-16(14)18/h12-16,20H,3-11H2,1-2H3/t12?,13-,14-,15-,16-,18-,19-/m0/s1
INCHIAUX=N/A
PUBMED=N/A
SUBMITUSER=mwang87
TAGS=
LIBRARYQUALITY=3
SPECTRUMID=CCMSLIB00000425283
SCANS=255
135.144 4.297 
147.119 3.955 
161.116 4.639 
173.031 1.917 
175.107 4.932 
199.036 4.102 
213.062 1.697 
215.076 3.04 
255.112 60.156 
273.135 100.0 
291.144 16.211 
END IONS

BEGIN IONS
PEPMASS=389.378
CHARGE=1+
MSLEVEL=2
SOURCE_INSTRUMENT=Positive-Quattro_QQQ:25eV
FILENAME=hmdb_intermediate.mgf
SEQ=*..*
IONMODE=Positive
ORGANISM=HMDB
NAME=HMDB:HMDB00908-1296 5alpha-Cholestanol M+H
PI=HMDB
DATACOLLECTOR=HMDB
SMILES=[H][C@@]1(CC[C@@]2([H])[C@]3([H])CC[C@@]4([H])C[C@@H](O)CC[C@]4(C)[C@@]3([H])CC[C@]12C)[C@H](C)CCCC(C)C
INCHI=InChI=1S/C27H48O/c1-18(2)7-6-8-19(3)23-11-12-24-22-10-9-20-17-21(28)13-15-26(20,4)25(22)14-16-27(23,24)5/h18-25,28H,6-17H2,1-5H3/t19-,20+,21+,22+,23-,24+,25+,26+,27-/m1/s1
INCHIAUX=N/A
PUBMED=N/A
SUBMITUSER=mwang87
TAGS=
LIBRARYQUALITY=3
SPECTRUMID=CCMSLIB00000425284
SCANS=256
46.0 100.0 
73.0 67.749 
89.0 95.326 
388.0 67.286 
END IONS

BEGIN IONS
PEPMASS=130.05
CHARGE=1+
MSLEVEL=2
SOURCE_INSTRUMENT=Positive-Quattro_QQQ:10eV
FILENAME=hmdb_intermediate.mgf
SEQ=*..*
IONMODE=Positive
ORGANISM=HMDB
NAME=HMDB:HMDB00267-463 Pyroglutamic acid M+H
PI=HMDB
DATACOLLECTOR=HMDB
SMILES=OC(=O)[C@@H]1CCC(=O)N1
INCHI=InChI=1S/C5H7NO3/c7-4-2-1-3(6-4)5(8)9/h3H,1-2H2,(H,6,7)(H,8,9)/t3-/m0/s1
INCHIAUX=N/A
PUBMED=N/A
SUBMITUSER=mwang87
TAGS=
LIBRARYQUALITY=3
SPECTRUMID=CCMSLIB00000425285
SCANS=257
84.106 100.0 
130.016 56.863 
END IONS

BEGIN IONS
PEPMASS=185.154
CHARGE=1+
MSLEVEL=2
SOURCE_INSTRUMENT=Negative-Quattro_QQQ:40eV
FILENAME=hmdb_intermediate.mgf
SEQ=*..*
IONMODE=Negative
ORGANISM=HMDB
NAME=HMDB:HMDB00947-1344 Undecanoic acid M-H
PI=HMDB
DATACOLLECTOR=HMDB
SMILES=CCCCCCCCCCC(O)=O
INCHI=InChI=1S/C11H22O2/c1-2-3-4-5-6-7-8-9-10-11(12)13/h2-10H2,1H3,(H,12,13)
INCHIAUX=N/A
PUBMED=N/A
SUBMITUSER=mwang87
TAGS=
LIBRARYQUALITY=3
SPECTRUMID=CCMSLIB00000425286
SCANS=258
45.265 14.558 
58.151 16.387 
71.1 15.625 
79.959 3.582 
85.977 3.735 
112.94 3.659 
127.04 6.098 
141.101 3.43 
184.202 33.232 
185.115 100.0 
END IONS

BEGIN IONS
PEPMASS=87.0446
CHARGE=1+
MSLEVEL=2
SOURCE_INSTRUMENT=Positive-Quattro_QQQ:40eV
FILENAME=hmdb_intermediate.mgf
SEQ=*..*
IONMODE=Positive
ORGANISM=HMDB
NAME=HMDB:HMDB03407-2288 Diacetyl M+H
PI=HMDB
DATACOLLECTOR=HMDB
SMILES=CC(=O)C(C)=O
INCHI=InChI=1S/C4H6O2/c1-3(5)4(2)6/h1-2H3
INCHIAUX=N/A
PUBMED=N/A
SUBMITUSER=mwang87
TAGS=
LIBRARYQUALITY=3
SPECTRUMID=CCMSLIB00000425287
SCANS=259
43.0 49.789 
48.0 69.214 
56.0 63.144 
73.0 100.0 
82.0 54.685 
END IONS

BEGIN IONS
PEPMASS=377.306
CHARGE=1+
MSLEVEL=2
SOURCE_INSTRUMENT=Positive-Quattro_QQQ:40eV
FILENAME=hmdb_intermediate.mgf
SEQ=*..*
IONMODE=Positive
ORGANISM=HMDB
NAME=HMDB:HMDB00761-1094 Lithocholic acid M+H
PI=HMDB
DATACOLLECTOR=HMDB
SMILES=[H][C@@]12CC[C@H]([C@H](C)CCC(O)=O)[C@@]1(C)CC[C@@]1([H])[C@@]2([H])CCC2C[C@H](O)CC[C@]12C
INCHI=InChI=1S/C24H40O3/c1-15(4-9-22(26)27)19-7-8-20-18-6-5-16-14-17(25)10-12-23(16,2)21(18)11-13-24(19,20)3/h15-21,25H,4-14H2,1-3H3,(H,26,27)/t15-,16?,17-,18+,19-,20+,21+,23+,24-/m1/s1
INCHIAUX=N/A
PUBMED=N/A
SUBMITUSER=mwang87
TAGS=
LIBRARYQUALITY=3
SPECTRUMID=CCMSLIB00000425288
SCANS=260
183.0 100.0 
END IONS

BEGIN IONS
PEPMASS=227.103
CHARGE=1+
MSLEVEL=2
SOURCE_INSTRUMENT=Positive-Quattro_QQQ:10eV
FILENAME=hmdb_intermediate.mgf
SEQ=*..*
IONMODE=Positive
ORGANISM=HMDB
NAME=HMDB:HMDB00245-415 Porphobilinogen M+H
PI=HMDB
DATACOLLECTOR=HMDB
SMILES=NCC1=C(CC(O)=O)C(CCC(O)=O)=CN1
INCHI=InChI=1S/C10H14N2O4/c11-4-8-7(3-10(15)16)6(5-12-8)1-2-9(13)14/h5,12H,1-4,11H2,(H,13,14)(H,15,16)
INCHIAUX=N/A
PUBMED=N/A
SUBMITUSER=mwang87
TAGS=
LIBRARYQUALITY=3
SPECTRUMID=CCMSLIB00000425289
SCANS=261
166.026 1.576 
182.002 3.906 
209.973 100.0 
END IONS

BEGIN IONS
PEPMASS=178.05
CHARGE=1+
MSLEVEL=2
SOURCE_INSTRUMENT=Negative-Quattro_QQQ:10eV
FILENAME=hmdb_intermediate.mgf
SEQ=*..*
IONMODE=Negative
ORGANISM=HMDB
NAME=HMDB:HMDB00714-996 Hippuric acid M-H
PI=HMDB
DATACOLLECTOR=HMDB
SMILES=OC(=O)CNC(=O)C1=CC=CC=C1
INCHI=InChI=1S/C9H9NO3/c11-8(12)6-10-9(13)7-4-2-1-3-5-7/h1-5H,6H2,(H,10,13)(H,11,12)
INCHIAUX=N/A
PUBMED=N/A
SUBMITUSER=mwang87
TAGS=
LIBRARYQUALITY=3
SPECTRUMID=CCMSLIB00000425290
SCANS=262
56.218 4.812 
77.107 21.825 
133.989 61.905 
177.934 100.0 
END IONS

BEGIN IONS
PEPMASS=299.123
CHARGE=1+
MSLEVEL=2
SOURCE_INSTRUMENT=Positive-Quattro_QQQ:25eV
FILENAME=hmdb_intermediate.mgf
SEQ=*..*
IONMODE=Positive
ORGANISM=HMDB
NAME=HMDB:HMDB01107-1425 7-Methylguanosine M+H
PI=HMDB
DATACOLLECTOR=HMDB
SMILES=CN1C=[N+]([C@@H]2O[C@H](CO)[C@@H](O)[C@H]2O)C2=C1C(=O)N=C(N)N2
INCHI=InChI=1S/C11H15N5O5/c1-15-3-16(8-5(15)9(20)14-11(12)13-8)10-7(19)6(18)4(2-17)21-10/h3-4,6-7,10,17-19H,2H2,1H3,(H2-,12,13,14,20)/p+1/t4-,6-,7-,10-/m1/s1
INCHIAUX=N/A
PUBMED=N/A
SUBMITUSER=mwang87
TAGS=
LIBRARYQUALITY=3
SPECTRUMID=CCMSLIB00000425291
SCANS=263
123.991 4.792 
148.983 16.996 
165.973 100.0 
END IONS

BEGIN IONS
PEPMASS=153.128
CHARGE=1+
MSLEVEL=2
SOURCE_INSTRUMENT=Positive-Quattro_QQQ:40eV
FILENAME=hmdb_intermediate.mgf
SEQ=*..*
IONMODE=Positive
ORGANISM=HMDB
NAME=HMDB:HMDB03634-2336 Perillyl alcohol M+H
PI=HMDB
DATACOLLECTOR=HMDB
SMILES=CC(=C)C1CCC(CO)=CC1
INCHI=InChI=1S/C10H16O/c1-8(2)10-5-3-9(7-11)4-6-10/h3,10-11H,1,4-7H2,2H3
INCHIAUX=N/A
PUBMED=N/A
SUBMITUSER=mwang87
TAGS=
LIBRARYQUALITY=3
SPECTRUMID=CCMSLIB00000425292
SCANS=264
41.0 28.308 
45.0 74.481 
59.0 100.0 
73.0 43.897 
77.0 60.798 
91.0 34.709 
END IONS

BEGIN IONS
PEPMASS=183.066
CHARGE=1+
MSLEVEL=2
SOURCE_INSTRUMENT=Positive-Quattro_QQQ:25eV
FILENAME=hmdb_intermediate.mgf
SEQ=*..*
IONMODE=Positive
ORGANISM=HMDB
NAME=HMDB:HMDB00755-1084 Hydroxyphenyllactic acid M+H
PI=HMDB
DATACOLLECTOR=HMDB
SMILES=OC(CC1=CC=C(O)C=C1)C(O)=O
INCHI=InChI=1S/C9H10O4/c10-7-3-1-6(2-4-7)5-8(11)9(12)13/h1-4,8,10-11H,5H2,(H,12,13)
INCHIAUX=N/A
PUBMED=N/A
SUBMITUSER=mwang87
TAGS=
LIBRARYQUALITY=3
SPECTRUMID=CCMSLIB00000425293
SCANS=265
58.702 52.499 
69.677 18.749 
76.993 94.439 
91.753 53.749 
95.664 100.0 
111.685 34.028 
118.624 23.334 
124.553 18.887 
142.216 29.027 
154.959 26.666 
165.683 43.89 
END IONS

BEGIN IONS
PEPMASS=131.034
CHARGE=1+
MSLEVEL=2
SOURCE_INSTRUMENT=Negative-Quattro_QQQ:10eV
FILENAME=hmdb_intermediate.mgf
SEQ=*..*
IONMODE=Negative
ORGANISM=HMDB
NAME=HMDB:HMDB00622-843 Ethylmalonic acid M-H
PI=HMDB
DATACOLLECTOR=HMDB
SMILES=CCC(C(O)=O)C(O)=O
INCHI=InChI=1S/C5H8O4/c1-2-3(4(6)7)5(8)9/h3H,2H2,1H3,(H,6,7)(H,8,9)
INCHIAUX=N/A
PUBMED=N/A
SUBMITUSER=mwang87
TAGS=
LIBRARYQUALITY=3
SPECTRUMID=CCMSLIB00000425294
SCANS=266
41.673 100.0 
87.374 100.0 
END IONS

BEGIN IONS
PEPMASS=91.0395
CHARGE=1+
MSLEVEL=2
SOURCE_INSTRUMENT=Positive-Quattro_QQQ:10eV
FILENAME=hmdb_intermediate.mgf
SEQ=*..*
IONMODE=Positive
ORGANISM=HMDB
NAME=HMDB:HMDB01051-1403 Glyceraldehyde M+H
PI=HMDB
DATACOLLECTOR=HMDB
SMILES=OCC(O)C=O
INCHI=InChI=1S/C3H6O3/c4-1-3(6)2-5/h1,3,5-6H,2H2
INCHIAUX=N/A
PUBMED=N/A
SUBMITUSER=mwang87
TAGS=
LIBRARYQUALITY=3
SPECTRUMID=CCMSLIB00000425295
SCANS=267
43.277 8.155 
45.252 11.509 
61.117 100.0 
73.086 8.994 
91.02 15.244 
END IONS

BEGIN IONS
PEPMASS=112.04
CHARGE=1+
MSLEVEL=2
SOURCE_INSTRUMENT=Positive-Quattro_QQQ:25eV
FILENAME=hmdb_intermediate.mgf
SEQ=*..*
IONMODE=Positive
ORGANISM=HMDB
NAME=HMDB:HMDB04230-2377 Pyrrole-2-carboxylic acid M+H
PI=HMDB
DATACOLLECTOR=HMDB
SMILES=OC(=O)C1=CC=CN1
INCHI=InChI=1S/C5H5NO2/c7-5(8)4-2-1-3-6-4/h1-3,6H,(H,7,8)
INCHIAUX=N/A
PUBMED=N/A
SUBMITUSER=mwang87
TAGS=
LIBRARYQUALITY=3
SPECTRUMID=CCMSLIB00000425296
SCANS=268
41.157 75.98 
66.007 100.0 
93.642 19.087 
END IONS

BEGIN IONS
PEPMASS=397.405
CHARGE=1+
MSLEVEL=2
SOURCE_INSTRUMENT=Positive-Quattro_QQQ:40eV
FILENAME=hmdb_intermediate.mgf
SEQ=*..*
IONMODE=Positive
ORGANISM=HMDB
NAME=HMDB:HMDB02356-2078 Hexacosanoic acid M+H
PI=HMDB
DATACOLLECTOR=HMDB
SMILES=CCCCCCCCCCCCCCCCCCCCCCCCCC(O)=O
INCHI=InChI=1S/C26H52O2/c1-2-3-4-5-6-7-8-9-10-11-12-13-14-15-16-17-18-19-20-21-22-23-24-25-26(27)28/h2-25H2,1H3,(H,27,28)
INCHIAUX=N/A
PUBMED=N/A
SUBMITUSER=mwang87
TAGS=
LIBRARYQUALITY=3
SPECTRUMID=CCMSLIB00000425297
SCANS=269
82.51 71.566 
252.19 100.0 
310.57 75.02 
END IONS

BEGIN IONS
PEPMASS=159.139
CHARGE=1+
MSLEVEL=2
SOURCE_INSTRUMENT=Positive-Quattro_QQQ:10eV
FILENAME=hmdb_intermediate.mgf
SEQ=*..*
IONMODE=Positive
ORGANISM=HMDB
NAME=HMDB:HMDB00798-1135 Oenanthic ether M+H
PI=HMDB
DATACOLLECTOR=HMDB
SMILES=CCCCCCC(=O)OCC
INCHI=InChI=1S/C9H18O2/c1-3-5-6-7-8-9(10)11-4-2/h3-8H2,1-2H3
INCHIAUX=N/A
PUBMED=N/A
SUBMITUSER=mwang87
TAGS=
LIBRARYQUALITY=3
SPECTRUMID=CCMSLIB00000425298
SCANS=270
80.0 100.0 
END IONS

BEGIN IONS
PEPMASS=331.227
CHARGE=1+
MSLEVEL=2
SOURCE_INSTRUMENT=Positive-Quattro_QQQ:40eV
FILENAME=hmdb_intermediate.mgf
SEQ=*..*
IONMODE=Positive
ORGANISM=HMDB
NAME=HMDB:HMDB00016-30 Deoxycorticosterone M+H
PI=HMDB
DATACOLLECTOR=HMDB
SMILES=[H][C@@]12CC[C@H](C(=O)CO)[C@@]1(C)CC[C@@]1([H])[C@@]2([H])CCC2=CC(=O)CC[C@]12C
INCHI=InChI=1S/C21H30O3/c1-20-9-7-14(23)11-13(20)3-4-15-16-5-6-18(19(24)12-22)21(16,2)10-8-17(15)20/h11,15-18,22H,3-10,12H2,1-2H3/t15-,16-,17-,18+,20-,21-/m0/s1
INCHIAUX=N/A
PUBMED=N/A
SUBMITUSER=mwang87
TAGS=
LIBRARYQUALITY=3
SPECTRUMID=CCMSLIB00000425299
SCANS=271
43.555 7.12 
55.432 5.978 
67.35 8.043 
79.285 29.348 
91.229 9.946 
97.226 100.0 
109.173 93.913 
123.165 9.402 
131.059 3.804 
145.109 3.166 
END IONS

BEGIN IONS
PEPMASS=155.009
CHARGE=1+
MSLEVEL=2
SOURCE_INSTRUMENT=Negative-Quattro_QQQ:25eV
FILENAME=hmdb_intermediate.mgf
SEQ=*..*
IONMODE=Negative
ORGANISM=HMDB
NAME=HMDB:HMDB00226-374 Orotic acid M-H
PI=HMDB
DATACOLLECTOR=HMDB
SMILES=OC(=O)C1=CC(=O)NC(=O)N1
INCHI=InChI=1S/C5H4N2O4/c8-3-1-2(4(9)10)6-5(11)7-3/h1H,(H,9,10)(H2,6,7,8,11)
INCHIAUX=N/A
PUBMED=N/A
SUBMITUSER=mwang87
TAGS=
LIBRARYQUALITY=3
SPECTRUMID=CCMSLIB00000425300
SCANS=272
42.31 100.0 
67.144 8.996 
110.928 51.515 
END IONS

BEGIN IONS
PEPMASS=211.082
CHARGE=1+
MSLEVEL=2
SOURCE_INSTRUMENT=Positive-Quattro_QQQ:10eV
FILENAME=hmdb_intermediate.mgf
SEQ=*..*
IONMODE=Positive
ORGANISM=HMDB
NAME=HMDB:HMDB03219-2212 Sedoheptulose M+H
PI=HMDB
DATACOLLECTOR=HMDB
SMILES=OCC(O)C(O)C(O)C(O)C(=O)CO
INCHI=InChI=1S/C7H14O7/c8-1-3(10)5(12)7(14)6(13)4(11)2-9/h3,5-10,12-14H,1-2H2
INCHIAUX=N/A
PUBMED=N/A
SUBMITUSER=mwang87
TAGS=
LIBRARYQUALITY=3
SPECTRUMID=CCMSLIB00000425301
SCANS=273
84.0 6.856 
115.0 7.418 
140.0 8.876 
160.0 7.39 
170.0 20.128 
193.0 4.848 
202.0 8.562 
211.0 100.0 
230.0 8.098 
END IONS

BEGIN IONS
PEPMASS=313.217
CHARGE=1+
MSLEVEL=2
SOURCE_INSTRUMENT=Positive-Quattro_QQQ:10eV
FILENAME=hmdb_intermediate.mgf
SEQ=*..*
IONMODE=Positive
ORGANISM=HMDB
NAME=HMDB:HMDB00995-1384 16-Dehydroprogesterone M+H
PI=HMDB
DATACOLLECTOR=HMDB
SMILES=[H][C@@]12CC=C(C(C)=O)[C@@]1(C)CC[C@@]1([H])[C@@]2([H])CCC2=CC(=O)CC[C@]12C
INCHI=InChI=1S/C21H28O2/c1-13(22)17-6-7-18-16-5-4-14-12-15(23)8-10-20(14,2)19(16)9-11-21(17,18)3/h6,12,16,18-19H,4-5,7-11H2,1-3H3/t16-,18-,19-,20-,21+/m0/s1
INCHIAUX=N/A
PUBMED=N/A
SUBMITUSER=mwang87
TAGS=
LIBRARYQUALITY=3
SPECTRUMID=CCMSLIB00000425302
SCANS=274
97.07 9.221 
109.031 6.762 
205.037 2.075 
217.047 2.587 
253.041 1.614 
271.128 1.383 
295.176 3.023 
313.258 100.0 
END IONS

BEGIN IONS
PEPMASS=173.154
CHARGE=1+
MSLEVEL=2
SOURCE_INSTRUMENT=Positive-Quattro_QQQ:40eV
FILENAME=hmdb_intermediate.mgf
SEQ=*..*
IONMODE=Positive
ORGANISM=HMDB
NAME=HMDB:HMDB00511-736 Capric acid M+H
PI=HMDB
DATACOLLECTOR=HMDB
SMILES=CCCCCCCCCC(O)=O
INCHI=InChI=1S/C10H20O2/c1-2-3-4-5-6-7-8-9-10(11)12/h2-9H2,1H3,(H,11,12)
INCHIAUX=N/A
PUBMED=N/A
SUBMITUSER=mwang87
TAGS=
LIBRARYQUALITY=3
SPECTRUMID=CCMSLIB00000425303
SCANS=275
72.0 8.2892420697 
83.04 32.8042334221 
97.08 52.6161134922 
110.04 17.1075835009 
124.08 10.8171666383 
125.1 100.0 
END IONS

BEGIN IONS
PEPMASS=203.224
CHARGE=1+
MSLEVEL=2
SOURCE_INSTRUMENT=Positive-Quattro_QQQ:40eV
FILENAME=hmdb_intermediate.mgf
SEQ=*..*
IONMODE=Positive
ORGANISM=HMDB
NAME=HMDB:HMDB01256-1489 Spermine M+H
PI=HMDB
DATACOLLECTOR=HMDB
SMILES=NCCCNCCCCNCCCN
INCHI=InChI=1S/C10H26N4/c11-5-3-9-13-7-1-2-8-14-10-4-6-12/h13-14H,1-12H2
INCHIAUX=N/A
PUBMED=N/A
SUBMITUSER=mwang87
TAGS=
LIBRARYQUALITY=3
SPECTRUMID=CCMSLIB00000425304
SCANS=276
58.119 20.322 
69.709 12.56 
84.414 100.0 
84.663 71.026 
111.831 17.768 
END IONS

BEGIN IONS
PEPMASS=288.217
CHARGE=1+
MSLEVEL=2
SOURCE_INSTRUMENT=Positive-Quattro_QQQ:40eV
FILENAME=hmdb_intermediate.mgf
SEQ=*..*
IONMODE=Positive
ORGANISM=HMDB
NAME=HMDB:HMDB00791-1128 L-Octanoylcarnitine M+H
PI=HMDB
DATACOLLECTOR=HMDB
SMILES=CCCCCCCC(=O)O[C@H](CC([O-])=O)C[N+](C)(C)C
INCHI=InChI=1S/C15H29NO4/c1-5-6-7-8-9-10-15(19)20-13(11-14(17)18)12-16(2,3)4/h13H,5-12H2,1-4H3/t13-/m1/s1
INCHIAUX=N/A
PUBMED=N/A
SUBMITUSER=mwang87
TAGS=
LIBRARYQUALITY=3
SPECTRUMID=CCMSLIB00000425305
SCANS=277
57.486 33.202 
85.22 100.0 
END IONS

BEGIN IONS
PEPMASS=308.111
CHARGE=1+
MSLEVEL=2
SOURCE_INSTRUMENT=Positive-Quattro_QQQ:40eV
FILENAME=hmdb_intermediate.mgf
SEQ=*..*
IONMODE=Positive
ORGANISM=HMDB
NAME=HMDB:HMDB05005-2438 Tolnaftate M+H
PI=HMDB
DATACOLLECTOR=HMDB
SMILES=CN(C(=S)OC1=CC2=CC=CC=C2C=C1)C1=CC=CC(C)=C1
INCHI=InChI=1S/C19H17NOS/c1-14-6-5-9-17(12-14)20(2)19(22)21-18-11-10-15-7-3-4-8-16(15)13-18/h3-13H,1-2H3
INCHIAUX=N/A
PUBMED=N/A
SUBMITUSER=mwang87
TAGS=
LIBRARYQUALITY=3
SPECTRUMID=CCMSLIB00000425306
SCANS=278
64.0 5.165 
78.0 5.132 
90.0 100.0 
119.0 69.931 
147.0 13.918 
END IONS

BEGIN IONS
PEPMASS=109.065
CHARGE=1+
MSLEVEL=2
SOURCE_INSTRUMENT=Positive-Quattro_QQQ:40eV
FILENAME=hmdb_intermediate.mgf
SEQ=*..*
IONMODE=Positive
ORGANISM=HMDB
NAME=HMDB:HMDB02048-1970 m-Cresol M+H
PI=HMDB
DATACOLLECTOR=HMDB
SMILES=CC1=CC(O)=CC=C1
INCHI=InChI=1S/C7H8O/c1-6-3-2-4-7(8)5-6/h2-5,8H,1H3
INCHIAUX=N/A
PUBMED=N/A
SUBMITUSER=mwang87
TAGS=
LIBRARYQUALITY=3
SPECTRUMID=CCMSLIB00000425307
SCANS=279
39.0 76.808 
51.0 22.405 
55.0 23.465 
65.0 100.0 
77.0 19.736 
94.0 30.141 
END IONS

BEGIN IONS
PEPMASS=185.082
CHARGE=1+
MSLEVEL=2
SOURCE_INSTRUMENT=Positive-Quattro_QQQ:10eV
FILENAME=hmdb_intermediate.mgf
SEQ=*..*
IONMODE=Positive
ORGANISM=HMDB
NAME=HMDB:HMDB01565-1651 Phosphorylcholine M+H
PI=HMDB
DATACOLLECTOR=HMDB
SMILES=C[N+](C)(C)CCOP(O)(O)=O
INCHI=InChI=1S/C5H14NO4P/c1-6(2,3)4-5-10-11(7,8)9/h4-5H2,1-3H3,(H-,7,8,9)/p+1
INCHIAUX=N/A
PUBMED=N/A
SUBMITUSER=mwang87
TAGS=
LIBRARYQUALITY=3
SPECTRUMID=CCMSLIB00000425308
SCANS=280
87.0 9.623 
121.0 13.369 
125.0 3.857 
153.0 13.113 
184.0 6.835 
185.0 100.0 
END IONS

BEGIN IONS
PEPMASS=303.05
CHARGE=1+
MSLEVEL=2
SOURCE_INSTRUMENT=Positive-Quattro_QQQ:10eV
FILENAME=hmdb_intermediate.mgf
SEQ=*..*
IONMODE=Positive
ORGANISM=HMDB
NAME=HMDB:HMDB05794-2445 Quercetin M+H
PI=HMDB
DATACOLLECTOR=HMDB
SMILES=OC1=CC(O)=C2C(OC(=C(O)C2=O)C2=CC(O)=C(O)C=C2)=C1
INCHI=InChI=1S/C15H10O7/c16-7-4-10(19)12-11(5-7)22-15(14(21)13(12)20)6-1-2-8(17)9(18)3-6/h1-5,16-19,21H
INCHIAUX=N/A
PUBMED=N/A
SUBMITUSER=mwang87
TAGS=
LIBRARYQUALITY=3
SPECTRUMID=CCMSLIB00000425309
SCANS=281
302.0 100.0 
END IONS

BEGIN IONS
PEPMASS=122.061
CHARGE=1+
MSLEVEL=2
SOURCE_INSTRUMENT=Positive-Quattro_QQQ:10eV
FILENAME=hmdb_intermediate.mgf
SEQ=*..*
IONMODE=Positive
ORGANISM=HMDB
NAME=HMDB:HMDB04461-2388 Benzamide M+H
PI=HMDB
DATACOLLECTOR=HMDB
SMILES=NC(=O)C1=CC=CC=C1
INCHI=InChI=1S/C7H7NO/c8-7(9)6-4-2-1-3-5-6/h1-5H,(H2,8,9)
INCHIAUX=N/A
PUBMED=N/A
SUBMITUSER=mwang87
TAGS=
LIBRARYQUALITY=3
SPECTRUMID=CCMSLIB00000425310
SCANS=282
78.95 50.827 
104.86 34.031 
121.86 100.0 
END IONS

BEGIN IONS
PEPMASS=165.076
CHARGE=1+
MSLEVEL=2
SOURCE_INSTRUMENT=Positive-Quattro_QQQ:10eV
FILENAME=hmdb_intermediate.mgf
SEQ=*..*
IONMODE=Positive
ORGANISM=HMDB
NAME=HMDB:HMDB00174-274 L-Fucose M+H
PI=HMDB
DATACOLLECTOR=HMDB
SMILES=C[C@@H]1OC(O)[C@@H](O)[C@H](O)[C@@H]1O
INCHI=InChI=1S/C6H12O5/c1-2-3(7)4(8)5(9)6(10)11-2/h2-10H,1H3/t2-,3+,4+,5-,6?/m0/s1
INCHIAUX=N/A
PUBMED=N/A
SUBMITUSER=mwang87
TAGS=
LIBRARYQUALITY=3
SPECTRUMID=CCMSLIB00000425311
SCANS=283
43.0 16.498 
75.0 31.593 
101.0 100.0 
123.0 60.747 
133.0 36.504 
137.0 18.807 
147.0 29.748 
164.0 21.619 
165.0 91.781 
END IONS

BEGIN IONS
PEPMASS=227.067
CHARGE=1+
MSLEVEL=2
SOURCE_INSTRUMENT=Positive-Quattro_QQQ:25eV
FILENAME=hmdb_intermediate.mgf
SEQ=*..*
IONMODE=Positive
ORGANISM=HMDB
NAME=HMDB:HMDB01904-1823 3-Nitrotyrosine M+H
PI=HMDB
DATACOLLECTOR=HMDB
SMILES=N[C@@H](CC1=CC(=C(O)C=C1)[N+]([O-])=O)C(O)=O
INCHI=InChI=1S/C9H10N2O5/c10-6(9(13)14)3-5-1-2-8(12)7(4-5)11(15)16/h1-2,4,6,12H,3,10H2,(H,13,14)/t6-/m0/s1
INCHIAUX=N/A
PUBMED=N/A
SUBMITUSER=mwang87
TAGS=
LIBRARYQUALITY=3
SPECTRUMID=CCMSLIB00000425312
SCANS=284
64.0 26.601 
65.0 22.635 
78.0 23.141 
89.0 75.33 
104.0 30.342 
105.0 78.678 
116.0 100.0 
132.0 43.981 
135.0 36.813 
163.0 12.609 
167.0 19.584 
180.0 79.992 
END IONS

BEGIN IONS
PEPMASS=786.601
CHARGE=1+
MSLEVEL=2
SOURCE_INSTRUMENT=Positive-Quattro_QQQ:10eV
FILENAME=hmdb_intermediate.mgf
SEQ=*..*
IONMODE=Positive
ORGANISM=HMDB
NAME=HMDB:HMDB00593-819 PC(18:1(9Z)/18:1(9Z))  M+H
PI=HMDB
DATACOLLECTOR=HMDB
SMILES=CCCCCCCC\C=C/CCCCCCCC(=O)OCC(COP([O-])(=O)OCC[N+](C)(C)C)OC(=O)CCCCCCC\C=C/CCCCCCCC
INCHI=InChI=1S/C44H84NO8P/c1-6-8-10-12-14-16-18-20-22-24-26-28-30-32-34-36-43(46)50-40-42(41-52-54(48,49)51-39-38-45(3,4)5)53-44(47)37-35-33-31-29-27-25-23-21-19-17-15-13-11-9-7-2/h20-23,42H,6-19,24-41H2,1-5H3/b22-20-,23-21-
INCHIAUX=N/A
PUBMED=N/A
SUBMITUSER=mwang87
TAGS=
LIBRARYQUALITY=3
SPECTRUMID=CCMSLIB00000425313
SCANS=285
183.0 14.968 
786.0 100.0 
END IONS

BEGIN IONS
PEPMASS=168.03
CHARGE=1+
MSLEVEL=2
SOURCE_INSTRUMENT=Positive-Quattro_QQQ:10eV
FILENAME=hmdb_intermediate.mgf
SEQ=*..*
IONMODE=Positive
ORGANISM=HMDB
NAME=HMDB:HMDB00232-388 Quinolinic acid M+H
PI=HMDB
DATACOLLECTOR=HMDB
SMILES=OC(=O)C1=CC=CN=C1C(O)=O
INCHI=InChI=1S/C7H5NO4/c9-6(10)4-2-1-3-8-5(4)7(11)12/h1-3H,(H,9,10)(H,11,12)
INCHIAUX=N/A
PUBMED=N/A
SUBMITUSER=mwang87
TAGS=
LIBRARYQUALITY=3
SPECTRUMID=CCMSLIB00000425314
SCANS=286
78.112 7.34 
106.032 21.948 
124.013 40.698 
149.951 100.0 
167.934 16.86 
END IONS

BEGIN IONS
PEPMASS=145.05
CHARGE=1+
MSLEVEL=2
SOURCE_INSTRUMENT=Positive-Quattro_QQQ:40eV
FILENAME=hmdb_intermediate.mgf
SEQ=*..*
IONMODE=Positive
ORGANISM=HMDB
NAME=HMDB:HMDB00393-602 3-Hexenedioic acid M+H
PI=HMDB
DATACOLLECTOR=HMDB
SMILES=OC(=O)C\C=C\CC(O)=O
INCHI=InChI=1S/C6H8O4/c7-5(8)3-1-2-4-6(9)10/h1-2H,3-4H2,(H,7,8)(H,9,10)/b2-1+
INCHIAUX=N/A
PUBMED=N/A
SUBMITUSER=mwang87
TAGS=
LIBRARYQUALITY=3
SPECTRUMID=CCMSLIB00000425315
SCANS=287
57.0 100.0 
81.0 4.837983967 
104.1 37.6687660213 
END IONS

BEGIN IONS
PEPMASS=260.165
CHARGE=1+
MSLEVEL=2
SOURCE_INSTRUMENT=Positive-Quattro_QQQ:25eV
FILENAME=hmdb_intermediate.mgf
SEQ=*..*
IONMODE=Positive
ORGANISM=HMDB
NAME=HMDB:HMDB01849-1709 Propranolol M+H
PI=HMDB
DATACOLLECTOR=HMDB
SMILES=CC(C)NCC(O)COC1=CC=CC2=CC=CC=C12
INCHI=InChI=1S/C16H21NO2/c1-12(2)17-10-14(18)11-19-16-9-5-7-13-6-3-4-8-15(13)16/h3-9,12,14,17-18H,10-11H2,1-2H3
INCHIAUX=N/A
PUBMED=N/A
SUBMITUSER=mwang87
TAGS=
LIBRARYQUALITY=3
SPECTRUMID=CCMSLIB00000425316
SCANS=288
56.199 100.0 
74.093 98.17 
74.59 54.136 
98.202 42.553 
116.097 12.791 
155.494 12.013 
END IONS

BEGIN IONS
PEPMASS=181.071
CHARGE=1+
MSLEVEL=2
SOURCE_INSTRUMENT=Positive-Quattro_QQQ:40eV
FILENAME=hmdb_intermediate.mgf
SEQ=*..*
IONMODE=Positive
ORGANISM=HMDB
NAME=HMDB:HMDB06088-2471 Scyllitol M+H
PI=HMDB
DATACOLLECTOR=HMDB
SMILES=O[C@H]1[C@H](O)[C@@H](O)[C@@H](O)[C@@H](O)[C@H]1O
INCHI=InChI=1S/C6H12O6/c7-1-2(8)4(10)6(12)5(11)3(1)9/h1-12H/t1-,2-,3-,4+,5-,6+
INCHIAUX=N/A
PUBMED=N/A
SUBMITUSER=mwang87
TAGS=
LIBRARYQUALITY=3
SPECTRUMID=CCMSLIB00000425317
SCANS=289
55.0 100.0 
98.8 84.074 
END IONS

BEGIN IONS
PEPMASS=61.0653
CHARGE=1+
MSLEVEL=2
SOURCE_INSTRUMENT=Positive-Quattro_QQQ:40eV
FILENAME=hmdb_intermediate.mgf
SEQ=*..*
IONMODE=Positive
ORGANISM=HMDB
NAME=HMDB:HMDB00820-1169 Propyl alcohol M+H
PI=HMDB
DATACOLLECTOR=HMDB
SMILES=CCCO
INCHI=InChI=1S/C3H8O/c1-2-3-4/h4H,2-3H2,1H3
INCHIAUX=N/A
PUBMED=N/A
SUBMITUSER=mwang87
TAGS=
LIBRARYQUALITY=3
SPECTRUMID=CCMSLIB00000425318
SCANS=290
15.0 51.943 
43.0 40.796 
45.0 34.508 
60.0 100.0 
END IONS

BEGIN IONS
PEPMASS=232.155
CHARGE=1+
MSLEVEL=2
SOURCE_INSTRUMENT=Positive-Quattro_QQQ:40eV
FILENAME=hmdb_intermediate.mgf
SEQ=*..*
IONMODE=Positive
ORGANISM=HMDB
NAME=HMDB:HMDB00736-1046 Isobutyryl-L-carnitine M+H
PI=HMDB
DATACOLLECTOR=HMDB
SMILES=CC(C)C(=O)OC(CC([O-])=O)C[N+](C)(C)C
INCHI=InChI=1S/C11H21NO4/c1-8(2)11(15)16-9(6-10(13)14)7-12(3,4)5/h8-9H,6-7H2,1-5H3
INCHIAUX=N/A
PUBMED=N/A
SUBMITUSER=mwang87
TAGS=
LIBRARYQUALITY=3
SPECTRUMID=CCMSLIB00000425319
SCANS=291
56.0 16.946 
84.0 100.0 
END IONS

BEGIN IONS
PEPMASS=181.071
CHARGE=1+
MSLEVEL=2
SOURCE_INSTRUMENT=Positive-Quattro_QQQ:25eV
FILENAME=hmdb_intermediate.mgf
SEQ=*..*
IONMODE=Positive
ORGANISM=HMDB
NAME=HMDB:HMDB00169-270 D-Mannose M+H
PI=HMDB
DATACOLLECTOR=HMDB
SMILES=OC[C@H]1OC(O)[C@@H](O)[C@@H](O)[C@@H]1O
INCHI=InChI=1S/C6H12O6/c7-1-2-3(8)4(9)5(10)6(11)12-2/h2-11H,1H2/t2-,3-,4+,5+,6?/m1/s1
INCHIAUX=N/A
PUBMED=N/A
SUBMITUSER=mwang87
TAGS=
LIBRARYQUALITY=3
SPECTRUMID=CCMSLIB00000425320
SCANS=292
43.338 19.175 
45.274 18.204 
57.188 39.563 
69.133 65.049 
81.171 17.718 
85.059 100.0 
98.925 24.272 
133.061 9.891 
END IONS

BEGIN IONS
PEPMASS=169.05
CHARGE=1+
MSLEVEL=2
SOURCE_INSTRUMENT=Positive-Quattro_QQQ:40eV
FILENAME=hmdb_intermediate.mgf
SEQ=*..*
IONMODE=Positive
ORGANISM=HMDB
NAME=HMDB:HMDB01868-1755 5-Methoxysalicylic acid M+H
PI=HMDB
DATACOLLECTOR=HMDB
SMILES=COC1=CC(C(O)=O)=C(O)C=C1
INCHI=InChI=1S/C8H8O4/c1-12-5-2-3-7(9)6(4-5)8(10)11/h2-4,9H,1H3,(H,10,11)
INCHIAUX=N/A
PUBMED=N/A
SUBMITUSER=mwang87
TAGS=
LIBRARYQUALITY=3
SPECTRUMID=CCMSLIB00000425321
SCANS=293
41.071 46.897 
52.724 56.46 
54.729 16.174 
65.505 100.0 
79.79 52.697 
91.82 62.26 
95.078 32.959 
108.236 19.633 
123.399 16.174 
125.154 19.329 
151.095 20.548 
END IONS

BEGIN IONS
PEPMASS=246.171
CHARGE=1+
MSLEVEL=2
SOURCE_INSTRUMENT=Positive-Quattro_QQQ:25eV
FILENAME=hmdb_intermediate.mgf
SEQ=*..*
IONMODE=Positive
ORGANISM=HMDB
NAME=HMDB:HMDB00378-592 2-Methylbutyroylcarnitine M+H
PI=HMDB
DATACOLLECTOR=HMDB
SMILES=CCC(C)C(=O)OC(CC([O-])=O)C[N+](C)(C)C
INCHI=InChI=1S/C12H23NO4/c1-6-9(2)12(16)17-10(7-11(14)15)8-13(3,4)5/h9-10H,6-8H2,1-5H3
INCHIAUX=N/A
PUBMED=N/A
SUBMITUSER=mwang87
TAGS=
LIBRARYQUALITY=3
SPECTRUMID=CCMSLIB00000425322
SCANS=294
57.54 24.706 
85.249 100.0 
144.198 3.039 
END IONS

BEGIN IONS
PEPMASS=163.076
CHARGE=1+
MSLEVEL=2
SOURCE_INSTRUMENT=Negative-Quattro_QQQ:40eV
FILENAME=hmdb_intermediate.mgf
SEQ=*..*
IONMODE=Negative
ORGANISM=HMDB
NAME=HMDB:HMDB00543-763 Benzenebutanoic acid M-H
PI=HMDB
DATACOLLECTOR=HMDB
SMILES=OC(=O)CCCC1=CC=CC=C1
INCHI=InChI=1S/C10H12O2/c11-10(12)8-4-7-9-5-2-1-3-6-9/h1-3,5-6H,4,7-8H2,(H,11,12)
INCHIAUX=N/A
PUBMED=N/A
SUBMITUSER=mwang87
TAGS=
LIBRARYQUALITY=3
SPECTRUMID=CCMSLIB00000425323
SCANS=295
41.651 31.086 
59.461 37.007 
91.291 100.0 
163.243 13.158 
END IONS

BEGIN IONS
PEPMASS=170.045
CHARGE=1+
MSLEVEL=2
SOURCE_INSTRUMENT=Positive-Quattro_QQQ:40eV
FILENAME=hmdb_intermediate.mgf
SEQ=*..*
IONMODE=Positive
ORGANISM=HMDB
NAME=HMDB:HMDB00439-640 2-Furoylglycine M+H
PI=HMDB
DATACOLLECTOR=HMDB
SMILES=OC(=O)CNC(=O)C1=CC=CO1
INCHI=InChI=1S/C7H7NO4/c9-6(10)4-8-7(11)5-2-1-3-12-5/h1-3H,4H2,(H,8,11)(H,9,10)
INCHIAUX=N/A
PUBMED=N/A
SUBMITUSER=mwang87
TAGS=
LIBRARYQUALITY=3
SPECTRUMID=CCMSLIB00000425324
SCANS=296
67.143 19.417 
95.008 100.0 
END IONS

BEGIN IONS
PEPMASS=169.05
CHARGE=1+
MSLEVEL=2
SOURCE_INSTRUMENT=Positive-Quattro_QQQ:40eV
FILENAME=hmdb_intermediate.mgf
SEQ=*..*
IONMODE=Positive
ORGANISM=HMDB
NAME=HMDB:HMDB00130-199 Homogentisic acid M+H
PI=HMDB
DATACOLLECTOR=HMDB
SMILES=OC(=O)CC1=C(O)C=CC(O)=C1
INCHI=InChI=1S/C8H8O4/c9-6-1-2-7(10)5(3-6)4-8(11)12/h1-3,9-10H,4H2,(H,11,12)
INCHIAUX=N/A
PUBMED=N/A
SUBMITUSER=mwang87
TAGS=
LIBRARYQUALITY=3
SPECTRUMID=CCMSLIB00000425325
SCANS=297
41.0 74.227 
51.0 22.259 
55.0 63.634 
67.0 100.0 
77.0 49.933 
95.0 28.877 
123.0 32.61 
END IONS

BEGIN IONS
PEPMASS=120.066
CHARGE=1+
MSLEVEL=2
SOURCE_INSTRUMENT=Positive-Quattro_QQQ:10eV
FILENAME=hmdb_intermediate.mgf
SEQ=*..*
IONMODE=Positive
ORGANISM=HMDB
NAME=HMDB:HMDB00719-1008 L-Homoserine M+H
PI=HMDB
DATACOLLECTOR=HMDB
SMILES=N[C@@H](CCO)C(O)=O
INCHI=InChI=1S/C4H9NO3/c5-3(1-2-6)4(7)8/h3,6H,1-2,5H2,(H,7,8)/t3-/m0/s1
INCHIAUX=N/A
PUBMED=N/A
SUBMITUSER=mwang87
TAGS=
LIBRARYQUALITY=3
SPECTRUMID=CCMSLIB00000425326
SCANS=298
44.321 2.559 
56.222 8.366 
74.125 100.0 
102.044 6.299 
119.99 27.559 
END IONS

BEGIN IONS
PEPMASS=159.041
CHARGE=1+
MSLEVEL=2
SOURCE_INSTRUMENT=Positive-Quattro_QQQ:10eV
FILENAME=hmdb_intermediate.mgf
SEQ=*..*
IONMODE=Positive
ORGANISM=HMDB
NAME=HMDB:HMDB00528-746 4,5-Dihydroorotic acid M+H
PI=HMDB
DATACOLLECTOR=HMDB
SMILES=OC(=O)C1CC(=O)NC(=O)N1
INCHI=InChI=1S/C5H6N2O4/c8-3-1-2(4(9)10)6-5(11)7-3/h2H,1H2,(H,9,10)(H2,6,7,8,11)
INCHIAUX=N/A
PUBMED=N/A
SUBMITUSER=mwang87
TAGS=
LIBRARYQUALITY=3
SPECTRUMID=CCMSLIB00000425327
SCANS=299
61.195 7.244 
74.109 51.989 
87.194 89.773 
98.921 9.091 
113.068 58.807 
116.043 24.432 
130.995 18.182 
141.161 11.79 
158.948 100.0 
END IONS

BEGIN IONS
PEPMASS=133.05
CHARGE=1+
MSLEVEL=2
SOURCE_INSTRUMENT=Positive-Quattro_QQQ:25eV
FILENAME=hmdb_intermediate.mgf
SEQ=*..*
IONMODE=Positive
ORGANISM=HMDB
NAME=HMDB:HMDB02001-1936 Dimethylmalonic acid M+H
PI=HMDB
DATACOLLECTOR=HMDB
SMILES=CC(C)(C(O)=O)C(O)=O
INCHI=InChI=1S/C5H8O4/c1-5(2,3(6)7)4(8)9/h1-2H3,(H,6,7)(H,8,9)
INCHIAUX=N/A
PUBMED=N/A
SUBMITUSER=mwang87
TAGS=
LIBRARYQUALITY=3
SPECTRUMID=CCMSLIB00000425328
SCANS=300
63.0 15.2 
69.0 45.043 
87.0 100.0 
100.0 4.66 
115.0 8.044 
133.0 3.937 
END IONS

BEGIN IONS
PEPMASS=151.04
CHARGE=1+
MSLEVEL=2
SOURCE_INSTRUMENT=Negative-Quattro_QQQ:40eV
FILENAME=hmdb_intermediate.mgf
SEQ=*..*
IONMODE=Negative
ORGANISM=HMDB
NAME=HMDB:HMDB00020-35 p-Hydroxyphenylacetic acid M-H
PI=HMDB
DATACOLLECTOR=HMDB
SMILES=OC(=O)CC1=CC=C(O)C=C1
INCHI=InChI=1S/C8H8O3/c9-7-3-1-6(2-4-7)5-8(10)11/h1-4,9H,5H2,(H,10,11)
INCHIAUX=N/A
PUBMED=N/A
SUBMITUSER=mwang87
TAGS=
LIBRARYQUALITY=3
SPECTRUMID=CCMSLIB00000425329
SCANS=301
45.566 54.464 
58.468 9.226 
65.458 33.333 
77.389 95.238 
93.298 100.0 
107.44 62.5 
151.279 50.893 
END IONS

BEGIN IONS
PEPMASS=101.06
CHARGE=1+
MSLEVEL=2
SOURCE_INSTRUMENT=Positive-Quattro_QQQ:25eV
FILENAME=hmdb_intermediate.mgf
SEQ=*..*
IONMODE=Positive
ORGANISM=HMDB
NAME=HMDB:HMDB01862-1742 2-Ethylacrylic acid M+H
PI=HMDB
DATACOLLECTOR=HMDB
SMILES=CCC(=C)C(O)=O
INCHI=InChI=1S/C5H8O2/c1-3-4(2)5(6)7/h2-3H2,1H3,(H,6,7)
INCHIAUX=N/A
PUBMED=N/A
SUBMITUSER=mwang87
TAGS=
LIBRARYQUALITY=3
SPECTRUMID=CCMSLIB00000425330
SCANS=302
44.0 68.316 
54.0 100.0 
55.0 59.667 
END IONS

BEGIN IONS
PEPMASS=201.984
CHARGE=1+
MSLEVEL=2
SOURCE_INSTRUMENT=Positive-Quattro_QQQ:25eV
FILENAME=hmdb_intermediate.mgf
SEQ=*..*
IONMODE=Positive
ORGANISM=HMDB
NAME=HMDB:HMDB00731-1030 Cysteine-S-sulfate M+H
PI=HMDB
DATACOLLECTOR=HMDB
SMILES=N[C@@H](CSS(O)(=O)=O)C(O)=O
INCHI=InChI=1S/C3H7NO5S2/c4-2(3(5)6)1-10-11(7,8)9/h2H,1,4H2,(H,5,6)(H,7,8,9)/t2-/m0/s1
INCHIAUX=N/A
PUBMED=N/A
SUBMITUSER=mwang87
TAGS=
LIBRARYQUALITY=3
SPECTRUMID=CCMSLIB00000425331
SCANS=303
48.0 3.39 
55.0 3.429 
74.0 100.0 
76.0 5.42 
92.0 4.86 
120.0 23.269 
END IONS

BEGIN IONS
PEPMASS=186.017
CHARGE=1+
MSLEVEL=2
SOURCE_INSTRUMENT=Positive-Quattro_QQQ:25eV
FILENAME=hmdb_intermediate.mgf
SEQ=*..*
IONMODE=Positive
ORGANISM=HMDB
NAME=HMDB:HMDB00272-476 Phosphoserine M+H
PI=HMDB
DATACOLLECTOR=HMDB
SMILES=N[C@@H](COP(O)(O)=O)C(O)=O
INCHI=InChI=1S/C3H8NO6P/c4-2(3(5)6)1-10-11(7,8)9/h2H,1,4H2,(H,5,6)(H2,7,8,9)/t2-/m0/s1
INCHIAUX=N/A
PUBMED=N/A
SUBMITUSER=mwang87
TAGS=
LIBRARYQUALITY=3
SPECTRUMID=CCMSLIB00000425332
SCANS=304
42.662 46.875 
70.37 100.0 
88.282 64.423 
END IONS

BEGIN IONS
PEPMASS=198.077
CHARGE=1+
MSLEVEL=2
SOURCE_INSTRUMENT=Positive-Quattro_QQQ:25eV
FILENAME=hmdb_intermediate.mgf
SEQ=*..*
IONMODE=Positive
ORGANISM=HMDB
NAME=HMDB:HMDB00609-826 DL-Dopa M+H
PI=HMDB
DATACOLLECTOR=HMDB
SMILES=NC(CC1=CC=C(O)C(O)=C1)C(O)=O
INCHI=InChI=1S/C9H11NO4/c10-6(9(13)14)3-5-1-2-7(11)8(12)4-5/h1-2,4,6,11-12H,3,10H2,(H,13,14)
INCHIAUX=N/A
PUBMED=N/A
SUBMITUSER=mwang87
TAGS=
LIBRARYQUALITY=3
SPECTRUMID=CCMSLIB00000425333
SCANS=305
65.125 7.066 
79.074 14.302 
93.015 43.694 
106.825 100.0 
134.118 14.865 
134.813 40.541 
151.904 27.928 
END IONS

BEGIN IONS
PEPMASS=112.051
CHARGE=1+
MSLEVEL=2
SOURCE_INSTRUMENT=Positive-Quattro_QQQ:10eV
FILENAME=hmdb_intermediate.mgf
SEQ=*..*
IONMODE=Positive
ORGANISM=HMDB
NAME=HMDB:HMDB00630-858 Cytosine M+H
PI=HMDB
DATACOLLECTOR=HMDB
SMILES=NC1=CC=NC(=O)N1
INCHI=InChI=1S/C4H5N3O/c5-3-1-2-6-4(8)7-3/h1-2H,(H3,5,6,7,8)
INCHIAUX=N/A
PUBMED=N/A
SUBMITUSER=mwang87
TAGS=
LIBRARYQUALITY=3
SPECTRUMID=CCMSLIB00000425334
SCANS=306
69.063 3.505 
94.764 12.255 
111.968 100.0 
END IONS

BEGIN IONS
PEPMASS=156.077
CHARGE=1+
MSLEVEL=2
SOURCE_INSTRUMENT=Positive-Quattro_QQQ:25eV
FILENAME=hmdb_intermediate.mgf
SEQ=*..*
IONMODE=Positive
ORGANISM=HMDB
NAME=HMDB:HMDB00177-284 L-Histidine M+H
PI=HMDB
DATACOLLECTOR=HMDB
SMILES=N[C@@H](CC1=CNC=N1)C(O)=O
INCHI=InChI=1S/C6H9N3O2/c7-5(6(10)11)1-4-2-8-3-9-4/h2-3,5H,1,7H2,(H,8,9)(H,10,11)/t5-/m0/s1
INCHIAUX=N/A
PUBMED=N/A
SUBMITUSER=mwang87
TAGS=
LIBRARYQUALITY=3
SPECTRUMID=CCMSLIB00000425335
SCANS=307
56.148 12.983 
68.121 6.813 
82.654 100.0 
93.012 38.627 
95.018 8.906 
109.959 68.24 
END IONS

BEGIN IONS
PEPMASS=133.065
CHARGE=1+
MSLEVEL=2
SOURCE_INSTRUMENT=Positive-Quattro_QQQ:10eV
FILENAME=hmdb_intermediate.mgf
SEQ=*..*
IONMODE=Positive
ORGANISM=HMDB
NAME=HMDB:HMDB03441-2310 Cinnamaldehyde M+H
PI=HMDB
DATACOLLECTOR=HMDB
SMILES=O=C\C=C\C1=CC=CC=C1
INCHI=InChI=1S/C9H8O/c10-8-4-7-9-5-2-1-3-6-9/h1-8H/b7-4+
INCHIAUX=N/A
PUBMED=N/A
SUBMITUSER=mwang87
TAGS=
LIBRARYQUALITY=3
SPECTRUMID=CCMSLIB00000425336
SCANS=308
55.0 91.084 
91.0 7.104 
105.0 15.157 
115.0 50.796 
133.0 100.0 
END IONS

BEGIN IONS
PEPMASS=103.04
CHARGE=1+
MSLEVEL=2
SOURCE_INSTRUMENT=Negative-Quattro_QQQ:40eV
FILENAME=hmdb_intermediate.mgf
SEQ=*..*
IONMODE=Negative
ORGANISM=HMDB
NAME=HMDB:HMDB00023-44 (S)-3-Hydroxyisobutyric acid M-H
PI=HMDB
DATACOLLECTOR=HMDB
SMILES=C[C@@H](CO)C(O)=O
INCHI=InChI=1S/C4H8O3/c1-3(2-5)4(6)7/h3,5H,2H2,1H3,(H,6,7)/t3-/m0/s1
INCHIAUX=N/A
PUBMED=N/A
SUBMITUSER=mwang87
TAGS=
LIBRARYQUALITY=3
SPECTRUMID=CCMSLIB00000425337
SCANS=309
41.609 52.941 
45.442 100.0 
57.392 88.235 
103.225 92.437 
END IONS

BEGIN IONS
PEPMASS=183.066
CHARGE=1+
MSLEVEL=2
SOURCE_INSTRUMENT=Positive-Quattro_QQQ:10eV
FILENAME=hmdb_intermediate.mgf
SEQ=*..*
IONMODE=Positive
ORGANISM=HMDB
NAME=HMDB:HMDB00755-1083 Hydroxyphenyllactic acid M+H
PI=HMDB
DATACOLLECTOR=HMDB
SMILES=OC(CC1=CC=C(O)C=C1)C(O)=O
INCHI=InChI=1S/C9H10O4/c10-7-3-1-6(2-4-7)5-8(11)9(12)13/h1-4,8,10-11H,5H2,(H,12,13)
INCHIAUX=N/A
PUBMED=N/A
SUBMITUSER=mwang87
TAGS=
LIBRARYQUALITY=3
SPECTRUMID=CCMSLIB00000425338
SCANS=310
59.333 34.246 
72.704 18.182 
83.048 12.795 
85.067 21.646 
97.682 36.075 
111.938 11.641 
119.129 32.324 
125.563 22.27 
137.043 53.101 
146.758 27.995 
164.295 11.256 
168.08 45.502 
182.716 100.0 
END IONS

BEGIN IONS
PEPMASS=205.098
CHARGE=1+
MSLEVEL=2
SOURCE_INSTRUMENT=Positive-Quattro_QQQ:25eV
FILENAME=hmdb_intermediate.mgf
SEQ=*..*
IONMODE=Positive
ORGANISM=HMDB
NAME=HMDB:HMDB00929-1322 L-Tryptophan M+H
PI=HMDB
DATACOLLECTOR=HMDB
SMILES=N[C@@H](CC1=CNC2=CC=CC=C12)C(O)=O
INCHI=InChI=1S/C11H12N2O2/c12-9(11(14)15)5-7-6-13-10-4-2-1-3-8(7)10/h1-4,6,9,13H,5,12H2,(H,14,15)/t9-/m0/s1
INCHIAUX=N/A
PUBMED=N/A
SUBMITUSER=mwang87
TAGS=
LIBRARYQUALITY=3
SPECTRUMID=CCMSLIB00000425339
SCANS=311
74.051 5.136 
91.029 8.527 
117.837 100.0 
131.953 18.798 
143.243 19.574 
145.913 60.465 
158.921 8.479 
169.892 7.364 
187.657 6.347 
END IONS

BEGIN IONS
PEPMASS=163.061
CHARGE=1+
MSLEVEL=2
SOURCE_INSTRUMENT=Positive-Quattro_QQQ:25eV
FILENAME=hmdb_intermediate.mgf
SEQ=*..*
IONMODE=Positive
ORGANISM=HMDB
NAME=HMDB:HMDB00345-556 3-Hydroxyadipic acid M+H
PI=HMDB
DATACOLLECTOR=HMDB
SMILES=OC(CCC(O)=O)CC(O)=O
INCHI=InChI=1S/C6H10O5/c7-4(3-6(10)11)1-2-5(8)9/h4,7H,1-3H2,(H,8,9)(H,10,11)
INCHIAUX=N/A
PUBMED=N/A
SUBMITUSER=mwang87
TAGS=
LIBRARYQUALITY=3
SPECTRUMID=CCMSLIB00000425340
SCANS=312
60.0 19.594 
84.0 6.678 
102.0 100.0 
144.0 41.114 
145.0 10.597 
END IONS

BEGIN IONS
PEPMASS=291.232
CHARGE=1+
MSLEVEL=2
SOURCE_INSTRUMENT=Positive-Quattro_QQQ:40eV
FILENAME=hmdb_intermediate.mgf
SEQ=*..*
IONMODE=Positive
ORGANISM=HMDB
NAME=HMDB:HMDB00365-584 Epiandrosterone M+H
PI=HMDB
DATACOLLECTOR=HMDB
SMILES=[H][C@@]12CCC(=O)[C@@]1(C)CC[C@@]1([H])[C@@]2([H])CCC2C[C@@H](O)CC[C@]12C
INCHI=InChI=1S/C19H30O2/c1-18-9-7-13(20)11-12(18)3-4-14-15-5-6-17(21)19(15,2)10-8-16(14)18/h12-16,20H,3-11H2,1-2H3/t12?,13-,14-,15-,16-,18-,19-/m0/s1
INCHIAUX=N/A
PUBMED=N/A
SUBMITUSER=mwang87
TAGS=
LIBRARYQUALITY=3
SPECTRUMID=CCMSLIB00000425341
SCANS=313
55.449 63.415 
67.405 73.659 
79.176 46.829 
91.065 100.0 
95.268 17.683 
105.148 54.634 
119.396 20.732 
133.015 20.0 
135.035 14.146 
158.869 22.561 
END IONS

BEGIN IONS
PEPMASS=177.103
CHARGE=1+
MSLEVEL=2
SOURCE_INSTRUMENT=Positive-Quattro_QQQ:40eV
FILENAME=hmdb_intermediate.mgf
SEQ=*..*
IONMODE=Positive
ORGANISM=HMDB
NAME=HMDB:HMDB00259-453 Serotonin M+H
PI=HMDB
DATACOLLECTOR=HMDB
SMILES=NCCC1=CNC2=CC=C(O)C=C12
INCHI=InChI=1S/C10H12N2O/c11-4-3-7-6-12-10-2-1-8(13)5-9(7)10/h1-2,5-6,12-13H,3-4,11H2
INCHIAUX=N/A
PUBMED=N/A
SUBMITUSER=mwang87
TAGS=
LIBRARYQUALITY=3
SPECTRUMID=CCMSLIB00000425342
SCANS=314
65.175 21.847 
77.136 65.766 
89.128 37.162 
103.095 26.577 
105.094 28.829 
114.979 100.0 
130.095 35.811 
142.431 8.896 
159.281 13.514 
END IONS

BEGIN IONS
PEPMASS=147.126
CHARGE=1+
MSLEVEL=2
SOURCE_INSTRUMENT=Positive-Quattro_QQQ:25eV
FILENAME=hmdb_intermediate.mgf
SEQ=*..*
IONMODE=Positive
ORGANISM=HMDB
NAME=HMDB:HMDB00895-1263 Acetylcholine  M+H
PI=HMDB
DATACOLLECTOR=HMDB
SMILES=CC(=O)OCC[N+](C)(C)C
INCHI=InChI=1S/C7H16NO2/c1-7(9)10-6-5-8(2,3)4/h5-6H2,1-4H3/q+1
INCHIAUX=N/A
PUBMED=N/A
SUBMITUSER=mwang87
TAGS=
LIBRARYQUALITY=3
SPECTRUMID=CCMSLIB00000425343
SCANS=315
43.0 63.227 
87.0 100.0 
147.0 6.98 
END IONS

BEGIN IONS
PEPMASS=133.098
CHARGE=1+
MSLEVEL=2
SOURCE_INSTRUMENT=Positive-Quattro_QQQ:10eV
FILENAME=hmdb_intermediate.mgf
SEQ=*..*
IONMODE=Positive
ORGANISM=HMDB
NAME=HMDB:HMDB00214-349 Ornithine M+H
PI=HMDB
DATACOLLECTOR=HMDB
SMILES=NCCC[C@H](N)C(O)=O
INCHI=InChI=1S/C5H12N2O2/c6-3-1-2-4(7)5(8)9/h4H,1-3,6-7H2,(H,8,9)/t4-/m0/s1
INCHIAUX=N/A
PUBMED=N/A
SUBMITUSER=mwang87
TAGS=
LIBRARYQUALITY=3
SPECTRUMID=CCMSLIB00000425344
SCANS=316
70.133 83.495 
115.811 100.0 
132.962 17.961 
END IONS

BEGIN IONS
PEPMASS=266.967
CHARGE=1+
MSLEVEL=2
SOURCE_INSTRUMENT=Positive-Quattro_QQQ:40eV
FILENAME=hmdb_intermediate.mgf
SEQ=*..*
IONMODE=Positive
ORGANISM=HMDB
NAME=HMDB:HMDB01294-1506 2,3-Diphosphoglyceric acid M+H
PI=HMDB
DATACOLLECTOR=HMDB
SMILES=OC(=O)[C@@H](COP(O)(O)=O)OP(O)(O)=O
INCHI=InChI=1S/C3H8O10P2/c4-3(5)2(13-15(9,10)11)1-12-14(6,7)8/h2H,1H2,(H,4,5)(H2,6,7,8)(H2,9,10,11)/t2-/m1/s1
INCHIAUX=N/A
PUBMED=N/A
SUBMITUSER=mwang87
TAGS=
LIBRARYQUALITY=3
SPECTRUMID=CCMSLIB00000425345
SCANS=317
64.0 5.339 
65.0 71.281 
81.0 42.729 
94.0 7.906 
99.0 92.26 
123.0 100.0 
141.0 9.933 
END IONS

BEGIN IONS
PEPMASS=132.102
CHARGE=1+
MSLEVEL=2
SOURCE_INSTRUMENT=Positive-Quattro_QQQ:40eV
FILENAME=hmdb_intermediate.mgf
SEQ=*..*
IONMODE=Positive
ORGANISM=HMDB
NAME=HMDB:HMDB00687-953 L-Leucine M+H
PI=HMDB
DATACOLLECTOR=HMDB
SMILES=CC(C)C[C@H](N)C(O)=O
INCHI=InChI=1S/C6H13NO2/c1-4(2)3-5(7)6(8)9/h4-5H,3,7H2,1-2H3,(H,8,9)/t5-/m0/s1
INCHIAUX=N/A
PUBMED=N/A
SUBMITUSER=mwang87
TAGS=
LIBRARYQUALITY=3
SPECTRUMID=CCMSLIB00000425346
SCANS=318
43.318 100.0 
55.204 14.453 
85.97 24.063 
132.025 6.641 
END IONS

BEGIN IONS
PEPMASS=153.055
CHARGE=1+
MSLEVEL=2
SOURCE_INSTRUMENT=Positive-Quattro_QQQ:10eV
FILENAME=hmdb_intermediate.mgf
SEQ=*..*
IONMODE=Positive
ORGANISM=HMDB
NAME=HMDB:HMDB02390-2092 3-Cresotinic acid M+H
PI=HMDB
DATACOLLECTOR=HMDB
SMILES=CC1=C(O)C(=CC=C1)C(O)=O
INCHI=InChI=1S/C8H8O3/c1-5-3-2-4-6(7(5)9)8(10)11/h2-4,9H,1H3,(H,10,11)
INCHIAUX=N/A
PUBMED=N/A
SUBMITUSER=mwang87
TAGS=
LIBRARYQUALITY=3
SPECTRUMID=CCMSLIB00000425347
SCANS=319
79.0 2.312 
135.0 100.0 
153.0 32.507 
END IONS

BEGIN IONS
PEPMASS=667.23
CHARGE=1+
MSLEVEL=2
SOURCE_INSTRUMENT=Positive-Quattro_QQQ:25eV
FILENAME=hmdb_intermediate.mgf
SEQ=*..*
IONMODE=Positive
ORGANISM=HMDB
NAME=HMDB:HMDB03553-2329 Stachyose M+H
PI=HMDB
DATACOLLECTOR=HMDB
SMILES=OC[C@H]1O[C@@](CO)(O[C@H]2O[C@H](CO[C@H]3O[C@H](CO[C@H]4O[C@H](CO)[C@H](O)[C@H](O)[C@H]4O)[C@H](O)[C@H](O)[C@H]3O)[C@@H](O)[C@H](O)[C@H]2O)[C@@H](O)[C@@H]1O
INCHI=InChI=1S/C24H42O21/c25-1-6-10(28)14(32)17(35)21(41-6)39-3-8-11(29)15(33)18(36)22(42-8)40-4-9-12(30)16(34)19(37)23(43-9)45-24(5-27)20(38)13(31)7(2-26)44-24/h6-23,25-38H,1-5H2/t6-,7-,8-,9-,10+,11+,12-,13-,14+,15+,16+,17-,18-,19-,20+,21+,22+,23-,24+/m1/s1
INCHIAUX=N/A
PUBMED=N/A
SUBMITUSER=mwang87
TAGS=
LIBRARYQUALITY=3
SPECTRUMID=CCMSLIB00000425348
SCANS=320
88.0 18.086 
100.0 14.492 
118.0 9.617 
142.0 7.867 
160.0 10.767 
178.0 59.45 
220.0 6.93 
250.0 9.332 
280.0 9.002 
340.0 21.782 
383.0 50.3 
442.0 7.83 
484.0 10.981 
485.0 16.09 
664.0 35.534 
665.0 100.0 
END IONS

BEGIN IONS
PEPMASS=129.066
CHARGE=1+
MSLEVEL=2
SOURCE_INSTRUMENT=Positive-Quattro_QQQ:10eV
FILENAME=hmdb_intermediate.mgf
SEQ=*..*
IONMODE=Positive
ORGANISM=HMDB
NAME=HMDB:HMDB00079-129 Dihydrothymine M+H
PI=HMDB
DATACOLLECTOR=HMDB
SMILES=CC1CNC(=O)NC1=O
INCHI=InChI=1S/C5H8N2O2/c1-3-2-6-5(9)7-4(3)8/h3H,2H2,1H3,(H2,6,7,8,9)
INCHIAUX=N/A
PUBMED=N/A
SUBMITUSER=mwang87
TAGS=
LIBRARYQUALITY=3
SPECTRUMID=CCMSLIB00000425349
SCANS=321
58.225 5.243 
69.132 37.248 
84.099 26.174 
86.137 41.779 
112.012 28.691 
129.01 100.0 
END IONS

BEGIN IONS
PEPMASS=72.9926
CHARGE=1+
MSLEVEL=2
SOURCE_INSTRUMENT=Negative-Quattro_QQQ:25eV
FILENAME=hmdb_intermediate.mgf
SEQ=*..*
IONMODE=Negative
ORGANISM=HMDB
NAME=HMDB:HMDB00119-172 Glyoxylic acid M-H
PI=HMDB
DATACOLLECTOR=HMDB
SMILES=OC(=O)C=O
INCHI=InChI=1S/C2H2O3/c3-1-2(4)5/h1H,(H,4,5)
INCHIAUX=N/A
PUBMED=N/A
SUBMITUSER=mwang87
TAGS=
LIBRARYQUALITY=3
SPECTRUMID=CCMSLIB00000425350
SCANS=322
32.433 12.591 
45.119 13.869 
72.829 100.0 
END IONS

BEGIN IONS
PEPMASS=428.374
CHARGE=1+
MSLEVEL=2
SOURCE_INSTRUMENT=Positive-Quattro_QQQ:25eV
FILENAME=hmdb_intermediate.mgf
SEQ=*..*
IONMODE=Positive
ORGANISM=HMDB
NAME=HMDB:HMDB00848-1197 Stearoylcarnitine M+H
PI=HMDB
DATACOLLECTOR=HMDB
SMILES=CCCCCCCCCCCCCCCCCC(=O)OC(CC([O-])=O)C[N+](C)(C)C
INCHI=InChI=1S/C25H49NO4/c1-5-6-7-8-9-10-11-12-13-14-15-16-17-18-19-20-25(29)30-23(21-24(27)28)22-26(2,3)4/h23H,5-22H2,1-4H3
INCHIAUX=N/A
PUBMED=N/A
SUBMITUSER=mwang87
TAGS=
LIBRARYQUALITY=3
SPECTRUMID=CCMSLIB00000425351
SCANS=323
60.0 18.206 
84.0 14.784 
85.0 100.0 
END IONS

BEGIN IONS
PEPMASS=171.029
CHARGE=1+
MSLEVEL=2
SOURCE_INSTRUMENT=Positive-Quattro_QQQ:25eV
FILENAME=hmdb_intermediate.mgf
SEQ=*..*
IONMODE=Positive
ORGANISM=HMDB
NAME=HMDB:HMDB05807-2455 Gallic acid M+H
PI=HMDB
DATACOLLECTOR=HMDB
SMILES=OC(=O)C1=CC(O)=C(O)C(O)=C1
INCHI=InChI=1S/C7H6O5/c8-4-1-3(7(11)12)2-5(9)6(4)10/h1-2,8-10H,(H,11,12)
INCHIAUX=N/A
PUBMED=N/A
SUBMITUSER=mwang87
TAGS=
LIBRARYQUALITY=3
SPECTRUMID=CCMSLIB00000425352
SCANS=324
53.0 22.776 
55.0 12.822 
69.0 11.165 
81.0 100.0 
97.0 10.12 
107.0 65.614 
125.0 22.922 
153.0 11.0 
END IONS

BEGIN IONS
PEPMASS=271.061
CHARGE=1+
MSLEVEL=2
SOURCE_INSTRUMENT=Negative-Quattro_QQQ:10eV
FILENAME=hmdb_intermediate.mgf
SEQ=*..*
IONMODE=Negative
ORGANISM=HMDB
NAME=HMDB:HMDB02670-2122 Naringenin M-H
PI=HMDB
DATACOLLECTOR=HMDB
SMILES=OC1=CC=C(C=C1)[C@@H]1CC(=O)C2=C(O)C=C(O)C=C2O1
INCHI=InChI=1S/C15H12O5/c16-9-3-1-8(2-4-9)13-7-12(19)15-11(18)5-10(17)6-14(15)20-13/h1-6,13,16-18H,7H2/t13-/m0/s1
INCHIAUX=N/A
PUBMED=N/A
SUBMITUSER=mwang87
TAGS=
LIBRARYQUALITY=3
SPECTRUMID=CCMSLIB00000425353
SCANS=325
92.0 3.145 
118.0 2.419 
150.0 8.985 
176.0 3.133 
271.0 100.0 
END IONS

BEGIN IONS
PEPMASS=151.061
CHARGE=1+
MSLEVEL=2
SOURCE_INSTRUMENT=Positive-Quattro_QQQ:40eV
FILENAME=hmdb_intermediate.mgf
SEQ=*..*
IONMODE=Positive
ORGANISM=HMDB
NAME=HMDB:HMDB00621-842 D-Ribulose M+H
PI=HMDB
DATACOLLECTOR=HMDB
SMILES=OC[C@@H](O)[C@@H](O)C(=O)CO
INCHI=InChI=1S/C5H10O5/c6-1-3(8)5(10)4(9)2-7/h3,5-8,10H,1-2H2/t3-,5-/m1/s1
INCHIAUX=N/A
PUBMED=N/A
SUBMITUSER=mwang87
TAGS=
LIBRARYQUALITY=3
SPECTRUMID=CCMSLIB00000425354
SCANS=326
55.5 11.4893620077 
72.9 62.553193153 
82.0 48.0851071299 
97.9 23.8297889316 
114.0 100.0 
122.9 71.0638343368 
END IONS

BEGIN IONS
PEPMASS=287.201
CHARGE=1+
MSLEVEL=2
SOURCE_INSTRUMENT=Positive-Quattro_QQQ:25eV
FILENAME=hmdb_intermediate.mgf
SEQ=*..*
IONMODE=Positive
ORGANISM=HMDB
NAME=HMDB:HMDB00053-85 Androstenedione M+H
PI=HMDB
DATACOLLECTOR=HMDB
SMILES=[H][C@@]12CCC(=O)[C@@]1(C)CC[C@@]1([H])[C@@]2([H])CCC2=CC(=O)CC[C@]12C
INCHI=InChI=1S/C19H26O2/c1-18-9-7-13(20)11-12(18)3-4-14-15-5-6-17(21)19(15,2)10-8-16(14)18/h11,14-16H,3-10H2,1-2H3/t14-,15-,16-,18-,19-/m0/s1
INCHIAUX=N/A
PUBMED=N/A
SUBMITUSER=mwang87
TAGS=
LIBRARYQUALITY=3
SPECTRUMID=CCMSLIB00000425355
SCANS=327
82.0 4.304 
96.0 100.0 
108.0 62.68 
122.0 5.648 
132.0 2.383 
144.0 2.841 
172.0 2.622 
228.0 4.378 
END IONS

BEGIN IONS
PEPMASS=215.128
CHARGE=1+
MSLEVEL=2
SOURCE_INSTRUMENT=Negative-Quattro_QQQ:10eV
FILENAME=hmdb_intermediate.mgf
SEQ=*..*
IONMODE=Negative
ORGANISM=HMDB
NAME=HMDB:HMDB00888-1250 Undecanedioic acid M-H
PI=HMDB
DATACOLLECTOR=HMDB
SMILES=OC(=O)CCCCCCCCCC(O)=O
INCHI=InChI=1S/C11H20O4/c12-10(13)8-6-4-2-1-3-5-7-9-11(14)15/h1-9H2,(H,12,13)(H,14,15)
INCHIAUX=N/A
PUBMED=N/A
SUBMITUSER=mwang87
TAGS=
LIBRARYQUALITY=3
SPECTRUMID=CCMSLIB00000425356
SCANS=328
153.237 5.24 
197.192 21.538 
215.199 100.0 
END IONS

BEGIN IONS
PEPMASS=105.115
CHARGE=1+
MSLEVEL=2
SOURCE_INSTRUMENT=Positive-Quattro_QQQ:10eV
FILENAME=hmdb_intermediate.mgf
SEQ=*..*
IONMODE=Positive
ORGANISM=HMDB
NAME=HMDB:HMDB00097-150 Choline M+H
PI=HMDB
DATACOLLECTOR=HMDB
SMILES=C[N+](C)(C)CCO
INCHI=InChI=1S/C5H14NO/c1-6(2,3)4-5-7/h7H,4-5H2,1-3H3/q+1
INCHIAUX=N/A
PUBMED=N/A
SUBMITUSER=mwang87
TAGS=
LIBRARYQUALITY=3
SPECTRUMID=CCMSLIB00000425357
SCANS=329
105.1 100.0 
END IONS

BEGIN IONS
PEPMASS=257.175
CHARGE=1+
MSLEVEL=2
SOURCE_INSTRUMENT=Negative-Quattro_QQQ:25eV
FILENAME=hmdb_intermediate.mgf
SEQ=*..*
IONMODE=Negative
ORGANISM=HMDB
NAME=HMDB:HMDB00872-1230 Tetradecanedioic acid M-H
PI=HMDB
DATACOLLECTOR=HMDB
SMILES=OC(=O)CCCCCCCCCCCCC(O)=O
INCHI=InChI=1S/C14H26O4/c15-13(16)11-9-7-5-3-1-2-4-6-8-10-12-14(17)18/h1-12H2,(H,15,16)(H,17,18)
INCHIAUX=N/A
PUBMED=N/A
SUBMITUSER=mwang87
TAGS=
LIBRARYQUALITY=3
SPECTRUMID=CCMSLIB00000425358
SCANS=330
57.173 9.282 
69.108 1.702 
83.066 1.856 
193.082 3.96 
195.073 60.149 
213.082 1.655 
239.042 100.0 
257.013 13.119 
END IONS

BEGIN IONS
PEPMASS=167.107
CHARGE=1+
MSLEVEL=2
SOURCE_INSTRUMENT=Positive-Quattro_QQQ:10eV
FILENAME=hmdb_intermediate.mgf
SEQ=*..*
IONMODE=Positive
ORGANISM=HMDB
NAME=HMDB:HMDB04586-2397 Perillic acid M+H
PI=HMDB
DATACOLLECTOR=HMDB
SMILES=CC(=C)C1CCC(=CC1)C(O)=O
INCHI=InChI=1S/C10H14O2/c1-7(2)8-3-5-9(6-4-8)10(11)12/h5,8H,1,3-4,6H2,2H3,(H,11,12)
INCHIAUX=N/A
PUBMED=N/A
SUBMITUSER=mwang87
TAGS=
LIBRARYQUALITY=3
SPECTRUMID=CCMSLIB00000425359
SCANS=331
67.0 19.6163510608 
81.0 30.5442582183 
93.0 28.6221278139 
95.0 14.2113307256 
111.0 58.8633007797 
121.0 100.0 
125.0 38.3985700593 
139.0 15.8834805585 
149.0 29.6764500168 
END IONS

BEGIN IONS
PEPMASS=355.103
CHARGE=1+
MSLEVEL=2
SOURCE_INSTRUMENT=Positive-Quattro_QQQ:10eV
FILENAME=hmdb_intermediate.mgf
SEQ=*..*
IONMODE=Positive
ORGANISM=HMDB
NAME=HMDB:HMDB03164-2209 Chlorogenic acid M+H
PI=HMDB
DATACOLLECTOR=HMDB
SMILES=O[C@@H]1C[C@](O)(C[C@@H](OC(=O)\C=C\C2=CC(O)=C(O)C=C2)[C@@H]1O)C(O)=O
INCHI=InChI=1S/C16H18O9/c17-9-3-1-8(5-10(9)18)2-4-13(20)25-12-7-16(24,15(22)23)6-11(19)14(12)21/h1-5,11-12,14,17-19,21,24H,6-7H2,(H,22,23)/b4-2+/t11-,12-,14-,16+/m1/s1
INCHIAUX=N/A
PUBMED=N/A
SUBMITUSER=mwang87
TAGS=
LIBRARYQUALITY=3
SPECTRUMID=CCMSLIB00000425360
SCANS=332
163.0 100.0 
355.0 4.447 
END IONS

BEGIN IONS
PEPMASS=147.113
CHARGE=1+
MSLEVEL=2
SOURCE_INSTRUMENT=Positive-Quattro_QQQ:40eV
FILENAME=hmdb_intermediate.mgf
SEQ=*..*
IONMODE=Positive
ORGANISM=HMDB
NAME=HMDB:HMDB00182-291 L-Lysine M+H
PI=HMDB
DATACOLLECTOR=HMDB
SMILES=NCCCC[C@H](N)C(O)=O
INCHI=InChI=1S/C6H14N2O2/c7-4-2-1-3-5(8)6(9)10/h5H,1-4,7-8H2,(H,9,10)/t5-/m0/s1
INCHIAUX=N/A
PUBMED=N/A
SUBMITUSER=mwang87
TAGS=
LIBRARYQUALITY=3
SPECTRUMID=CCMSLIB00000425361
SCANS=333
41.363 21.579 
56.082 100.0 
67.187 19.737 
84.093 62.368 
END IONS

BEGIN IONS
PEPMASS=161.045
CHARGE=1+
MSLEVEL=2
SOURCE_INSTRUMENT=Positive-Quattro_QQQ:10eV
FILENAME=hmdb_intermediate.mgf
SEQ=*..*
IONMODE=Positive
ORGANISM=HMDB
NAME=HMDB:HMDB00398-606 3-Oxoadipic acid M+H
PI=HMDB
DATACOLLECTOR=HMDB
SMILES=OC(=O)CCC(=O)CC(O)=O
INCHI=InChI=1S/C6H8O5/c7-4(3-6(10)11)1-2-5(8)9/h1-3H2,(H,8,9)(H,10,11)
INCHIAUX=N/A
PUBMED=N/A
SUBMITUSER=mwang87
TAGS=
LIBRARYQUALITY=3
SPECTRUMID=CCMSLIB00000425362
SCANS=334
142.84 7.442 
160.84 100.0 
END IONS

BEGIN IONS
PEPMASS=367.358
CHARGE=1+
MSLEVEL=2
SOURCE_INSTRUMENT=Positive-Quattro_QQQ:40eV
FILENAME=hmdb_intermediate.mgf
SEQ=*..*
IONMODE=Positive
ORGANISM=HMDB
NAME=HMDB:HMDB02368-2088 Nervonic acid M+H
PI=HMDB
DATACOLLECTOR=HMDB
SMILES=CCCCCCCC\C=C/CCCCCCCCCCCCCC(O)=O
INCHI=InChI=1S/C24H46O2/c1-2-3-4-5-6-7-8-9-10-11-12-13-14-15-16-17-18-19-20-21-22-23-24(25)26/h9-10H,2-8,11-23H2,1H3,(H,25,26)/b10-9-
INCHIAUX=N/A
PUBMED=N/A
SUBMITUSER=mwang87
TAGS=
LIBRARYQUALITY=3
SPECTRUMID=CCMSLIB00000425363
SCANS=335
54.0 51.168 
57.0 85.6 
68.0 100.0 
82.0 59.604 
94.0 39.619 
96.0 29.71 
106.0 18.474 
120.0 11.656 
END IONS

BEGIN IONS
PEPMASS=260.186
CHARGE=1+
MSLEVEL=2
SOURCE_INSTRUMENT=Positive-Quattro_QQQ:10eV
FILENAME=hmdb_intermediate.mgf
SEQ=*..*
IONMODE=Positive
ORGANISM=HMDB
NAME=HMDB:HMDB00756-1086 L-Hexanoylcarnitine M+H
PI=HMDB
DATACOLLECTOR=HMDB
SMILES=CCCCCC(=O)O[C@H](CC([O-])=O)C[N+](C)(C)C
INCHI=InChI=1S/C13H25NO4/c1-5-6-7-8-13(17)18-11(9-12(15)16)10-14(2,3)4/h11H,5-10H2,1-4H3/t11-/m1/s1
INCHIAUX=N/A
PUBMED=N/A
SUBMITUSER=mwang87
TAGS=
LIBRARYQUALITY=3
SPECTRUMID=CCMSLIB00000425364
SCANS=336
60.437 17.549 
85.247 74.118 
99.242 5.221 
144.142 1.863 
201.043 37.647 
260.119 100.0 
END IONS

BEGIN IONS
PEPMASS=167.107
CHARGE=1+
MSLEVEL=2
SOURCE_INSTRUMENT=Positive-Quattro_QQQ:40eV
FILENAME=hmdb_intermediate.mgf
SEQ=*..*
IONMODE=Positive
ORGANISM=HMDB
NAME=HMDB:HMDB04586-2399 Perillic acid M+H
PI=HMDB
DATACOLLECTOR=HMDB
SMILES=CC(=C)C1CCC(=CC1)C(O)=O
INCHI=InChI=1S/C10H14O2/c1-7(2)8-3-5-9(6-4-8)10(11)12/h5,8H,1,3-4,6H2,2H3,(H,11,12)
INCHIAUX=N/A
PUBMED=N/A
SUBMITUSER=mwang87
TAGS=
LIBRARYQUALITY=3
SPECTRUMID=CCMSLIB00000425365
SCANS=337
67.0 19.6163510608 
81.0 30.5442582183 
93.0 28.6221278139 
95.0 14.2113307256 
111.0 58.8633007797 
121.0 100.0 
125.0 38.3985700593 
139.0 15.8834805585 
149.0 29.6764500168 
END IONS

BEGIN IONS
PEPMASS=145.014
CHARGE=1+
MSLEVEL=2
SOURCE_INSTRUMENT=Negative-Quattro_QQQ:10eV
FILENAME=hmdb_intermediate.mgf
SEQ=*..*
IONMODE=Negative
ORGANISM=HMDB
NAME=HMDB:HMDB00208-337 Oxoglutaric acid M-H
PI=HMDB
DATACOLLECTOR=HMDB
SMILES=OC(=O)CCC(=O)C(O)=O
INCHI=InChI=1S/C5H6O5/c6-3(5(9)10)1-2-4(7)8/h1-2H2,(H,7,8)(H,9,10)
INCHIAUX=N/A
PUBMED=N/A
SUBMITUSER=mwang87
TAGS=
LIBRARYQUALITY=3
SPECTRUMID=CCMSLIB00000425366
SCANS=338
57.241 87.059 
73.13 4.926 
101.021 100.0 
144.926 24.412 
END IONS

BEGIN IONS
PEPMASS=431.389
CHARGE=1+
MSLEVEL=2
SOURCE_INSTRUMENT=Positive-Quattro_QQQ:40eV
FILENAME=hmdb_intermediate.mgf
SEQ=*..*
IONMODE=Positive
ORGANISM=HMDB
NAME=HMDB:HMDB01893-1806 Alpha-Tocopherol M+H
PI=HMDB
DATACOLLECTOR=HMDB
SMILES=CC(C)CCC[C@@H](C)CCC[C@@H](C)CCC[C@]1(C)CCC2=C(O1)C(C)=C(C)C(O)=C2C
INCHI=InChI=1S/C29H50O2/c1-20(2)12-9-13-21(3)14-10-15-22(4)16-11-18-29(8)19-17-26-25(7)27(30)23(5)24(6)28(26)31-29/h20-22,30H,9-19H2,1-8H3/t21-,22-,29-/m1/s1
INCHIAUX=N/A
PUBMED=N/A
SUBMITUSER=mwang87
TAGS=
LIBRARYQUALITY=3
SPECTRUMID=CCMSLIB00000425367
SCANS=339
53.124 68.085 
165.796 51.064 
177.58 57.447 
203.359 55.319 
251.974 48.936 
273.951 53.191 
281.195 51.064 
288.807 51.064 
319.995 48.936 
358.921 53.191 
387.903 57.447 
438.87 61.702 
465.522 53.191 
483.946 51.064 
485.543 100.0 
END IONS

BEGIN IONS
PEPMASS=179.056
CHARGE=1+
MSLEVEL=2
SOURCE_INSTRUMENT=Negative-Quattro_QQQ:25eV
FILENAME=hmdb_intermediate.mgf
SEQ=*..*
IONMODE=Negative
ORGANISM=HMDB
NAME=HMDB:HMDB01151-1437 Allose M-H
PI=HMDB
DATACOLLECTOR=HMDB
SMILES=[H][C@@]1(CO)OC(O)[C@@]([H])(O)[C@@]([H])(O)[C@@]1([H])O
INCHI=InChI=1S/C6H12O6/c7-1-2-3(8)4(9)5(10)6(11)12-2/h2-11H,1H2/t2-,3-,4-,5-,6?/m0/s1
INCHIAUX=N/A
PUBMED=N/A
SUBMITUSER=mwang87
TAGS=
LIBRARYQUALITY=3
SPECTRUMID=CCMSLIB00000425368
SCANS=340
43.0 5.613 
59.0 100.0 
71.0 20.688 
89.0 6.515 
END IONS

BEGIN IONS
PEPMASS=267.171
CHARGE=1+
MSLEVEL=2
SOURCE_INSTRUMENT=Positive-Quattro_QQQ:40eV
FILENAME=hmdb_intermediate.mgf
SEQ=*..*
IONMODE=Positive
ORGANISM=HMDB
NAME=HMDB:HMDB01924-1854 Atenolol M+H
PI=HMDB
DATACOLLECTOR=HMDB
SMILES=CC(C)NCC(O)COC1=CC=C(CC(N)=O)C=C1
INCHI=InChI=1S/C14H22N2O3/c1-10(2)16-8-12(17)9-19-13-5-3-11(4-6-13)7-14(15)18/h3-6,10,12,16-17H,7-9H2,1-2H3,(H2,15,18)
INCHIAUX=N/A
PUBMED=N/A
SUBMITUSER=mwang87
TAGS=
LIBRARYQUALITY=3
SPECTRUMID=CCMSLIB00000425369
SCANS=341
56.079 100.0 
74.338 52.094 
74.972 42.049 
90.95 59.304 
102.744 20.869 
106.802 34.348 
115.045 50.507 
133.053 51.262 
144.468 29.968 
145.356 83.541 
162.351 11.619 
178.332 29.25 
END IONS

BEGIN IONS
PEPMASS=409.295
CHARGE=1+
MSLEVEL=2
SOURCE_INSTRUMENT=Positive-Quattro_QQQ:25eV
FILENAME=hmdb_intermediate.mgf
SEQ=*..*
IONMODE=Positive
ORGANISM=HMDB
NAME=HMDB:HMDB00364-580 3a,6a,7b-Trihydroxy-5b-cholanoic acid M+H
PI=HMDB
DATACOLLECTOR=HMDB
SMILES=[H][C@@]12CC[C@H]([C@H](C)CCC(O)=O)[C@@]1(C)CC[C@@]1([H])[C@@]2([H])[C@@H](O)[C@H](O)[C@]2([H])C[C@H](O)CC[C@]12C
INCHI=InChI=1S/C24H40O5/c1-13(4-7-19(26)27)15-5-6-16-20-17(9-11-23(15,16)2)24(3)10-8-14(25)12-18(24)21(28)22(20)29/h13-18,20-22,25,28-29H,4-12H2,1-3H3,(H,26,27)/t13-,14-,15-,16+,17+,18+,20+,21-,22-,23-,24-/m1/s1
INCHIAUX=N/A
PUBMED=N/A
SUBMITUSER=mwang87
TAGS=
LIBRARYQUALITY=3
SPECTRUMID=CCMSLIB00000425370
SCANS=342
81.08 47.114 
98.77 46.091 
104.7 20.768 
120.28 32.753 
135.37 27.359 
145.58 28.522 
158.43 24.609 
173.15 26.009 
180.56 20.091 
190.12 27.709 
199.57 31.073 
206.68 34.88 
221.47 27.842 
226.64 28.372 
235.1 25.975 
247.34 24.752 
256.26 20.618 
274.88 24.279 
287.35 20.999 
317.12 25.815 
326.75 29.72 
344.59 21.788 
356.63 35.447 
367.28 27.182 
409.09 100.0 
END IONS

BEGIN IONS
PEPMASS=523.998
CHARGE=1+
MSLEVEL=2
SOURCE_INSTRUMENT=Positive-Quattro_QQQ:10eV
FILENAME=hmdb_intermediate.mgf
SEQ=*..*
IONMODE=Positive
ORGANISM=HMDB
NAME=HMDB:HMDB01273-1501 Guanosine triphosphate M+H
PI=HMDB
DATACOLLECTOR=HMDB
SMILES=NC1=NC2=C(N=CN2[C@@H]2O[C@H](COP(O)(=O)OP(O)(=O)OP(O)(O)=O)[C@@H](O)[C@H]2O)C(=O)N1
INCHI=InChI=1S/C10H16N5O14P3/c11-10-13-7-4(8(18)14-10)12-2-15(7)9-6(17)5(16)3(27-9)1-26-31(22,23)29-32(24,25)28-30(19,20)21/h2-3,5-6,9,16-17H,1H2,(H,22,23)(H,24,25)(H2,19,20,21)(H3,11,13,14,18)/t3-,5-,6-,9-/m1/s1
INCHIAUX=N/A
PUBMED=N/A
SUBMITUSER=mwang87
TAGS=
LIBRARYQUALITY=3
SPECTRUMID=CCMSLIB00000425371
SCANS=343
445.0 100.0 
524.0 89.728 
END IONS

BEGIN IONS
PEPMASS=313.238
CHARGE=1+
MSLEVEL=2
SOURCE_INSTRUMENT=Negative-Quattro_QQQ:40eV
FILENAME=hmdb_intermediate.mgf
SEQ=*..*
IONMODE=Negative
ORGANISM=HMDB
NAME=HMDB:HMDB00782-1115 Octadecanedioic acid M-H
PI=HMDB
DATACOLLECTOR=HMDB
SMILES=OC(=O)CCCCCCCCCCCCCCCCC(O)=O
INCHI=InChI=1S/C18H34O4/c19-17(20)15-13-11-9-7-5-3-1-2-4-6-8-10-12-14-16-18(21)22/h1-16H2,(H,19,20)(H,21,22)
INCHIAUX=N/A
PUBMED=N/A
SUBMITUSER=mwang87
TAGS=
LIBRARYQUALITY=3
SPECTRUMID=CCMSLIB00000425372
SCANS=344
53.0 3.577 
56.0 84.606 
68.0 17.989 
80.0 100.0 
92.0 4.366 
140.0 4.32 
145.0 3.79 
173.0 3.642 
180.0 3.79 
185.0 4.186 
195.0 3.544 
223.0 5.62 
233.0 5.771 
242.0 3.692 
250.0 21.104 
294.0 13.759 
295.0 11.672 
313.0 27.927 
315.0 3.989 
348.0 3.857 
385.0 3.61 
END IONS

BEGIN IONS
PEPMASS=86.0606
CHARGE=1+
MSLEVEL=2
SOURCE_INSTRUMENT=Positive-Quattro_QQQ:25eV
FILENAME=hmdb_intermediate.mgf
SEQ=*..*
IONMODE=Positive
ORGANISM=HMDB
NAME=HMDB:HMDB02039-1960 2-Pyrrolidinone M+H
PI=HMDB
DATACOLLECTOR=HMDB
SMILES=O=C1CCCN1
INCHI=InChI=1S/C4H7NO/c6-4-2-1-3-5-4/h1-3H2,(H,5,6)
INCHIAUX=N/A
PUBMED=N/A
SUBMITUSER=mwang87
TAGS=
LIBRARYQUALITY=3
SPECTRUMID=CCMSLIB00000425373
SCANS=345
44.0 100.0 
69.0 20.364 
86.0 60.72 
END IONS

BEGIN IONS
PEPMASS=634.219
CHARGE=1+
MSLEVEL=2
SOURCE_INSTRUMENT=Positive-Quattro_QQQ:10eV
FILENAME=hmdb_intermediate.mgf
SEQ=*..*
IONMODE=Positive
ORGANISM=HMDB
NAME=HMDB:HMDB00825-1173 3'-Sialyllactose M+H
PI=HMDB
DATACOLLECTOR=HMDB
SMILES=[H][C@]1(O[C@@](C[C@H](O)[C@H]1NC(C)=O)(O[C@H]1[C@@H](O)[C@@H](CO)O[C@@H](O[C@H]([C@H](O)CO)[C@H](O)[C@@H](O)C=O)[C@@H]1O)C(O)=O)[C@H](O)[C@H](O)CO
INCHI=InChI=1S/C23H39NO19/c1-7(29)24-13-8(30)2-23(22(38)39,42-19(13)15(35)10(32)4-26)43-20-16(36)12(6-28)40-21(17(20)37)41-18(11(33)5-27)14(34)9(31)3-25/h3,8-21,26-28,30-37H,2,4-6H2,1H3,(H,24,29)(H,38,39)/t8-,9-,10+,11+,12+,13+,14+,15+,16-,17+,18+,19+,20-,21-,23-/m0/s1
INCHIAUX=N/A
PUBMED=N/A
SUBMITUSER=mwang87
TAGS=
LIBRARYQUALITY=3
SPECTRUMID=CCMSLIB00000425374
SCANS=346
163.0 6.9287375003 
274.0 20.409245841 
292.0 100.0 
325.0 20.6428748787 
END IONS

BEGIN IONS
PEPMASS=112.051
CHARGE=1+
MSLEVEL=2
SOURCE_INSTRUMENT=Positive-Quattro_QQQ:25eV
FILENAME=hmdb_intermediate.mgf
SEQ=*..*
IONMODE=Positive
ORGANISM=HMDB
NAME=HMDB:HMDB00630-859 Cytosine M+H
PI=HMDB
DATACOLLECTOR=HMDB
SMILES=NC1=CC=NC(=O)N1
INCHI=InChI=1S/C4H5N3O/c5-3-1-2-6-4(8)7-3/h1-2H,(H3,5,6,7,8)
INCHIAUX=N/A
PUBMED=N/A
SUBMITUSER=mwang87
TAGS=
LIBRARYQUALITY=3
SPECTRUMID=CCMSLIB00000425375
SCANS=347
42.335 12.179 
52.207 20.353 
67.174 29.167 
94.835 100.0 
111.851 25.641 
END IONS

BEGIN IONS
PEPMASS=138.092
CHARGE=1+
MSLEVEL=2
SOURCE_INSTRUMENT=Positive-Quattro_QQQ:40eV
FILENAME=hmdb_intermediate.mgf
SEQ=*..*
IONMODE=Positive
ORGANISM=HMDB
NAME=HMDB:HMDB01065-1411 2-Hydroxyphenethylamine M+H
PI=HMDB
DATACOLLECTOR=HMDB
SMILES=NCC(O)C1=CC=CC=C1
INCHI=InChI=1S/C8H11NO/c9-6-8(10)7-4-2-1-3-5-7/h1-5,8,10H,6,9H2
INCHIAUX=N/A
PUBMED=N/A
SUBMITUSER=mwang87
TAGS=
LIBRARYQUALITY=3
SPECTRUMID=CCMSLIB00000425376
SCANS=348
77.1 53.2262943329 
91.08 42.7644065386 
103.08 100.0 
120.06 41.0611595621 
END IONS

BEGIN IONS
PEPMASS=634.219
CHARGE=1+
MSLEVEL=2
SOURCE_INSTRUMENT=Positive-Quattro_QQQ:40eV
FILENAME=hmdb_intermediate.mgf
SEQ=*..*
IONMODE=Positive
ORGANISM=HMDB
NAME=HMDB:HMDB00825-1175 3'-Sialyllactose M+H
PI=HMDB
DATACOLLECTOR=HMDB
SMILES=[H][C@]1(O[C@@](C[C@H](O)[C@H]1NC(C)=O)(O[C@H]1[C@@H](O)[C@@H](CO)O[C@@H](O[C@H]([C@H](O)CO)[C@H](O)[C@@H](O)C=O)[C@@H]1O)C(O)=O)[C@H](O)[C@H](O)CO
INCHI=InChI=1S/C23H39NO19/c1-7(29)24-13-8(30)2-23(22(38)39,42-19(13)15(35)10(32)4-26)43-20-16(36)12(6-28)40-21(17(20)37)41-18(11(33)5-27)14(34)9(31)3-25/h3,8-21,26-28,30-37H,2,4-6H2,1H3,(H,24,29)(H,38,39)/t8-,9-,10+,11+,12+,13+,14+,15+,16-,17+,18+,19+,20-,21-,23-/m0/s1
INCHIAUX=N/A
PUBMED=N/A
SUBMITUSER=mwang87
TAGS=
LIBRARYQUALITY=3
SPECTRUMID=CCMSLIB00000425377
SCANS=349
91.0 33.919 
103.0 15.823 
121.0 47.687 
126.0 10.773 
144.0 15.801 
145.0 24.956 
163.0 67.195 
167.0 88.116 
179.0 34.825 
197.0 51.238 
214.0 15.943 
215.0 21.912 
232.0 11.814 
256.0 13.748 
274.0 100.0 
292.0 23.91 
END IONS

BEGIN IONS
PEPMASS=168.102
CHARGE=1+
MSLEVEL=2
SOURCE_INSTRUMENT=Positive-Quattro_QQQ:40eV
FILENAME=hmdb_intermediate.mgf
SEQ=*..*
IONMODE=Positive
ORGANISM=HMDB
NAME=HMDB:HMDB00022-41 3-Methoxytyramine M+H
PI=HMDB
DATACOLLECTOR=HMDB
SMILES=COC1=C(O)C=CC(CCN)=C1
INCHI=InChI=1S/C9H13NO2/c1-12-9-6-7(4-5-10)2-3-8(9)11/h2-3,6,11H,4-5,10H2,1H3
INCHIAUX=N/A
PUBMED=N/A
SUBMITUSER=mwang87
TAGS=
LIBRARYQUALITY=3
SPECTRUMID=CCMSLIB00000425378
SCANS=350
63.201 3.624 
65.184 100.0 
79.151 30.137 
91.049 83.105 
107.078 8.219 
118.797 4.053 
END IONS

BEGIN IONS
PEPMASS=117.019
CHARGE=1+
MSLEVEL=2
SOURCE_INSTRUMENT=Negative-Quattro_QQQ:10eV
FILENAME=hmdb_intermediate.mgf
SEQ=*..*
IONMODE=Negative
ORGANISM=HMDB
NAME=HMDB:HMDB00202-325 Methylmalonic acid M-H
PI=HMDB
DATACOLLECTOR=HMDB
SMILES=CC(C(O)=O)C(O)=O
INCHI=InChI=1S/C4H6O4/c1-2(3(5)6)4(7)8/h2H,1H3,(H,5,6)(H,7,8)
INCHIAUX=N/A
PUBMED=N/A
SUBMITUSER=mwang87
TAGS=
LIBRARYQUALITY=3
SPECTRUMID=CCMSLIB00000425379
SCANS=351
73.351 100.0 
117.137 7.991 
END IONS

BEGIN IONS
PEPMASS=134.061
CHARGE=1+
MSLEVEL=2
SOURCE_INSTRUMENT=Positive-Quattro_QQQ:10eV
FILENAME=hmdb_intermediate.mgf
SEQ=*..*
IONMODE=Positive
ORGANISM=HMDB
NAME=HMDB:HMDB04094-2358 Indoxyl M+H
PI=HMDB
DATACOLLECTOR=HMDB
SMILES=OC1=CNC2=CC=CC=C12
INCHI=InChI=1S/C8H7NO/c10-8-5-9-7-4-2-1-3-6(7)8/h1-5,9-10H
INCHIAUX=N/A
PUBMED=N/A
SUBMITUSER=mwang87
TAGS=
LIBRARYQUALITY=3
SPECTRUMID=CCMSLIB00000425380
SCANS=352
106.0 8.162 
134.0 100.0 
END IONS

BEGIN IONS
PEPMASS=155.034
CHARGE=1+
MSLEVEL=2
SOURCE_INSTRUMENT=Positive-Quattro_QQQ:40eV
FILENAME=hmdb_intermediate.mgf
SEQ=*..*
IONMODE=Positive
ORGANISM=HMDB
NAME=HMDB:HMDB01856-1725 Protocatechuic acid M+H
PI=HMDB
DATACOLLECTOR=HMDB
SMILES=OC(=O)C1=CC(O)=C(O)C=C1
INCHI=InChI=1S/C7H6O4/c8-5-2-1-4(7(10)11)3-6(5)9/h1-3,8-9H,(H,10,11)
INCHIAUX=N/A
PUBMED=N/A
SUBMITUSER=mwang87
TAGS=
LIBRARYQUALITY=3
SPECTRUMID=CCMSLIB00000425381
SCANS=353
52.919 17.483 
64.213 20.666 
65.217 100.0 
80.903 17.014 
93.453 10.656 
END IONS

BEGIN IONS
PEPMASS=170.093
CHARGE=1+
MSLEVEL=2
SOURCE_INSTRUMENT=Positive-Quattro_QQQ:40eV
FILENAME=hmdb_intermediate.mgf
SEQ=*..*
IONMODE=Positive
ORGANISM=HMDB
NAME=HMDB:HMDB00001-3 1-Methylhistidine M+H
PI=HMDB
DATACOLLECTOR=HMDB
SMILES=CN1C=NC(C[C@H](N)C(O)=O)=C1
INCHI=InChI=1S/C7H11N3O2/c1-10-3-5(9-4-10)2-6(8)7(11)12/h3-4,6H,2,8H2,1H3,(H,11,12)/t6-/m0/s1
INCHIAUX=N/A
PUBMED=N/A
SUBMITUSER=mwang87
TAGS=
LIBRARYQUALITY=3
SPECTRUMID=CCMSLIB00000425382
SCANS=354
68.04 6.1770923134 
83.1 42.2666523176 
93.06 3.8065170409 
96.06 41.391183692 
109.08 25.3599488796 
124.08 100.0 
125.04 6.7118683632 
END IONS

BEGIN IONS
PEPMASS=325.044
CHARGE=1+
MSLEVEL=2
SOURCE_INSTRUMENT=Positive-Quattro_QQQ:40eV
FILENAME=hmdb_intermediate.mgf
SEQ=*..*
IONMODE=Positive
ORGANISM=HMDB
NAME=HMDB:HMDB00288-488 Uridine 5'-monophosphate M+H
PI=HMDB
DATACOLLECTOR=HMDB
SMILES=O[C@H]1[C@@H](O)[C@@H](O[C@@H]1COP(O)(O)=O)N1C=CC(=O)NC1=O
INCHI=InChI=1S/C9H13N2O9P/c12-5-1-2-11(9(15)10-5)8-7(14)6(13)4(20-8)3-19-21(16,17)18/h1-2,4,6-8,13-14H,3H2,(H,10,12,15)(H2,16,17,18)/t4-,6-,7-,8-/m1/s1
INCHIAUX=N/A
PUBMED=N/A
SUBMITUSER=mwang87
TAGS=
LIBRARYQUALITY=3
SPECTRUMID=CCMSLIB00000425383
SCANS=355
113.0 100.0 
120.0 3.451 
138.0 3.203 
148.0 2.311 
155.0 2.017 
167.0 5.237 
204.0 2.927 
220.0 4.025 
END IONS

BEGIN IONS
PEPMASS=117.019
CHARGE=1+
MSLEVEL=2
SOURCE_INSTRUMENT=Negative-Quattro_QQQ:25eV
FILENAME=hmdb_intermediate.mgf
SEQ=*..*
IONMODE=Negative
ORGANISM=HMDB
NAME=HMDB:HMDB00254-440 Succinic acid M-H
PI=HMDB
DATACOLLECTOR=HMDB
SMILES=OC(=O)CCC(O)=O
INCHI=InChI=1S/C4H6O4/c5-3(6)1-2-4(7)8/h1-2H2,(H,5,6)(H,7,8)
INCHIAUX=N/A
PUBMED=N/A
SUBMITUSER=mwang87
TAGS=
LIBRARYQUALITY=3
SPECTRUMID=CCMSLIB00000425384
SCANS=356
55.236 8.446 
73.083 100.0 
99.001 3.252 
116.94 35.36 
END IONS

BEGIN IONS
PEPMASS=431.389
CHARGE=1+
MSLEVEL=2
SOURCE_INSTRUMENT=Positive-Quattro_QQQ:10eV
FILENAME=hmdb_intermediate.mgf
SEQ=*..*
IONMODE=Positive
ORGANISM=HMDB
NAME=HMDB:HMDB01893-1804 Alpha-Tocopherol M+H
PI=HMDB
DATACOLLECTOR=HMDB
SMILES=CC(C)CCC[C@@H](C)CCC[C@@H](C)CCC[C@]1(C)CCC2=C(O1)C(C)=C(C)C(O)=C2C
INCHI=InChI=1S/C29H50O2/c1-20(2)12-9-13-21(3)14-10-15-22(4)16-11-18-29(8)19-17-26-25(7)27(30)23(5)24(6)28(26)31-29/h20-22,30H,9-19H2,1-8H3/t21-,22-,29-/m1/s1
INCHIAUX=N/A
PUBMED=N/A
SUBMITUSER=mwang87
TAGS=
LIBRARYQUALITY=3
SPECTRUMID=CCMSLIB00000425385
SCANS=357
54.474 16.87 
57.788 70.261 
69.569 48.0 
83.56 54.261 
97.183 45.739 
111.666 100.0 
127.499 11.304 
134.987 30.957 
152.293 28.522 
164.2 95.478 
164.691 40.87 
177.58 11.304 
431.869 38.087 
END IONS

BEGIN IONS
PEPMASS=89.0603
CHARGE=1+
MSLEVEL=2
SOURCE_INSTRUMENT=Positive-Quattro_QQQ:10eV
FILENAME=hmdb_intermediate.mgf
SEQ=*..*
IONMODE=Positive
ORGANISM=HMDB
NAME=HMDB:HMDB01873-1762 Isobutyric acid M+H
PI=HMDB
DATACOLLECTOR=HMDB
SMILES=CC(C)C(O)=O
INCHI=InChI=1S/C4H8O2/c1-3(2)4(5)6/h3H,1-2H3,(H,5,6)
INCHIAUX=N/A
PUBMED=N/A
SUBMITUSER=mwang87
TAGS=
LIBRARYQUALITY=3
SPECTRUMID=CCMSLIB00000425386
SCANS=358
58.254 39.001 
71.804 98.54 
89.458 100.0 
END IONS

BEGIN IONS
PEPMASS=255.066
CHARGE=1+
MSLEVEL=2
SOURCE_INSTRUMENT=Positive-Quattro_QQQ:10eV
FILENAME=hmdb_intermediate.mgf
SEQ=*..*
IONMODE=Positive
ORGANISM=HMDB
NAME=HMDB:HMDB03312-2236 Daidzein M+H
PI=HMDB
DATACOLLECTOR=HMDB
SMILES=OC1=CC=C(C=C1)C1=COC2=C(C=CC(O)=C2)C1=O
INCHI=InChI=1S/C15H10O4/c16-10-3-1-9(2-4-10)13-8-19-14-7-11(17)5-6-12(14)15(13)18/h1-8,16-17H
INCHIAUX=N/A
PUBMED=N/A
SUBMITUSER=mwang87
TAGS=
LIBRARYQUALITY=3
SPECTRUMID=CCMSLIB00000425387
SCANS=359
254.889 100.0 
END IONS

BEGIN IONS
PEPMASS=271.17
CHARGE=1+
MSLEVEL=2
SOURCE_INSTRUMENT=Positive-Quattro_QQQ:40eV
FILENAME=hmdb_intermediate.mgf
SEQ=*..*
IONMODE=Positive
ORGANISM=HMDB
NAME=HMDB:HMDB00145-220 Estrone M+H
PI=HMDB
DATACOLLECTOR=HMDB
SMILES=[H][C@@]12CCC(=O)[C@@]1(C)CC[C@]1([H])C3=C(CC[C@@]21[H])C=C(O)C=C3
INCHI=InChI=1S/C18H22O2/c1-18-9-8-14-13-5-3-12(19)10-11(13)2-4-15(14)16(18)6-7-17(18)20/h3,5,10,14-16,19H,2,4,6-9H2,1H3/t14-,15-,16+,18+/m1/s1
INCHIAUX=N/A
PUBMED=N/A
SUBMITUSER=mwang87
TAGS=
LIBRARYQUALITY=3
SPECTRUMID=CCMSLIB00000425388
SCANS=360
41.0 49.135 
55.0 76.223 
69.0 69.615 
81.0 74.281 
91.0 93.79 
95.0 55.745 
105.0 100.0 
119.0 83.393 
131.0 52.334 
143.0 38.198 
145.0 48.71 
159.0 33.939 
213.0 25.689 
END IONS

BEGIN IONS
PEPMASS=190.072
CHARGE=1+
MSLEVEL=2
SOURCE_INSTRUMENT=Positive-Quattro_QQQ:40eV
FILENAME=hmdb_intermediate.mgf
SEQ=*..*
IONMODE=Positive
ORGANISM=HMDB
NAME=HMDB:HMDB00590-815 Glutarylglycine M+H
PI=HMDB
DATACOLLECTOR=HMDB
SMILES=OC(=O)CCCC(=O)NCC(O)=O
INCHI=InChI=1S/C7H11NO5/c9-5(8-4-7(12)13)2-1-3-6(10)11/h1-4H2,(H,8,9)(H,10,11)(H,12,13)
INCHIAUX=N/A
PUBMED=N/A
SUBMITUSER=mwang87
TAGS=
LIBRARYQUALITY=3
SPECTRUMID=CCMSLIB00000425389
SCANS=361
64.0 21.145 
70.0 22.22 
77.0 100.0 
98.0 37.413 
126.0 38.327 
141.0 7.911 
158.0 26.297 
END IONS

BEGIN IONS
PEPMASS=112.087
CHARGE=1+
MSLEVEL=2
SOURCE_INSTRUMENT=Positive-Quattro_QQQ:40eV
FILENAME=hmdb_intermediate.mgf
SEQ=*..*
IONMODE=Positive
ORGANISM=HMDB
NAME=HMDB:HMDB00870-1225 Histamine M+H
PI=HMDB
DATACOLLECTOR=HMDB
SMILES=NCCC1=CNC=N1
INCHI=InChI=1S/C5H9N3/c6-2-1-5-3-7-4-8-5/h3-4H,1-2,6H2,(H,7,8)
INCHIAUX=N/A
PUBMED=N/A
SUBMITUSER=mwang87
TAGS=
LIBRARYQUALITY=3
SPECTRUMID=CCMSLIB00000425390
SCANS=362
41.316 100.0 
54.229 51.736 
55.377 23.958 
67.854 50.0 
81.111 68.403 
94.829 42.708 
111.991 20.139 
END IONS

BEGIN IONS
PEPMASS=364.066
CHARGE=1+
MSLEVEL=2
SOURCE_INSTRUMENT=Positive-Quattro_QQQ:25eV
FILENAME=hmdb_intermediate.mgf
SEQ=*..*
IONMODE=Positive
ORGANISM=HMDB
NAME=HMDB:HMDB01397-1554 Guanosine monophosphate M+H
PI=HMDB
DATACOLLECTOR=HMDB
SMILES=NC1=NC2=C(N=CN2[C@@H]2O[C@H](COP(O)(O)=O)[C@@H](O)[C@H]2O)C(=O)N1
INCHI=InChI=1S/C10H14N5O8P/c11-10-13-7-4(8(18)14-10)12-2-15(7)9-6(17)5(16)3(23-9)1-22-24(19,20)21/h2-3,5-6,9,16-17H,1H2,(H2,19,20,21)(H3,11,13,14,18)/t3-,5-,6-,9-/m1/s1
INCHIAUX=N/A
PUBMED=N/A
SUBMITUSER=mwang87
TAGS=
LIBRARYQUALITY=3
SPECTRUMID=CCMSLIB00000425391
SCANS=363
97.0 7.095 
135.0 3.393 
152.0 100.0 
END IONS

BEGIN IONS
PEPMASS=59.0497
CHARGE=1+
MSLEVEL=2
SOURCE_INSTRUMENT=Positive-Quattro_QQQ:10eV
FILENAME=hmdb_intermediate.mgf
SEQ=*..*
IONMODE=Positive
ORGANISM=HMDB
NAME=HMDB:HMDB03366-2271 Propanal M+H
PI=HMDB
DATACOLLECTOR=HMDB
SMILES=CCC=O
INCHI=InChI=1S/C3H6O/c1-2-3-4/h3H,2H2,1H3
INCHIAUX=N/A
PUBMED=N/A
SUBMITUSER=mwang87
TAGS=
LIBRARYQUALITY=3
SPECTRUMID=CCMSLIB00000425392
SCANS=364
31.0 33.557 
41.0 12.021 
58.0 100.0 
END IONS

BEGIN IONS
PEPMASS=168.03
CHARGE=1+
MSLEVEL=2
SOURCE_INSTRUMENT=Positive-Quattro_QQQ:40eV
FILENAME=hmdb_intermediate.mgf
SEQ=*..*
IONMODE=Positive
ORGANISM=HMDB
NAME=HMDB:HMDB00232-390 Quinolinic acid M+H
PI=HMDB
DATACOLLECTOR=HMDB
SMILES=OC(=O)C1=CC=CN=C1C(O)=O
INCHI=InChI=1S/C7H5NO4/c9-6(10)4-2-1-3-8-5(4)7(11)12/h1-3H,(H,9,10)(H,11,12)
INCHIAUX=N/A
PUBMED=N/A
SUBMITUSER=mwang87
TAGS=
LIBRARYQUALITY=3
SPECTRUMID=CCMSLIB00000425393
SCANS=365
52.208 11.397 
66.206 26.225 
78.081 100.0 
94.016 15.196 
106.133 3.217 
122.006 2.696 
END IONS

BEGIN IONS
PEPMASS=163.076
CHARGE=1+
MSLEVEL=2
SOURCE_INSTRUMENT=Negative-Quattro_QQQ:40eV
FILENAME=hmdb_intermediate.mgf
SEQ=*..*
IONMODE=Negative
ORGANISM=HMDB
NAME=HMDB:HMDB00329-542 2-Phenylbutyric acid M-H
PI=HMDB
DATACOLLECTOR=HMDB
SMILES=CCC(C(O)=O)C1=CC=CC=C1
INCHI=InChI=1S/C10H12O2/c1-2-9(10(11)12)8-6-4-3-5-7-8/h3-7,9H,2H2,1H3,(H,11,12)
INCHIAUX=N/A
PUBMED=N/A
SUBMITUSER=mwang87
TAGS=
LIBRARYQUALITY=3
SPECTRUMID=CCMSLIB00000425394
SCANS=366
71.29 10.838 
77.315 18.642 
90.347 64.74 
103.312 10.549 
119.328 100.0 
163.111 36.416 
END IONS

BEGIN IONS
PEPMASS=146.082
CHARGE=1+
MSLEVEL=2
SOURCE_INSTRUMENT=Positive-Quattro_QQQ:10eV
FILENAME=hmdb_intermediate.mgf
SEQ=*..*
IONMODE=Positive
ORGANISM=HMDB
NAME=HMDB:HMDB00808-1155 N-Butyrylglycine M+H
PI=HMDB
DATACOLLECTOR=HMDB
SMILES=CCCC(=O)NCC(O)=O
INCHI=InChI=1S/C6H11NO3/c1-2-3-5(8)7-4-6(9)10/h2-4H2,1H3,(H,7,8)(H,9,10)
INCHIAUX=N/A
PUBMED=N/A
SUBMITUSER=mwang87
TAGS=
LIBRARYQUALITY=3
SPECTRUMID=CCMSLIB00000425395
SCANS=367
43.655 9.016 
71.392 69.399 
76.349 100.0 
146.141 3.825 
END IONS

BEGIN IONS
PEPMASS=397.405
CHARGE=1+
MSLEVEL=2
SOURCE_INSTRUMENT=Positive-Quattro_QQQ:40eV
FILENAME=hmdb_intermediate.mgf
SEQ=*..*
IONMODE=Positive
ORGANISM=HMDB
NAME=HMDB:HMDB60125-2078 Hexacosanoic acid M+H
PI=HMDB
DATACOLLECTOR=HMDB
SMILES=CCCCCCCCCCCCCCCCCCCCCCCCCC(O)=O
INCHI=InChI=1S/C26H52O2/c1-2-3-4-5-6-7-8-9-10-11-12-13-14-15-16-17-18-19-20-21-22-23-24-25-26(27)28/h2-25H2,1H3,(H,27,28)
INCHIAUX=N/A
PUBMED=N/A
SUBMITUSER=mwang87
TAGS=
LIBRARYQUALITY=3
SPECTRUMID=CCMSLIB00000425396
SCANS=368
82.51 71.566 
252.19 100.0 
310.57 75.02 
END IONS

BEGIN IONS
PEPMASS=196.061
CHARGE=1+
MSLEVEL=2
SOURCE_INSTRUMENT=Positive-Quattro_QQQ:40eV
FILENAME=hmdb_intermediate.mgf
SEQ=*..*
IONMODE=Positive
ORGANISM=HMDB
NAME=HMDB:HMDB02404-2103 Alpha-Hydroxyhippuric acid M+H
PI=HMDB
DATACOLLECTOR=HMDB
SMILES=OC(NC(=O)C1=CC=CC=C1)C(O)=O
INCHI=InChI=1S/C9H9NO4/c11-7(10-8(12)9(13)14)6-4-2-1-3-5-6/h1-5,8,12H,(H,10,11)(H,13,14)
INCHIAUX=N/A
PUBMED=N/A
SUBMITUSER=mwang87
TAGS=
LIBRARYQUALITY=3
SPECTRUMID=CCMSLIB00000425397
SCANS=369
51.0 5.365 
77.0 100.0 
104.0 4.193 
105.0 15.936 
END IONS

BEGIN IONS
PEPMASS=75.0082
CHARGE=1+
MSLEVEL=2
SOURCE_INSTRUMENT=Negative-Quattro_QQQ:10eV
FILENAME=hmdb_intermediate.mgf
SEQ=*..*
IONMODE=Negative
ORGANISM=HMDB
NAME=HMDB:HMDB00115-165 Glycolic acid M-H
PI=HMDB
DATACOLLECTOR=HMDB
SMILES=OCC(O)=O
INCHI=InChI=1S/C2H4O3/c3-1-2(4)5/h3H,1H2,(H,4,5)
INCHIAUX=N/A
PUBMED=N/A
SUBMITUSER=mwang87
TAGS=
LIBRARYQUALITY=3
SPECTRUMID=CCMSLIB00000425398
SCANS=370
45.322 16.193 
75.111 100.0 
END IONS

BEGIN IONS
PEPMASS=132.102
CHARGE=1+
MSLEVEL=2
SOURCE_INSTRUMENT=Positive-Quattro_QQQ:10eV
FILENAME=hmdb_intermediate.mgf
SEQ=*..*
IONMODE=Positive
ORGANISM=HMDB
NAME=HMDB:HMDB01645-1669 L-Norleucine M+H
PI=HMDB
DATACOLLECTOR=HMDB
SMILES=CCCC[C@H](N)C(O)=O
INCHI=InChI=1S/C6H13NO2/c1-2-3-4-5(7)6(8)9/h5H,2-4,7H2,1H3,(H,8,9)/t5-/m0/s1
INCHIAUX=N/A
PUBMED=N/A
SUBMITUSER=mwang87
TAGS=
LIBRARYQUALITY=3
SPECTRUMID=CCMSLIB00000425399
SCANS=371
69.119 2.215 
86.032 100.0 
131.94 20.669 
END IONS

BEGIN IONS
PEPMASS=100.022
CHARGE=1+
MSLEVEL=2
SOURCE_INSTRUMENT=Positive-Quattro_QQQ:10eV
FILENAME=hmdb_intermediate.mgf
SEQ=*..*
IONMODE=Positive
ORGANISM=HMDB
NAME=HMDB:HMDB05843-2460 Allyl isothiocyanate M+H
PI=HMDB
DATACOLLECTOR=HMDB
SMILES=C=CCN=C=S
INCHI=InChI=1S/C4H5NS/c1-2-3-5-4-6/h2H,1,3H2
INCHIAUX=N/A
PUBMED=N/A
SUBMITUSER=mwang87
TAGS=
LIBRARYQUALITY=3
SPECTRUMID=CCMSLIB00000425400
SCANS=372
41.24 89.408 
59.15 27.906 
73.23 36.424 
83.07 12.052 
99.69 100.0 
END IONS

BEGIN IONS
PEPMASS=87.0446
CHARGE=1+
MSLEVEL=2
SOURCE_INSTRUMENT=Positive-Quattro_QQQ:25eV
FILENAME=hmdb_intermediate.mgf
SEQ=*..*
IONMODE=Positive
ORGANISM=HMDB
NAME=HMDB:HMDB00549-774 Gamma-Butyrolactone M+H
PI=HMDB
DATACOLLECTOR=HMDB
SMILES=O=C1CCCO1
INCHI=InChI=1S/C4H6O2/c5-4-2-1-3-6-4/h1-3H2
INCHIAUX=N/A
PUBMED=N/A
SUBMITUSER=mwang87
TAGS=
LIBRARYQUALITY=3
SPECTRUMID=CCMSLIB00000425401
SCANS=373
87.1 100.0 
END IONS

BEGIN IONS
PEPMASS=177.103
CHARGE=1+
MSLEVEL=2
SOURCE_INSTRUMENT=Positive-Quattro_QQQ:10eV
FILENAME=hmdb_intermediate.mgf
SEQ=*..*
IONMODE=Positive
ORGANISM=HMDB
NAME=HMDB:HMDB00259-451 Serotonin M+H
PI=HMDB
DATACOLLECTOR=HMDB
SMILES=NCCC1=CNC2=CC=C(O)C=C12
INCHI=InChI=1S/C10H12N2O/c11-4-3-7-6-12-10-2-1-8(13)5-9(7)10/h1-2,5-6,12-13H,3-4,11H2
INCHIAUX=N/A
PUBMED=N/A
SUBMITUSER=mwang87
TAGS=
LIBRARYQUALITY=3
SPECTRUMID=CCMSLIB00000425402
SCANS=374
132.039 1.238 
159.992 100.0 
176.991 2.23 
END IONS

BEGIN IONS
PEPMASS=173.093
CHARGE=1+
MSLEVEL=2
SOURCE_INSTRUMENT=Positive-Quattro_QQQ:10eV
FILENAME=hmdb_intermediate.mgf
SEQ=*..*
IONMODE=Positive
ORGANISM=HMDB
NAME=HMDB:HMDB00721-1014 Glycylproline M+H
PI=HMDB
DATACOLLECTOR=HMDB
SMILES=NCC(=O)N1CCCC1C(O)=O
INCHI=InChI=1S/C7H12N2O3/c8-4-6(10)9-3-1-2-5(9)7(11)12/h5H,1-4,8H2,(H,11,12)
INCHIAUX=N/A
PUBMED=N/A
SUBMITUSER=mwang87
TAGS=
LIBRARYQUALITY=3
SPECTRUMID=CCMSLIB00000425403
SCANS=375
79.852 30.227 
91.145 10.003 
116.743 53.774 
132.554 24.448 
173.089 100.0 
END IONS

BEGIN IONS
PEPMASS=170.022
CHARGE=1+
MSLEVEL=2
SOURCE_INSTRUMENT=Positive-Quattro_QQQ:40eV
FILENAME=hmdb_intermediate.mgf
SEQ=*..*
IONMODE=Positive
ORGANISM=HMDB
NAME=HMDB:HMDB00370-587 2-Amino-3-phosphonopropionic acid M+H
PI=HMDB
DATACOLLECTOR=HMDB
SMILES=NC(CP(O)(O)=O)C(O)=O
INCHI=InChI=1S/C3H8NO5P/c4-2(3(5)6)1-10(7,8)9/h2H,1,4H2,(H,5,6)(H2,7,8,9)
INCHIAUX=N/A
PUBMED=N/A
SUBMITUSER=mwang87
TAGS=
LIBRARYQUALITY=3
SPECTRUMID=CCMSLIB00000425404
SCANS=376
43.0 16.613 
47.0 3.934 
80.0 100.0 
106.0 32.885 
124.0 6.146 
END IONS

BEGIN IONS
PEPMASS=135.029
CHARGE=1+
MSLEVEL=2
SOURCE_INSTRUMENT=Positive-Quattro_QQQ:10eV
FILENAME=hmdb_intermediate.mgf
SEQ=*..*
IONMODE=Positive
ORGANISM=HMDB
NAME=HMDB:HMDB00156-239 L-Malic acid M+H
PI=HMDB
DATACOLLECTOR=HMDB
SMILES=O[C@@H](CC(O)=O)C(O)=O
INCHI=InChI=1S/C4H6O5/c5-2(4(8)9)1-3(6)7/h2,5H,1H2,(H,6,7)(H,8,9)/t2-/m0/s1
INCHIAUX=N/A
PUBMED=N/A
SUBMITUSER=mwang87
TAGS=
LIBRARYQUALITY=3
SPECTRUMID=CCMSLIB00000425405
SCANS=377
43.0 9.358 
71.0 76.751 
89.0 100.0 
103.0 40.094 
107.0 12.633 
117.0 21.185 
135.0 33.451 
END IONS

BEGIN IONS
PEPMASS=255.232
CHARGE=1+
MSLEVEL=2
SOURCE_INSTRUMENT=Negative-Quattro_QQQ:40eV
FILENAME=hmdb_intermediate.mgf
SEQ=*..*
IONMODE=Negative
ORGANISM=HMDB
NAME=HMDB:HMDB60083-360 Palmitic acid M-H
PI=HMDB
DATACOLLECTOR=HMDB
SMILES=CCCCCCCCCCCCCCCC(O)=O
INCHI=InChI=1S/C16H32O2/c1-2-3-4-5-6-7-8-9-10-11-12-13-14-15-16(17)18/h2-15H2,1H3,(H,17,18)
INCHIAUX=N/A
PUBMED=N/A
SUBMITUSER=mwang87
TAGS=
LIBRARYQUALITY=3
SPECTRUMID=CCMSLIB00000425406
SCANS=378
54.305 82.069 
59.226 35.862 
71.137 42.759 
75.123 100.0 
93.237 30.345 
117.737 31.034 
148.891 54.483 
183.018 32.414 
254.956 46.207 
END IONS

BEGIN IONS
PEPMASS=132.066
CHARGE=1+
MSLEVEL=2
SOURCE_INSTRUMENT=Positive-Quattro_QQQ:25eV
FILENAME=hmdb_intermediate.mgf
SEQ=*..*
IONMODE=Positive
ORGANISM=HMDB
NAME=HMDB:HMDB00766-1105 N-Acetyl-L-alanine M+H
PI=HMDB
DATACOLLECTOR=HMDB
SMILES=C[C@H](NC(C)=O)C(O)=O
INCHI=InChI=1S/C5H9NO3/c1-3(5(8)9)6-4(2)7/h3H,1-2H3,(H,6,7)(H,8,9)/t3-/m0/s1
INCHIAUX=N/A
PUBMED=N/A
SUBMITUSER=mwang87
TAGS=
LIBRARYQUALITY=3
SPECTRUMID=CCMSLIB00000425407
SCANS=379
44.327 100.0 
89.944 16.006 
END IONS

BEGIN IONS
PEPMASS=145.086
CHARGE=1+
MSLEVEL=2
SOURCE_INSTRUMENT=Positive-Quattro_QQQ:40eV
FILENAME=hmdb_intermediate.mgf
SEQ=*..*
IONMODE=Positive
ORGANISM=HMDB
NAME=HMDB:HMDB01988-1931 4-Hydroxycyclohexylcarboxylic acid M+H
PI=HMDB
DATACOLLECTOR=HMDB
SMILES=OC1CCC(CC1)C(O)=O
INCHI=InChI=1S/C7H12O3/c8-6-3-1-5(2-4-6)7(9)10/h5-6,8H,1-4H2,(H,9,10)
INCHIAUX=N/A
PUBMED=N/A
SUBMITUSER=mwang87
TAGS=
LIBRARYQUALITY=3
SPECTRUMID=CCMSLIB00000425408
SCANS=380
63.0 26.678 
67.0 17.548 
81.0 100.0 
END IONS

BEGIN IONS
PEPMASS=61.0653
CHARGE=1+
MSLEVEL=2
SOURCE_INSTRUMENT=Positive-Quattro_QQQ:25eV
FILENAME=hmdb_intermediate.mgf
SEQ=*..*
IONMODE=Positive
ORGANISM=HMDB
NAME=HMDB:HMDB00863-1218 Isopropyl alcohol M+H
PI=HMDB
DATACOLLECTOR=HMDB
SMILES=CC(C)O
INCHI=InChI=1S/C3H8O/c1-3(2)4/h3-4H,1-2H3
INCHIAUX=N/A
PUBMED=N/A
SUBMITUSER=mwang87
TAGS=
LIBRARYQUALITY=3
SPECTRUMID=CCMSLIB00000425409
SCANS=381
15.0 35.287 
42.0 68.177 
45.0 36.209 
60.0 100.0 
END IONS

BEGIN IONS
PEPMASS=232.155
CHARGE=1+
MSLEVEL=2
SOURCE_INSTRUMENT=Positive-Quattro_QQQ:10eV
FILENAME=hmdb_intermediate.mgf
SEQ=*..*
IONMODE=Positive
ORGANISM=HMDB
NAME=HMDB:HMDB00736-1044 Isobutyryl-L-carnitine M+H
PI=HMDB
DATACOLLECTOR=HMDB
SMILES=CC(C)C(=O)OC(CC([O-])=O)C[N+](C)(C)C
INCHI=InChI=1S/C11H21NO4/c1-8(2)11(15)16-9(6-10(13)14)7-12(3,4)5/h8-9H,6-7H2,1-5H3
INCHIAUX=N/A
PUBMED=N/A
SUBMITUSER=mwang87
TAGS=
LIBRARYQUALITY=3
SPECTRUMID=CCMSLIB00000425410
SCANS=382
59.0 8.492 
84.0 49.685 
172.0 21.379 
231.0 100.0 
END IONS

BEGIN IONS
PEPMASS=72.0449
CHARGE=1+
MSLEVEL=2
SOURCE_INSTRUMENT=Positive-Quattro_QQQ:10eV
FILENAME=hmdb_intermediate.mgf
SEQ=*..*
IONMODE=Positive
ORGANISM=HMDB
NAME=HMDB:HMDB04296-2379 Acrylamide M+H
PI=HMDB
DATACOLLECTOR=HMDB
SMILES=NC(=O)C=C
INCHI=InChI=1S/C3H5NO/c1-2-3(4)5/h2H,1H2,(H2,4,5)
INCHIAUX=N/A
PUBMED=N/A
SUBMITUSER=mwang87
TAGS=
LIBRARYQUALITY=3
SPECTRUMID=CCMSLIB00000425411
SCANS=383
55.02 92.682 
71.96 100.0 
END IONS

BEGIN IONS
PEPMASS=338.212
CHARGE=1+
MSLEVEL=2
SOURCE_INSTRUMENT=Positive-Quattro_QQQ:10eV
FILENAME=hmdb_intermediate.mgf
SEQ=*..*
IONMODE=Positive
ORGANISM=HMDB
NAME=HMDB:HMDB02835-2146 Danazol M+H
PI=HMDB
DATACOLLECTOR=HMDB
SMILES=[H][C@@]12CC[C@@](O)(C#C)[C@@]1(C)CC[C@@]1([H])[C@@]2([H])CCC2=CC3=C(C[C@]12C)C=NO3
INCHI=InChI=1S/C22H27NO2/c1-4-22(24)10-8-18-16-6-5-15-11-19-14(13-23-25-19)12-20(15,2)17(16)7-9-21(18,22)3/h1,11,13,16-18,24H,5-10,12H2,2-3H3/t16-,17+,18+,20+,21+,22+/m1/s1
INCHIAUX=N/A
PUBMED=N/A
SUBMITUSER=mwang87
TAGS=
LIBRARYQUALITY=3
SPECTRUMID=CCMSLIB00000425412
SCANS=384
338.06 100.0 
END IONS

BEGIN IONS
PEPMASS=105.115
CHARGE=1+
MSLEVEL=2
SOURCE_INSTRUMENT=Positive-Quattro_QQQ:25eV
FILENAME=hmdb_intermediate.mgf
SEQ=*..*
IONMODE=Positive
ORGANISM=HMDB
NAME=HMDB:HMDB00097-151 Choline M+H
PI=HMDB
DATACOLLECTOR=HMDB
SMILES=C[N+](C)(C)CCO
INCHI=InChI=1S/C5H14NO/c1-6(2,3)4-5-7/h7H,4-5H2,1-3H3/q+1
INCHIAUX=N/A
PUBMED=N/A
SUBMITUSER=mwang87
TAGS=
LIBRARYQUALITY=3
SPECTRUMID=CCMSLIB00000425413
SCANS=385
61.1 9.6636619448 
105.1 100.0 
END IONS

BEGIN IONS
PEPMASS=176.104
CHARGE=1+
MSLEVEL=2
SOURCE_INSTRUMENT=Positive-Quattro_QQQ:10eV
FILENAME=hmdb_intermediate.mgf
SEQ=*..*
IONMODE=Positive
ORGANISM=HMDB
NAME=HMDB:HMDB00904-1286 Citrulline M+H
PI=HMDB
DATACOLLECTOR=HMDB
SMILES=N[C@@H](CCCNC(N)=O)C(O)=O
INCHI=InChI=1S/C6H13N3O3/c7-4(5(10)11)2-1-3-9-6(8)12/h4H,1-3,7H2,(H,10,11)(H3,8,9,12)/t4-/m0/s1
INCHIAUX=N/A
PUBMED=N/A
SUBMITUSER=mwang87
TAGS=
LIBRARYQUALITY=3
SPECTRUMID=CCMSLIB00000425414
SCANS=386
70.112 14.954 
113.013 18.493 
114.973 10.502 
158.913 100.0 
175.911 12.329 
END IONS

BEGIN IONS
PEPMASS=72.9926
CHARGE=1+
MSLEVEL=2
SOURCE_INSTRUMENT=Negative-Quattro_QQQ:10eV
FILENAME=hmdb_intermediate.mgf
SEQ=*..*
IONMODE=Negative
ORGANISM=HMDB
NAME=HMDB:HMDB00119-171 Glyoxylic acid M-H
PI=HMDB
DATACOLLECTOR=HMDB
SMILES=OC(=O)C=O
INCHI=InChI=1S/C2H2O3/c3-1-2(4)5/h1H,(H,4,5)
INCHIAUX=N/A
PUBMED=N/A
SUBMITUSER=mwang87
TAGS=
LIBRARYQUALITY=3
SPECTRUMID=CCMSLIB00000425415
SCANS=387
45.307 30.254 
73.068 100.0 
END IONS

BEGIN IONS
PEPMASS=302.055
CHARGE=1+
MSLEVEL=2
SOURCE_INSTRUMENT=Positive-Quattro_QQQ:40eV
FILENAME=hmdb_intermediate.mgf
SEQ=*..*
IONMODE=Positive
ORGANISM=HMDB
NAME=HMDB:HMDB00781-1112 N-Acetylgalactosamine 4-sulphate M+H
PI=HMDB
DATACOLLECTOR=HMDB
SMILES=CC(=O)N[C@H]1[C@H](O)O[C@H](CO)[C@H](OS(O)(=O)=O)[C@@H]1O
INCHI=InChI=1S/C8H15NO9S/c1-3(11)9-5-6(12)7(18-19(14,15)16)4(2-10)17-8(5)13/h4-8,10,12-13H,2H2,1H3,(H,9,11)(H,14,15,16)/t4-,5-,6-,7+,8-/m1/s1
INCHIAUX=N/A
PUBMED=N/A
SUBMITUSER=mwang87
TAGS=
LIBRARYQUALITY=3
SPECTRUMID=CCMSLIB00000425416
SCANS=388
69.0 8.031 
84.0 100.0 
85.0 6.752 
96.0 26.532 
126.0 13.144 
138.0 12.921 
END IONS

BEGIN IONS
PEPMASS=78.0377
CHARGE=1+
MSLEVEL=2
SOURCE_INSTRUMENT=Positive-Quattro_QQQ:10eV
FILENAME=hmdb_intermediate.mgf
SEQ=*..*
IONMODE=Positive
ORGANISM=HMDB
NAME=HMDB:HMDB60150-2176 Cysteamine M+H
PI=HMDB
DATACOLLECTOR=HMDB
SMILES=NCCS
INCHI=InChI=1S/C2H7NS/c3-1-2-4/h4H,1-3H2
INCHIAUX=N/A
PUBMED=N/A
SUBMITUSER=mwang87
TAGS=
LIBRARYQUALITY=3
SPECTRUMID=CCMSLIB00000425417
SCANS=389
61.0 100.0 
78.0 12.187 
END IONS

BEGIN IONS
PEPMASS=106.05
CHARGE=1+
MSLEVEL=2
SOURCE_INSTRUMENT=Positive-Quattro_QQQ:40eV
FILENAME=hmdb_intermediate.mgf
SEQ=*..*
IONMODE=Positive
ORGANISM=HMDB
NAME=HMDB:HMDB03406-2285 D-Serine M+H
PI=HMDB
DATACOLLECTOR=HMDB
SMILES=N[C@H](CO)C(O)=O
INCHI=InChI=1S/C3H7NO3/c4-2(1-5)3(6)7/h2,5H,1,4H2,(H,6,7)/t2-/m1/s1
INCHIAUX=N/A
PUBMED=N/A
SUBMITUSER=mwang87
TAGS=
LIBRARYQUALITY=3
SPECTRUMID=CCMSLIB00000425418
SCANS=390
31.27 14.445 
42.18 100.0 
45.25 10.111 
59.96 21.1 
106.02 5.89 
END IONS

BEGIN IONS
PEPMASS=160.134
CHARGE=1+
MSLEVEL=2
SOURCE_INSTRUMENT=Positive-Quattro_QQQ:10eV
FILENAME=hmdb_intermediate.mgf
SEQ=*..*
IONMODE=Positive
ORGANISM=HMDB
NAME=HMDB:HMDB00991-1381 DL-2-Aminooctanoic acid M+H
PI=HMDB
DATACOLLECTOR=HMDB
SMILES=CCCCCCC(N)C(O)=O
INCHI=InChI=1S/C8H17NO2/c1-2-3-4-5-6-7(9)8(10)11/h7H,2-6,9H2,1H3,(H,10,11)
INCHIAUX=N/A
PUBMED=N/A
SUBMITUSER=mwang87
TAGS=
LIBRARYQUALITY=3
SPECTRUMID=CCMSLIB00000425419
SCANS=391
55.261 14.242 
69.189 4.091 
97.14 14.242 
160.048 100.0 
END IONS

BEGIN IONS
PEPMASS=126.103
CHARGE=1+
MSLEVEL=2
SOURCE_INSTRUMENT=Positive-Quattro_QQQ:25eV
FILENAME=hmdb_intermediate.mgf
SEQ=*..*
IONMODE=Positive
ORGANISM=HMDB
NAME=HMDB:HMDB01861-1739 3-Methylhistamine M+H
PI=HMDB
DATACOLLECTOR=HMDB
SMILES=CN1C=NC=C1CCN
INCHI=InChI=1S/C6H11N3/c1-9-5-8-4-6(9)2-3-7/h4-5H,2-3,7H2,1H3
INCHIAUX=N/A
PUBMED=N/A
SUBMITUSER=mwang87
TAGS=
LIBRARYQUALITY=3
SPECTRUMID=CCMSLIB00000425420
SCANS=392
67.91 22.24 
94.472 17.396 
96.458 100.0 
108.995 20.386 
126.125 19.82 
END IONS

BEGIN IONS
PEPMASS=185.045
CHARGE=1+
MSLEVEL=2
SOURCE_INSTRUMENT=Positive-Quattro_QQQ:10eV
FILENAME=hmdb_intermediate.mgf
SEQ=*..*
IONMODE=Positive
ORGANISM=HMDB
NAME=HMDB:HMDB01866-1747 3,4-Dihydroxymandelic acid M+H
PI=HMDB
DATACOLLECTOR=HMDB
SMILES=OC(C(O)=O)C1=CC=C(O)C(O)=C1
INCHI=InChI=1S/C8H8O5/c9-5-2-1-4(3-6(5)10)7(11)8(12)13/h1-3,7,9-11H,(H,12,13)
INCHIAUX=N/A
PUBMED=N/A
SUBMITUSER=mwang87
TAGS=
LIBRARYQUALITY=3
SPECTRUMID=CCMSLIB00000425421
SCANS=393
82.506 14.624 
85.622 22.17 
97.585 29.589 
114.285 36.881 
124.131 14.373 
125.378 38.642 
139.212 100.0 
153.67 37.385 
163.641 42.919 
168.751 21.541 
184.082 28.332 
184.581 69.955 
END IONS

BEGIN IONS
PEPMASS=149.06
CHARGE=1+
MSLEVEL=2
SOURCE_INSTRUMENT=Positive-Quattro_QQQ:25eV
FILENAME=hmdb_intermediate.mgf
SEQ=*..*
IONMODE=Positive
ORGANISM=HMDB
NAME=HMDB:HMDB00930-1325 trans-Cinnamic acid M+H
PI=HMDB
DATACOLLECTOR=HMDB
SMILES=OC(=O)\C=C\C1=CC=CC=C1
INCHI=InChI=1S/C9H8O2/c10-9(11)7-6-8-4-2-1-3-5-8/h1-7H,(H,10,11)/b7-6+
INCHIAUX=N/A
PUBMED=N/A
SUBMITUSER=mwang87
TAGS=
LIBRARYQUALITY=3
SPECTRUMID=CCMSLIB00000425422
SCANS=394
76.0 77.433 
102.0 100.0 
130.0 9.358 
END IONS

BEGIN IONS
PEPMASS=465.304
CHARGE=1+
MSLEVEL=2
SOURCE_INSTRUMENT=Negative-Quattro_QQQ:25eV
FILENAME=hmdb_intermediate.mgf
SEQ=*..*
IONMODE=Negative
ORGANISM=HMDB
NAME=HMDB:HMDB00653-892 Cholesterol sulfate M-H
PI=HMDB
DATACOLLECTOR=HMDB
SMILES=[H][C@@]12CC[C@H]([C@H](C)CCCC(C)C)[C@@]1(C)CC[C@@]1([H])[C@@]2([H])CC=C2C[C@H](CC[C@]12C)OS(O)(=O)=O
INCHI=InChI=1S/C27H46O4S/c1-18(2)7-6-8-19(3)23-11-12-24-22-10-9-20-17-21(31-32(28,29)30)13-15-26(20,4)25(22)14-16-27(23,24)5/h9,18-19,21-25H,6-8,10-17H2,1-5H3,(H,28,29,30)/t19-,21+,22+,23-,24+,25+,26+,27-/m1/s1
INCHIAUX=N/A
PUBMED=N/A
SUBMITUSER=mwang87
TAGS=
LIBRARYQUALITY=3
SPECTRUMID=CCMSLIB00000425423
SCANS=395
97.02 1.4234876555 
465.66 100.0 
END IONS

BEGIN IONS
PEPMASS=137.024
CHARGE=1+
MSLEVEL=2
SOURCE_INSTRUMENT=Negative-Quattro_QQQ:10eV
FILENAME=hmdb_intermediate.mgf
SEQ=*..*
IONMODE=Negative
ORGANISM=HMDB
NAME=HMDB:HMDB01895-1810 Salicylic acid M-H
PI=HMDB
DATACOLLECTOR=HMDB
SMILES=OC(=O)C1=CC=CC=C1O
INCHI=InChI=1S/C7H6O3/c8-6-4-2-1-3-5(6)7(9)10/h1-4,8H,(H,9,10)
INCHIAUX=N/A
PUBMED=N/A
SUBMITUSER=mwang87
TAGS=
LIBRARYQUALITY=3
SPECTRUMID=CCMSLIB00000425424
SCANS=396
57.015 53.54 
70.583 39.34 
80.666 37.914 
94.484 31.711 
98.467 76.838 
112.036 49.541 
124.236 41.592 
139.424 100.0 
END IONS

BEGIN IONS
PEPMASS=133.061
CHARGE=1+
MSLEVEL=2
SOURCE_INSTRUMENT=Positive-Quattro_QQQ:40eV
FILENAME=hmdb_intermediate.mgf
SEQ=*..*
IONMODE=Positive
ORGANISM=HMDB
NAME=HMDB:HMDB00168-268 L-Asparagine M+H
PI=HMDB
DATACOLLECTOR=HMDB
SMILES=N[C@@H](CC(N)=O)C(O)=O
INCHI=InChI=1S/C4H8N2O3/c5-2(4(8)9)1-3(6)7/h2H,1,5H2,(H2,6,7)(H,8,9)/t2-/m0/s1
INCHIAUX=N/A
PUBMED=N/A
SUBMITUSER=mwang87
TAGS=
LIBRARYQUALITY=3
SPECTRUMID=CCMSLIB00000425425
SCANS=397
43.162 41.597 
46.167 30.462 
56.226 9.034 
73.903 100.0 
87.101 6.408 
132.994 12.763 
END IONS

BEGIN IONS
PEPMASS=106.05
CHARGE=1+
MSLEVEL=2
SOURCE_INSTRUMENT=Positive-Quattro_QQQ:25eV
FILENAME=hmdb_intermediate.mgf
SEQ=*..*
IONMODE=Positive
ORGANISM=HMDB
NAME=HMDB:HMDB03406-2284 D-Serine M+H
PI=HMDB
DATACOLLECTOR=HMDB
SMILES=N[C@H](CO)C(O)=O
INCHI=InChI=1S/C3H7NO3/c4-2(1-5)3(6)7/h2,5H,1,4H2,(H,6,7)/t2-/m1/s1
INCHIAUX=N/A
PUBMED=N/A
SUBMITUSER=mwang87
TAGS=
LIBRARYQUALITY=3
SPECTRUMID=CCMSLIB00000425426
SCANS=398
42.18 35.677 
60.01 100.0 
END IONS

BEGIN IONS
PEPMASS=177.103
CHARGE=1+
MSLEVEL=2
SOURCE_INSTRUMENT=Positive-Quattro_QQQ:10eV
FILENAME=hmdb_intermediate.mgf
SEQ=*..*
IONMODE=Positive
ORGANISM=HMDB
NAME=HMDB:HMDB01046-1397 Cotinine M+H
PI=HMDB
DATACOLLECTOR=HMDB
SMILES=CN1C(CCC1=O)C1=CN=CC=C1
INCHI=InChI=1S/C10H12N2O/c1-12-9(4-5-10(12)13)8-3-2-6-11-7-8/h2-3,6-7,9H,4-5H2,1H3
INCHIAUX=N/A
PUBMED=N/A
SUBMITUSER=mwang87
TAGS=
LIBRARYQUALITY=3
SPECTRUMID=CCMSLIB00000425427
SCANS=399
80.0 18.668 
98.0 7.76 
146.0 4.055 
177.0 100.0 
END IONS

BEGIN IONS
PEPMASS=167.071
CHARGE=1+
MSLEVEL=2
SOURCE_INSTRUMENT=Positive-Quattro_QQQ:10eV
FILENAME=hmdb_intermediate.mgf
SEQ=*..*
IONMODE=Positive
ORGANISM=HMDB
NAME=HMDB:HMDB02072-1981 4-Methoxyphenylacetic acid M+H
PI=HMDB
DATACOLLECTOR=HMDB
SMILES=COC1=CC=C(CC(O)=O)C=C1
INCHI=InChI=1S/C9H10O3/c1-12-8-4-2-7(3-5-8)6-9(10)11/h2-5H,6H2,1H3,(H,10,11)
INCHIAUX=N/A
PUBMED=N/A
SUBMITUSER=mwang87
TAGS=
LIBRARYQUALITY=3
SPECTRUMID=CCMSLIB00000425428
SCANS=400
121.0 100.0 
167.0 1.317 
END IONS

BEGIN IONS
PEPMASS=221.093
CHARGE=1+
MSLEVEL=2
SOURCE_INSTRUMENT=Positive-Quattro_QQQ:40eV
FILENAME=hmdb_intermediate.mgf
SEQ=*..*
IONMODE=Positive
ORGANISM=HMDB
NAME=HMDB:HMDB00472-688 5-Hydroxy-L-tryptophan M+H
PI=HMDB
DATACOLLECTOR=HMDB
SMILES=NC(CC1=CNC2=C1C=C(O)C=C2)C(O)=O
INCHI=InChI=1S/C11H12N2O3/c12-9(11(15)16)3-6-5-13-10-2-1-7(14)4-8(6)10/h1-2,4-5,9,13-14H,3,12H2,(H,15,16)
INCHIAUX=N/A
PUBMED=N/A
SUBMITUSER=mwang87
TAGS=
LIBRARYQUALITY=3
SPECTRUMID=CCMSLIB00000425429
SCANS=401
76.0 42.605 
102.0 95.102 
106.0 68.497 
116.0 49.219 
133.0 100.0 
145.0 63.588 
158.0 89.89 
END IONS

BEGIN IONS
PEPMASS=80.9646
CHARGE=1+
MSLEVEL=2
SOURCE_INSTRUMENT=Positive-Quattro_QQQ:10eV
FILENAME=hmdb_intermediate.mgf
SEQ=*..*
IONMODE=Positive
ORGANISM=HMDB
NAME=HMDB:HMDB00240-406 Sulfite M+H
PI=HMDB
DATACOLLECTOR=HMDB
SMILES=[O-]S([O-])=O
INCHI=InChI=1S/H2O3S/c1-4(2)3/h(H2,1,2,3)/p-2
INCHIAUX=N/A
PUBMED=N/A
SUBMITUSER=mwang87
TAGS=
LIBRARYQUALITY=3
SPECTRUMID=CCMSLIB00000425430
SCANS=402
54.152 100.0 
54.525 54.099 
81.253 53.08 
END IONS

BEGIN IONS
PEPMASS=222.098
CHARGE=1+
MSLEVEL=2
SOURCE_INSTRUMENT=Positive-Quattro_QQQ:40eV
FILENAME=hmdb_intermediate.mgf
SEQ=*..*
IONMODE=Positive
ORGANISM=HMDB
NAME=HMDB:HMDB00803-1146 Beta-N-Acetylglucosamine M+H
PI=HMDB
DATACOLLECTOR=HMDB
SMILES=CC(=O)N[C@H]1[C@H](O)O[C@H](CO)[C@@H](O)[C@@H]1O
INCHI=InChI=1S/C8H15NO6/c1-3(11)9-5-7(13)6(12)4(2-10)15-8(5)14/h4-8,10,12-14H,2H2,1H3,(H,9,11)/t4-,5-,6-,7-,8-/m1/s1
INCHIAUX=N/A
PUBMED=N/A
SUBMITUSER=mwang87
TAGS=
LIBRARYQUALITY=3
SPECTRUMID=CCMSLIB00000425431
SCANS=403
43.302 44.309 
53.271 23.171 
55.277 31.707 
69.196 34.146 
84.045 60.163 
96.1 100.0 
108.974 7.825 
125.947 8.943 
137.956 16.26 
END IONS

BEGIN IONS
PEPMASS=167.034
CHARGE=1+
MSLEVEL=2
SOURCE_INSTRUMENT=Negative-Quattro_QQQ:25eV
FILENAME=hmdb_intermediate.mgf
SEQ=*..*
IONMODE=Negative
ORGANISM=HMDB
NAME=HMDB:HMDB00750-1072 3-Hydroxymandelic acid M-H
PI=HMDB
DATACOLLECTOR=HMDB
SMILES=OC(C(O)=O)C1=CC(O)=CC=C1
INCHI=InChI=1S/C8H8O4/c9-6-3-1-2-5(4-6)7(10)8(11)12/h1-4,7,9-10H,(H,11,12)
INCHIAUX=N/A
PUBMED=N/A
SUBMITUSER=mwang87
TAGS=
LIBRARYQUALITY=3
SPECTRUMID=CCMSLIB00000425432
SCANS=404
92.92 6.425 
121.114 100.0 
END IONS

BEGIN IONS
PEPMASS=160.097
CHARGE=1+
MSLEVEL=2
SOURCE_INSTRUMENT=Positive-Quattro_QQQ:40eV
FILENAME=hmdb_intermediate.mgf
SEQ=*..*
IONMODE=Positive
ORGANISM=HMDB
NAME=HMDB:HMDB00927-1320 Valerylglycine M+H
PI=HMDB
DATACOLLECTOR=HMDB
SMILES=CCCCC(=O)NCC(O)=O
INCHI=InChI=1S/C7H13NO3/c1-2-3-4-6(9)8-5-7(10)11/h2-5H2,1H3,(H,8,9)(H,10,11)
INCHIAUX=N/A
PUBMED=N/A
SUBMITUSER=mwang87
TAGS=
LIBRARYQUALITY=3
SPECTRUMID=CCMSLIB00000425433
SCANS=405
41.667 100.0 
57.536 89.011 
73.379 4.275 
76.325 12.5 
85.366 12.981 
END IONS

BEGIN IONS
PEPMASS=268.105
CHARGE=1+
MSLEVEL=2
SOURCE_INSTRUMENT=Positive-Quattro_QQQ:10eV
FILENAME=hmdb_intermediate.mgf
SEQ=*..*
IONMODE=Positive
ORGANISM=HMDB
NAME=HMDB:HMDB00050-81 Adenosine M+H
PI=HMDB
DATACOLLECTOR=HMDB
SMILES=NC1=NC=NC2=C1N=CN2[C@@H]1O[C@H](CO)[C@@H](O)[C@H]1O
INCHI=InChI=1S/C10H13N5O4/c11-8-5-9(13-2-12-8)15(3-14-5)10-7(18)6(17)4(1-16)19-10/h2-4,6-7,10,16-18H,1H2,(H2,11,12,13)/t4-,6-,7-,10-/m1/s1
INCHIAUX=N/A
PUBMED=N/A
SUBMITUSER=mwang87
TAGS=
LIBRARYQUALITY=3
SPECTRUMID=CCMSLIB00000425434
SCANS=406
135.965 97.368 
267.984 100.0 
END IONS

BEGIN IONS
PEPMASS=215.165
CHARGE=1+
MSLEVEL=2
SOURCE_INSTRUMENT=Negative-Quattro_QQQ:40eV
FILENAME=hmdb_intermediate.mgf
SEQ=*..*
IONMODE=Negative
ORGANISM=HMDB
NAME=HMDB:HMDB00387-596 3-Hydroxydodecanoic acid M-H
PI=HMDB
DATACOLLECTOR=HMDB
SMILES=CCCCCCCCCC(O)CC(O)=O
INCHI=InChI=1S/C12H24O3/c1-2-3-4-5-6-7-8-9-11(13)10-12(14)15/h11,13H,2-10H2,1H3,(H,14,15)
INCHIAUX=N/A
PUBMED=N/A
SUBMITUSER=mwang87
TAGS=
LIBRARYQUALITY=3
SPECTRUMID=CCMSLIB00000425435
SCANS=407
41.617 37.594 
59.428 100.0 
END IONS

BEGIN IONS
PEPMASS=170.093
CHARGE=1+
MSLEVEL=2
SOURCE_INSTRUMENT=Positive-Quattro_QQQ:40eV
FILENAME=hmdb_intermediate.mgf
SEQ=*..*
IONMODE=Positive
ORGANISM=HMDB
NAME=HMDB:HMDB00479-697 3-Methylhistidine M+H
PI=HMDB
DATACOLLECTOR=HMDB
SMILES=CN1C=NC=C1C[C@H](N)C(O)=O
INCHI=InChI=1S/C7H11N3O2/c1-10-4-9-3-5(10)2-6(8)7(11)12/h3-4,6H,2,8H2,1H3,(H,11,12)/t6-/m0/s1
INCHIAUX=N/A
PUBMED=N/A
SUBMITUSER=mwang87
TAGS=
LIBRARYQUALITY=3
SPECTRUMID=CCMSLIB00000425436
SCANS=408
42.098 19.271 
54.222 12.326 
55.323 12.5 
68.01 42.361 
81.024 17.882 
95.093 100.0 
108.999 3.689 
END IONS

BEGIN IONS
PEPMASS=89.0239
CHARGE=1+
MSLEVEL=2
SOURCE_INSTRUMENT=Negative-Quattro_QQQ:40eV
FILENAME=hmdb_intermediate.mgf
SEQ=*..*
IONMODE=Negative
ORGANISM=HMDB
NAME=HMDB:HMDB00190-303 L-Lactic acid M-H
PI=HMDB
DATACOLLECTOR=HMDB
SMILES=C[C@H](O)C(O)=O
INCHI=InChI=1S/C3H6O3/c1-2(4)3(5)6/h2,4H,1H3,(H,5,6)/t2-/m0/s1
INCHIAUX=N/A
PUBMED=N/A
SUBMITUSER=mwang87
TAGS=
LIBRARYQUALITY=3
SPECTRUMID=CCMSLIB00000425437
SCANS=409
43.564 50.725 
45.48 54.71 
89.153 100.0 
END IONS

BEGIN IONS
PEPMASS=171.024
CHARGE=1+
MSLEVEL=2
SOURCE_INSTRUMENT=Positive-Quattro_QQQ:25eV
FILENAME=hmdb_intermediate.mgf
SEQ=*..*
IONMODE=Positive
ORGANISM=HMDB
NAME=HMDB:HMDB01460-1587 Diethylthiophosphate M+H
PI=HMDB
DATACOLLECTOR=HMDB
SMILES=CCOP(O)(=S)OCC
INCHI=InChI=1S/C4H11O3PS/c1-3-6-8(5,9)7-4-2/h3-4H2,1-2H3,(H,5,9)
INCHIAUX=N/A
PUBMED=N/A
SUBMITUSER=mwang87
TAGS=
LIBRARYQUALITY=3
SPECTRUMID=CCMSLIB00000425438
SCANS=410
81.0 31.038 
97.0 100.0 
114.0 6.681 
115.0 56.633 
END IONS

BEGIN IONS
PEPMASS=338.212
CHARGE=1+
MSLEVEL=2
SOURCE_INSTRUMENT=Positive-Quattro_QQQ:40eV
FILENAME=hmdb_intermediate.mgf
SEQ=*..*
IONMODE=Positive
ORGANISM=HMDB
NAME=HMDB:HMDB02835-2148 Danazol M+H
PI=HMDB
DATACOLLECTOR=HMDB
SMILES=[H][C@@]12CC[C@@](O)(C#C)[C@@]1(C)CC[C@@]1([H])[C@@]2([H])CCC2=CC3=C(C[C@]12C)C=NO3
INCHI=InChI=1S/C22H27NO2/c1-4-22(24)10-8-18-16-6-5-15-11-19-14(13-23-25-19)12-20(15,2)17(16)7-9-21(18,22)3/h1,11,13,16-18,24H,5-10,12H2,2-3H3/t16-,17+,18+,20+,21+,22+/m1/s1
INCHIAUX=N/A
PUBMED=N/A
SUBMITUSER=mwang87
TAGS=
LIBRARYQUALITY=3
SPECTRUMID=CCMSLIB00000425439
SCANS=411
69.96 16.851 
76.964 23.531 
90.971 100.0 
120.273 18.572 
END IONS

BEGIN IONS
PEPMASS=90.0555
CHARGE=1+
MSLEVEL=2
SOURCE_INSTRUMENT=Positive-Quattro_QQQ:40eV
FILENAME=hmdb_intermediate.mgf
SEQ=*..*
IONMODE=Positive
ORGANISM=HMDB
NAME=HMDB:HMDB00056-92 Beta-Alanine M+H
PI=HMDB
DATACOLLECTOR=HMDB
SMILES=NCCC(O)=O
INCHI=InChI=1S/C3H7NO2/c4-2-1-3(5)6/h1-2,4H2,(H,5,6)
INCHIAUX=N/A
PUBMED=N/A
SUBMITUSER=mwang87
TAGS=
LIBRARYQUALITY=3
SPECTRUMID=CCMSLIB00000425440
SCANS=412
43.207 8.09 
45.143 100.0 
72.157 7.17 
89.888 44.785 
END IONS

BEGIN IONS
PEPMASS=103.04
CHARGE=1+
MSLEVEL=2
SOURCE_INSTRUMENT=Negative-Quattro_QQQ:10eV
FILENAME=hmdb_intermediate.mgf
SEQ=*..*
IONMODE=Negative
ORGANISM=HMDB
NAME=HMDB:HMDB00008-10 2-Hydroxybutyric acid M-H
PI=HMDB
DATACOLLECTOR=HMDB
SMILES=CCC(O)C(O)=O
INCHI=InChI=1S/C4H8O3/c1-2-3(5)4(6)7/h3,5H,2H2,1H3,(H,6,7)
INCHIAUX=N/A
PUBMED=N/A
SUBMITUSER=mwang87
TAGS=
LIBRARYQUALITY=3
SPECTRUMID=CCMSLIB00000425441
SCANS=413
45.59 36.923 
57.508 93.846 
103.272 100.0 
END IONS

BEGIN IONS
PEPMASS=147.126
CHARGE=1+
MSLEVEL=2
SOURCE_INSTRUMENT=Positive-Quattro_QQQ:40eV
FILENAME=hmdb_intermediate.mgf
SEQ=*..*
IONMODE=Positive
ORGANISM=HMDB
NAME=HMDB:HMDB00895-1264 Acetylcholine  M+H
PI=HMDB
DATACOLLECTOR=HMDB
SMILES=CC(=O)OCC[N+](C)(C)C
INCHI=InChI=1S/C7H16NO2/c1-7(9)10-6-5-8(2,3)4/h5-6H2,1-4H3/q+1
INCHIAUX=N/A
PUBMED=N/A
SUBMITUSER=mwang87
TAGS=
LIBRARYQUALITY=3
SPECTRUMID=CCMSLIB00000425442
SCANS=414
43.0 100.0 
59.0 13.019 
87.0 29.758 
147.0 9.783 
END IONS

BEGIN IONS
PEPMASS=113.035
CHARGE=1+
MSLEVEL=2
SOURCE_INSTRUMENT=Positive-Quattro_QQQ:25eV
FILENAME=hmdb_intermediate.mgf
SEQ=*..*
IONMODE=Positive
ORGANISM=HMDB
NAME=HMDB:HMDB00300-511 Uracil M+H
PI=HMDB
DATACOLLECTOR=HMDB
SMILES=O=C1NC=CC(=O)N1
INCHI=InChI=1S/C4H4N2O2/c7-3-1-2-5-4(8)6-3/h1-2H,(H2,5,6,7,8)
INCHIAUX=N/A
PUBMED=N/A
SUBMITUSER=mwang87
TAGS=
LIBRARYQUALITY=3
SPECTRUMID=CCMSLIB00000425443
SCANS=415
40.322 47.531 
53.081 11.574 
70.086 100.0 
95.857 81.481 
112.835 31.79 
END IONS

BEGIN IONS
PEPMASS=212.002
CHARGE=1+
MSLEVEL=2
SOURCE_INSTRUMENT=Negative-Quattro_QQQ:10eV
FILENAME=hmdb_intermediate.mgf
SEQ=*..*
IONMODE=Negative
ORGANISM=HMDB
NAME=HMDB:HMDB00682-945 Indoxyl sulfate M-H
PI=HMDB
DATACOLLECTOR=HMDB
SMILES=OS(=O)(=O)OC1=CNC2=CC=CC=C12
INCHI=InChI=1S/C8H7NO4S/c10-14(11,12)13-8-5-9-7-4-2-1-3-6(7)8/h1-5,9H,(H,10,11,12)
INCHIAUX=N/A
PUBMED=N/A
SUBMITUSER=mwang87
TAGS=
LIBRARYQUALITY=3
SPECTRUMID=CCMSLIB00000425444
SCANS=416
81.139 21.649 
132.158 3.827 
212.013 100.0 
END IONS

BEGIN IONS
PEPMASS=144.066
CHARGE=1+
MSLEVEL=2
SOURCE_INSTRUMENT=Positive-Quattro_QQQ:25eV
FILENAME=hmdb_intermediate.mgf
SEQ=*..*
IONMODE=Positive
ORGANISM=HMDB
NAME=HMDB:HMDB00894-1260 Vinylacetylglycine M+H
PI=HMDB
DATACOLLECTOR=HMDB
SMILES=OC(=O)CNC(=O)CC=C
INCHI=InChI=1S/C6H9NO3/c1-2-3-5(8)7-4-6(9)10/h2H,1,3-4H2,(H,7,8)(H,9,10)
INCHIAUX=N/A
PUBMED=N/A
SUBMITUSER=mwang87
TAGS=
LIBRARYQUALITY=3
SPECTRUMID=CCMSLIB00000425445
SCANS=417
62.03 8.287 
68.99 100.0 
89.92 88.335 
END IONS

BEGIN IONS
PEPMASS=91.0031
CHARGE=1+
MSLEVEL=2
SOURCE_INSTRUMENT=Positive-Quattro_QQQ:25eV
FILENAME=hmdb_intermediate.mgf
SEQ=*..*
IONMODE=Positive
ORGANISM=HMDB
NAME=HMDB:HMDB02329-2062 Oxalic acid M+H
PI=HMDB
DATACOLLECTOR=HMDB
SMILES=OC(=O)C(O)=O
INCHI=InChI=1S/C2H2O4/c3-1(4)2(5)6/h(H,3,4)(H,5,6)
INCHIAUX=N/A
PUBMED=N/A
SUBMITUSER=mwang87
TAGS=
LIBRARYQUALITY=3
SPECTRUMID=CCMSLIB00000425446
SCANS=418
52.8 69.4444464699 
55.0 49.9999927083 
73.1 100.0 
END IONS

BEGIN IONS
PEPMASS=165.055
CHARGE=1+
MSLEVEL=2
SOURCE_INSTRUMENT=Positive-Quattro_QQQ:40eV
FILENAME=hmdb_intermediate.mgf
SEQ=*..*
IONMODE=Positive
ORGANISM=HMDB
NAME=HMDB:HMDB00205-330 Phenylpyruvic acid M+H
PI=HMDB
DATACOLLECTOR=HMDB
SMILES=OC(=O)C(=O)CC1=CC=CC=C1
INCHI=InChI=1S/C9H8O3/c10-8(9(11)12)6-7-4-2-1-3-5-7/h1-5H,6H2,(H,11,12)
INCHIAUX=N/A
PUBMED=N/A
SUBMITUSER=mwang87
TAGS=
LIBRARYQUALITY=3
SPECTRUMID=CCMSLIB00000425447
SCANS=419
51.0 22.122 
77.0 100.0 
END IONS

BEGIN IONS
PEPMASS=159.041
CHARGE=1+
MSLEVEL=2
SOURCE_INSTRUMENT=Positive-Quattro_QQQ:40eV
FILENAME=hmdb_intermediate.mgf
SEQ=*..*
IONMODE=Positive
ORGANISM=HMDB
NAME=HMDB:HMDB00528-748 4,5-Dihydroorotic acid M+H
PI=HMDB
DATACOLLECTOR=HMDB
SMILES=OC(=O)C1CC(=O)NC(=O)N1
INCHI=InChI=1S/C5H6N2O4/c8-3-1-2(4(9)10)6-5(11)7-3/h2H,1H2,(H,9,10)(H2,6,7,8,11)
INCHIAUX=N/A
PUBMED=N/A
SUBMITUSER=mwang87
TAGS=
LIBRARYQUALITY=3
SPECTRUMID=CCMSLIB00000425448
SCANS=420
43.263 100.0 
53.185 48.214 
61.172 15.179 
70.205 86.31 
81.003 8.147 
85.133 30.952 
98.96 38.095 
113.021 15.923 
158.98 14.583 
END IONS

BEGIN IONS
PEPMASS=151.112
CHARGE=1+
MSLEVEL=2
SOURCE_INSTRUMENT=Positive-Quattro_QQQ:10eV
FILENAME=hmdb_intermediate.mgf
SEQ=*..*
IONMODE=Positive
ORGANISM=HMDB
NAME=HMDB:HMDB01878-1774 Thymol M+H
PI=HMDB
DATACOLLECTOR=HMDB
SMILES=CC(C)C1=C(O)C=C(C)C=C1
INCHI=InChI=1S/C10H14O/c1-7(2)9-5-4-8(3)6-10(9)11/h4-7,11H,1-3H3
INCHIAUX=N/A
PUBMED=N/A
SUBMITUSER=mwang87
TAGS=
LIBRARYQUALITY=3
SPECTRUMID=CCMSLIB00000425449
SCANS=421
69.131 30.277 
89.474 100.0 
97.962 34.924 
110.693 71.717 
123.674 19.169 
128.417 19.587 
150.76 51.555 
END IONS

BEGIN IONS
PEPMASS=201.113
CHARGE=1+
MSLEVEL=2
SOURCE_INSTRUMENT=Negative-Quattro_QQQ:40eV
FILENAME=hmdb_intermediate.mgf
SEQ=*..*
IONMODE=Negative
ORGANISM=HMDB
NAME=HMDB:HMDB00792-1131 Sebacic acid M-H
PI=HMDB
DATACOLLECTOR=HMDB
SMILES=OC(=O)CCCCCCCCC(O)=O
INCHI=InChI=1S/C10H18O4/c11-9(12)7-5-3-1-2-4-6-8-10(13)14/h1-8H2,(H,11,12)(H,13,14)
INCHIAUX=N/A
PUBMED=N/A
SUBMITUSER=mwang87
TAGS=
LIBRARYQUALITY=3
SPECTRUMID=CCMSLIB00000425450
SCANS=422
41.314 25.617 
54.215 46.914 
57.22 64.815 
69.131 7.562 
83.126 14.352 
110.995 9.838 
139.03 14.198 
183.076 61.728 
201.131 100.0 
END IONS

BEGIN IONS
PEPMASS=99.081
CHARGE=1+
MSLEVEL=2
SOURCE_INSTRUMENT=Positive-Quattro_QQQ:40eV
FILENAME=hmdb_intermediate.mgf
SEQ=*..*
IONMODE=Positive
ORGANISM=HMDB
NAME=HMDB:HMDB03315-2241 Cyclohexanone M+H
PI=HMDB
DATACOLLECTOR=HMDB
SMILES=O=C1CCCCC1
INCHI=InChI=1S/C6H10O/c7-6-4-2-1-3-5-6/h1-5H2
INCHIAUX=N/A
PUBMED=N/A
SUBMITUSER=mwang87
TAGS=
LIBRARYQUALITY=3
SPECTRUMID=CCMSLIB00000425451
SCANS=423
31.23 64.306 
41.14 100.0 
53.08 21.039 
55.04 20.698 
END IONS

BEGIN IONS
PEPMASS=190.072
CHARGE=1+
MSLEVEL=2
SOURCE_INSTRUMENT=Positive-Quattro_QQQ:40eV
FILENAME=hmdb_intermediate.mgf
SEQ=*..*
IONMODE=Positive
ORGANISM=HMDB
NAME=HMDB:HMDB01138-1432 N-Acetylglutamic acid M+H
PI=HMDB
DATACOLLECTOR=HMDB
SMILES=CC(=O)NC(CCC(O)=O)C(O)=O
INCHI=InChI=1S/C7H11NO5/c1-4(9)8-5(7(12)13)2-3-6(10)11/h5H,2-3H2,1H3,(H,8,9)(H,10,11)(H,12,13)
INCHIAUX=N/A
PUBMED=N/A
SUBMITUSER=mwang87
TAGS=
LIBRARYQUALITY=3
SPECTRUMID=CCMSLIB00000425452
SCANS=424
43.366 40.422 
56.198 75.394 
84.38 100.0 
84.505 76.969 
129.171 10.247 
END IONS

BEGIN IONS
PEPMASS=288.217
CHARGE=1+
MSLEVEL=2
SOURCE_INSTRUMENT=Positive-Quattro_QQQ:10eV
FILENAME=hmdb_intermediate.mgf
SEQ=*..*
IONMODE=Positive
ORGANISM=HMDB
NAME=HMDB:HMDB00791-1126 L-Octanoylcarnitine M+H
PI=HMDB
DATACOLLECTOR=HMDB
SMILES=CCCCCCCC(=O)O[C@H](CC([O-])=O)C[N+](C)(C)C
INCHI=InChI=1S/C15H29NO4/c1-5-6-7-8-9-10-15(19)20-13(11-14(17)18)12-16(2,3)4/h13H,5-12H2,1-4H3/t13-/m1/s1
INCHIAUX=N/A
PUBMED=N/A
SUBMITUSER=mwang87
TAGS=
LIBRARYQUALITY=3
SPECTRUMID=CCMSLIB00000425453
SCANS=425
60.455 16.633 
85.267 79.681 
127.205 7.072 
144.219 1.917 
229.098 31.873 
288.201 100.0 
END IONS

BEGIN IONS
PEPMASS=297.185
CHARGE=1+
MSLEVEL=2
SOURCE_INSTRUMENT=Positive-Quattro_QQQ:25eV
FILENAME=hmdb_intermediate.mgf
SEQ=*..*
IONMODE=Positive
ORGANISM=HMDB
NAME=HMDB:HMDB01926-1858 17a-Ethynylestradiol M+H
PI=HMDB
DATACOLLECTOR=HMDB
SMILES=[H][C@@]12CC[C@@](O)(C#C)[C@@]1(C)CC[C@]1([H])C3=CC=C(O)C=C3CC[C@@]21[H]
INCHI=InChI=1S/C20H24O2/c1-3-20(22)11-9-18-17-6-4-13-12-14(21)5-7-15(13)16(17)8-10-19(18,20)2/h1,5,7,12,16-18,21-22H,4,6,8-11H2,2H3/t16-,17-,18+,19+,20+/m1/s1
INCHIAUX=N/A
PUBMED=N/A
SUBMITUSER=mwang87
TAGS=
LIBRARYQUALITY=3
SPECTRUMID=CCMSLIB00000425454
SCANS=426
119.043 29.605 
161.312 52.632 
173.576 39.474 
184.505 100.0 
198.651 47.368 
216.014 55.921 
238.859 45.395 
251.157 50.0 
278.791 53.947 
END IONS

BEGIN IONS
PEPMASS=149.081
CHARGE=1+
MSLEVEL=2
SOURCE_INSTRUMENT=Positive-Quattro_QQQ:40eV
FILENAME=hmdb_intermediate.mgf
SEQ=*..*
IONMODE=Positive
ORGANISM=HMDB
NAME=HMDB:HMDB00227-378 Mevalonic acid M+H
PI=HMDB
DATACOLLECTOR=HMDB
SMILES=CC(O)(CCO)CC(O)=O
INCHI=InChI=1S/C6H12O4/c1-6(10,2-3-7)4-5(8)9/h7,10H,2-4H2,1H3,(H,8,9)
INCHIAUX=N/A
PUBMED=N/A
SUBMITUSER=mwang87
TAGS=
LIBRARYQUALITY=3
SPECTRUMID=CCMSLIB00000425455
SCANS=427
53.046 12.013 
62.785 7.143 
67.085 100.0 
77.246 12.825 
94.298 6.737 
107.613 10.877 
148.918 5.357 
END IONS

BEGIN IONS
PEPMASS=130.05
CHARGE=1+
MSLEVEL=2
SOURCE_INSTRUMENT=Positive-Quattro_QQQ:25eV
FILENAME=hmdb_intermediate.mgf
SEQ=*..*
IONMODE=Positive
ORGANISM=HMDB
NAME=HMDB:HMDB00267-464 Pyroglutamic acid M+H
PI=HMDB
DATACOLLECTOR=HMDB
SMILES=OC(=O)[C@@H]1CCC(=O)N1
INCHI=InChI=1S/C5H7NO3/c7-4-2-1-3(6-4)5(8)9/h3H,1-2H2,(H,6,7)(H,8,9)/t3-/m0/s1
INCHIAUX=N/A
PUBMED=N/A
SUBMITUSER=mwang87
TAGS=
LIBRARYQUALITY=3
SPECTRUMID=CCMSLIB00000425456
SCANS=428
41.361 28.012 
56.226 53.614 
84.098 100.0 
129.875 4.688 
END IONS

BEGIN IONS
PEPMASS=313.311
CHARGE=1+
MSLEVEL=2
SOURCE_INSTRUMENT=Positive-Quattro_QQQ:10eV
FILENAME=hmdb_intermediate.mgf
SEQ=*..*
IONMODE=Positive
ORGANISM=HMDB
NAME=HMDB:HMDB02212-2034 Arachidic acid M+H
PI=HMDB
DATACOLLECTOR=HMDB
SMILES=CCCCCCCCCCCCCCCCCCCC(O)=O
INCHI=InChI=1S/C20H40O2/c1-2-3-4-5-6-7-8-9-10-11-12-13-14-15-16-17-18-19-20(21)22/h2-19H2,1H3,(H,21,22)
INCHIAUX=N/A
PUBMED=N/A
SUBMITUSER=mwang87
TAGS=
LIBRARYQUALITY=3
SPECTRUMID=CCMSLIB00000425457
SCANS=429
56.0 1.703 
71.0 1.929 
84.0 2.001 
89.0 2.411 
167.0 1.65 
188.0 6.085 
210.0 1.555 
240.0 1.978 
248.0 17.511 
280.0 4.846 
312.0 100.0 
END IONS

BEGIN IONS
PEPMASS=189.124
CHARGE=1+
MSLEVEL=2
SOURCE_INSTRUMENT=Positive-Quattro_QQQ:40eV
FILENAME=hmdb_intermediate.mgf
SEQ=*..*
IONMODE=Positive
ORGANISM=HMDB
NAME=HMDB:HMDB00446-652 N-Alpha-acetyllysine M+H
PI=HMDB
DATACOLLECTOR=HMDB
SMILES=CC(=O)NC(CCCCN)C(O)=O
INCHI=InChI=1S/C8H16N2O3/c1-6(11)10-7(8(12)13)4-2-3-5-9/h7H,2-5,9H2,1H3,(H,10,11)(H,12,13)
INCHIAUX=N/A
PUBMED=N/A
SUBMITUSER=mwang87
TAGS=
LIBRARYQUALITY=3
SPECTRUMID=CCMSLIB00000425458
SCANS=430
43.0 19.73 
56.0 32.72 
67.0 10.503 
84.0 100.0 
129.0 2.71 
189.0 3.182 
END IONS

BEGIN IONS
PEPMASS=786.165
CHARGE=1+
MSLEVEL=2
SOURCE_INSTRUMENT=Positive-Quattro_QQQ:25eV
FILENAME=hmdb_intermediate.mgf
SEQ=*..*
IONMODE=Positive
ORGANISM=HMDB
NAME=HMDB:HMDB01248-1482 FAD M+H
PI=HMDB
DATACOLLECTOR=HMDB
SMILES=CC1=CC2=C(C=C1C)N(C[C@H](O)[C@H](O)[C@H](O)COP(O)(=O)OP(O)(=O)OC[C@H]1O[C@H]([C@H](O)[C@@H]1O)N1C=NC3=C1N=CN=C3N)C1=NC(=O)NC(=O)C1=N2
INCHI=InChI=1S/C27H33N9O15P2/c1-10-3-12-13(4-11(10)2)35(24-18(32-12)25(42)34-27(43)33-24)5-14(37)19(39)15(38)6-48-52(44,45)51-53(46,47)49-7-16-20(40)21(41)26(50-16)36-9-31-17-22(28)29-8-30-23(17)36/h3-4,8-9,14-16,19-21,26,37-41H,5-7H2,1-2H3,(H,44,45)(H,46,47)(H2,28,29,30)(H,34,42,43)/t14-,15+,16+,19-,20+,21+,26+/m0/s1
INCHIAUX=N/A
PUBMED=N/A
SUBMITUSER=mwang87
TAGS=
LIBRARYQUALITY=3
SPECTRUMID=CCMSLIB00000425459
SCANS=431
135.0 16.345 
348.0 49.803 
439.0 100.0 
END IONS

BEGIN IONS
PEPMASS=115.003
CHARGE=1+
MSLEVEL=2
SOURCE_INSTRUMENT=Negative-Quattro_QQQ:40eV
FILENAME=hmdb_intermediate.mgf
SEQ=*..*
IONMODE=Negative
ORGANISM=HMDB
NAME=HMDB:HMDB00176-282 Maleic acid M-H
PI=HMDB
DATACOLLECTOR=HMDB
SMILES=OC(=O)\C=C/C(O)=O
INCHI=InChI=1S/C4H4O4/c5-3(6)1-2-4(7)8/h1-2H,(H,5,6)(H,7,8)/b2-1-
INCHIAUX=N/A
PUBMED=N/A
SUBMITUSER=mwang87
TAGS=
LIBRARYQUALITY=3
SPECTRUMID=CCMSLIB00000425460
SCANS=432
45.268 3.966 
70.946 100.0 
113.748 19.808 
114.927 59.615 
END IONS

BEGIN IONS
PEPMASS=77.0603
CHARGE=1+
MSLEVEL=2
SOURCE_INSTRUMENT=Positive-Quattro_QQQ:25eV
FILENAME=hmdb_intermediate.mgf
SEQ=*..*
IONMODE=Positive
ORGANISM=HMDB
NAME=HMDB:HMDB01881-1781 Propylene glycol M+H
PI=HMDB
DATACOLLECTOR=HMDB
SMILES=CC(O)CO
INCHI=InChI=1S/C3H8O2/c1-3(5)2-4/h3-5H,2H2,1H3
INCHIAUX=N/A
PUBMED=N/A
SUBMITUSER=mwang87
TAGS=
LIBRARYQUALITY=3
SPECTRUMID=CCMSLIB00000425461
SCANS=433
19.141 24.287 
31.257 78.48 
41.766 100.0 
45.722 75.627 
59.074 74.591 
78.238 91.96 
146.614 28.697 
END IONS

BEGIN IONS
PEPMASS=301.18
CHARGE=1+
MSLEVEL=2
SOURCE_INSTRUMENT=Positive-Quattro_QQQ:25eV
FILENAME=hmdb_intermediate.mgf
SEQ=*..*
IONMODE=Positive
ORGANISM=HMDB
NAME=HMDB:HMDB00010-14 2-Methoxyestrone M+H
PI=HMDB
DATACOLLECTOR=HMDB
SMILES=[H][C@@]12CCC(=O)[C@@]1(C)CC[C@]1([H])C3=C(CC[C@@]21[H])C=C(O)C(OC)=C3
INCHI=InChI=1S/C19H24O3/c1-19-8-7-12-13(15(19)5-6-18(19)21)4-3-11-9-16(20)17(22-2)10-14(11)12/h9-10,12-13,15,20H,3-8H2,1-2H3/t12-,13+,15-,19-/m0/s1
INCHIAUX=N/A
PUBMED=N/A
SUBMITUSER=mwang87
TAGS=
LIBRARYQUALITY=3
SPECTRUMID=CCMSLIB00000425462
SCANS=434
81.0 14.915 
93.0 8.695 
107.0 9.696 
131.0 30.832 
137.0 75.766 
151.0 10.433 
163.0 98.421 
175.0 11.323 
187.0 100.0 
195.0 9.787 
211.0 20.758 
223.0 9.275 
227.0 34.113 
241.0 9.163 
251.0 8.267 
283.0 16.014 
END IONS

BEGIN IONS
PEPMASS=167.034
CHARGE=1+
MSLEVEL=2
SOURCE_INSTRUMENT=Negative-Quattro_QQQ:25eV
FILENAME=hmdb_intermediate.mgf
SEQ=*..*
IONMODE=Negative
ORGANISM=HMDB
NAME=HMDB:HMDB00484-702 Vanillic acid M-H
PI=HMDB
DATACOLLECTOR=HMDB
SMILES=COC1=CC(=CC=C1O)C(O)=O
INCHI=InChI=1S/C8H8O4/c1-12-7-4-5(8(10)11)2-3-6(7)9/h2-4,9H,1H3,(H,10,11)
INCHIAUX=N/A
PUBMED=N/A
SUBMITUSER=mwang87
TAGS=
LIBRARYQUALITY=3
SPECTRUMID=CCMSLIB00000425463
SCANS=435
107.953 100.0 
151.804 5.878 
166.791 1.674 
END IONS

BEGIN IONS
PEPMASS=45.034
CHARGE=1+
MSLEVEL=2
SOURCE_INSTRUMENT=Positive-Quattro_QQQ:10eV
FILENAME=hmdb_intermediate.mgf
SEQ=*..*
IONMODE=Positive
ORGANISM=HMDB
NAME=HMDB:HMDB00990-1378 Acetaldehyde M+H
PI=HMDB
DATACOLLECTOR=HMDB
SMILES=CC=O
INCHI=InChI=1S/C2H4O/c1-2-3/h2H,1H3
INCHIAUX=N/A
PUBMED=N/A
SUBMITUSER=mwang87
TAGS=
LIBRARYQUALITY=3
SPECTRUMID=CCMSLIB00000425464
SCANS=436
30.661 54.056 
44.071 36.948 
45.826 100.0 
END IONS

BEGIN IONS
PEPMASS=115.051
CHARGE=1+
MSLEVEL=2
SOURCE_INSTRUMENT=Positive-Quattro_QQQ:25eV
FILENAME=hmdb_intermediate.mgf
SEQ=*..*
IONMODE=Positive
ORGANISM=HMDB
NAME=HMDB:HMDB00076-124 Dihydrouracil M+H
PI=HMDB
DATACOLLECTOR=HMDB
SMILES=O=C1CCNC(=O)N1
INCHI=InChI=1S/C4H6N2O2/c7-3-1-2-5-4(8)6-3/h1-2H2,(H2,5,6,7,8)
INCHIAUX=N/A
PUBMED=N/A
SUBMITUSER=mwang87
TAGS=
LIBRARYQUALITY=3
SPECTRUMID=CCMSLIB00000425465
SCANS=437
44.283 20.408 
55.198 100.0 
72.788 22.449 
97.936 4.066 
114.856 28.827 
END IONS

BEGIN IONS
PEPMASS=483.992
CHARGE=1+
MSLEVEL=2
SOURCE_INSTRUMENT=Positive-Quattro_QQQ:10eV
FILENAME=hmdb_intermediate.mgf
SEQ=*..*
IONMODE=Positive
ORGANISM=HMDB
NAME=HMDB:HMDB00082-132 Cytidine triphosphate M+H
PI=HMDB
DATACOLLECTOR=HMDB
SMILES=NC1=NC(=O)N(C=C1)[C@@H]1O[C@H](COP(O)(=O)OP(O)(=O)OP(O)(O)=O)[C@@H](O)[C@H]1O
INCHI=InChI=1S/C9H16N3O14P3/c10-5-1-2-12(9(15)11-5)8-7(14)6(13)4(24-8)3-23-28(19,20)26-29(21,22)25-27(16,17)18/h1-2,4,6-8,13-14H,3H2,(H,19,20)(H,21,22)(H2,10,11,15)(H2,16,17,18)/t4-,6-,7-,8-/m1/s1
INCHIAUX=N/A
PUBMED=N/A
SUBMITUSER=mwang87
TAGS=
LIBRARYQUALITY=3
SPECTRUMID=CCMSLIB00000425466
SCANS=438
56.315 44.898 
66.256 44.898 
81.106 44.898 
86.015 44.898 
105.898 48.98 
126.149 57.143 
150.943 53.061 
158.308 42.857 
190.96 44.898 
225.947 55.102 
240.802 57.143 
260.936 51.02 
265.847 46.939 
278.371 44.898 
288.193 46.939 
318.276 46.939 
371.815 67.347 
376.113 71.429 
388.148 46.939 
400.675 48.98 
421.798 51.02 
425.851 51.02 
458.153 48.98 
467.242 100.0 
490.824 44.898 
END IONS

BEGIN IONS
PEPMASS=132.066
CHARGE=1+
MSLEVEL=2
SOURCE_INSTRUMENT=Positive-Quattro_QQQ:25eV
FILENAME=hmdb_intermediate.mgf
SEQ=*..*
IONMODE=Positive
ORGANISM=HMDB
NAME=HMDB:HMDB00725-1018 4-Hydroxyproline M+H
PI=HMDB
DATACOLLECTOR=HMDB
SMILES=O[C@H]1CN[C@@H](C1)C(O)=O
INCHI=InChI=1S/C5H9NO3/c7-3-1-4(5(8)9)6-2-3/h3-4,6-7H,1-2H2,(H,8,9)/t3-,4+/m1/s1
INCHIAUX=N/A
PUBMED=N/A
SUBMITUSER=mwang87
TAGS=
LIBRARYQUALITY=3
SPECTRUMID=CCMSLIB00000425467
SCANS=439
41.323 27.083 
58.179 18.676 
68.114 100.0 
86.026 65.774 
131.839 4.148 
END IONS

BEGIN IONS
PEPMASS=406.234
CHARGE=1+
MSLEVEL=2
SOURCE_INSTRUMENT=Positive-Quattro_QQQ:25eV
FILENAME=hmdb_intermediate.mgf
SEQ=*..*
IONMODE=Positive
ORGANISM=HMDB
NAME=HMDB:HMDB01938-1891 Lisinopril M+H
PI=HMDB
DATACOLLECTOR=HMDB
SMILES=NCCCC[C@H](N[C@@H](CCC1=CC=CC=C1)C(O)=O)C(=O)N1CCC[C@H]1C(O)=O
INCHI=InChI=1S/C21H31N3O5/c22-13-5-4-9-16(19(25)24-14-6-10-18(24)21(28)29)23-17(20(26)27)12-11-15-7-2-1-3-8-15/h1-3,7-8,16-18,23H,4-6,9-14,22H2,(H,26,27)(H,28,29)/t16-,17-,18-/m0/s1
INCHIAUX=N/A
PUBMED=N/A
SUBMITUSER=mwang87
TAGS=
LIBRARYQUALITY=3
SPECTRUMID=CCMSLIB00000425468
SCANS=440
83.851 100.0 
84.592 76.471 
200.281 12.027 
245.878 40.336 
END IONS

BEGIN IONS
PEPMASS=159.139
CHARGE=1+
MSLEVEL=2
SOURCE_INSTRUMENT=Positive-Quattro_QQQ:40eV
FILENAME=hmdb_intermediate.mgf
SEQ=*..*
IONMODE=Positive
ORGANISM=HMDB
NAME=HMDB:HMDB00847-1195 Pelargonic acid M+H
PI=HMDB
DATACOLLECTOR=HMDB
SMILES=CCCCCCCCC(O)=O
INCHI=InChI=1S/C9H18O2/c1-2-3-4-5-6-7-8-9(10)11/h2-8H2,1H3,(H,10,11)
INCHIAUX=N/A
PUBMED=N/A
SUBMITUSER=mwang87
TAGS=
LIBRARYQUALITY=3
SPECTRUMID=CCMSLIB00000425469
SCANS=441
29.0 54.564 
41.0 100.0 
54.0 24.152 
55.0 13.564 
END IONS

BEGIN IONS
PEPMASS=194.082
CHARGE=1+
MSLEVEL=2
SOURCE_INSTRUMENT=Positive-Quattro_QQQ:10eV
FILENAME=hmdb_intermediate.mgf
SEQ=*..*
IONMODE=Positive
ORGANISM=HMDB
NAME=HMDB:HMDB00821-1170 Phenylacetylglycine M+H
PI=HMDB
DATACOLLECTOR=HMDB
SMILES=OC(=O)CNC(=O)CC1=CC=CC=C1
INCHI=InChI=1S/C10H11NO3/c12-9(11-7-10(13)14)6-8-4-2-1-3-5-8/h1-5H,6-7H2,(H,11,12)(H,13,14)
INCHIAUX=N/A
PUBMED=N/A
SUBMITUSER=mwang87
TAGS=
LIBRARYQUALITY=3
SPECTRUMID=CCMSLIB00000425470
SCANS=442
76.0 100.0 
91.0 40.659 
119.0 5.157 
148.0 2.039 
176.0 1.91 
194.0 13.373 
END IONS

BEGIN IONS
PEPMASS=291.232
CHARGE=1+
MSLEVEL=2
SOURCE_INSTRUMENT=Positive-Quattro_QQQ:10eV
FILENAME=hmdb_intermediate.mgf
SEQ=*..*
IONMODE=Positive
ORGANISM=HMDB
NAME=HMDB:HMDB00490-707 Etiocholanolone M+H
PI=HMDB
DATACOLLECTOR=HMDB
SMILES=[H][C@@]12CCC(=O)[C@@]1(C)CC[C@@]1([H])[C@@]2([H])CC[C@]2([H])C[C@H](O)CC[C@]12C
INCHI=InChI=1S/C19H30O2/c1-18-9-7-13(20)11-12(18)3-4-14-15-5-6-17(21)19(15,2)10-8-16(14)18/h12-16,20H,3-11H2,1-2H3/t12-,13-,14+,15+,16+,18+,19+/m1/s1
INCHIAUX=N/A
PUBMED=N/A
SUBMITUSER=mwang87
TAGS=
LIBRARYQUALITY=3
SPECTRUMID=CCMSLIB00000425471
SCANS=443
59.514 12.222 
73.479 10.055 
75.58 11.141 
95.601 10.6 
106.972 14.39 
124.769 11.681 
137.129 11.409 
192.999 10.055 
208.699 37.147 
215.003 16.016 
224.522 29.562 
246.281 100.0 
259.138 57.467 
265.073 11.954 
291.902 58.821 
END IONS

BEGIN IONS
PEPMASS=167.034
CHARGE=1+
MSLEVEL=2
SOURCE_INSTRUMENT=Positive-Quattro_QQQ:25eV
FILENAME=hmdb_intermediate.mgf
SEQ=*..*
IONMODE=Positive
ORGANISM=HMDB
NAME=HMDB:HMDB02107-2005 Phthalic acid M+H
PI=HMDB
DATACOLLECTOR=HMDB
SMILES=OC(=O)C1=CC=CC=C1C(O)=O
INCHI=InChI=1S/C8H6O4/c9-7(10)5-3-1-2-4-6(5)8(11)12/h1-4H,(H,9,10)(H,11,12)
INCHIAUX=N/A
PUBMED=N/A
SUBMITUSER=mwang87
TAGS=
LIBRARYQUALITY=3
SPECTRUMID=CCMSLIB00000425472
SCANS=444
65.0 89.389 
93.0 100.0 
121.0 45.567 
149.0 47.866 
END IONS

BEGIN IONS
PEPMASS=227.128
CHARGE=1+
MSLEVEL=2
SOURCE_INSTRUMENT=Negative-Quattro_QQQ:40eV
FILENAME=hmdb_intermediate.mgf
SEQ=*..*
IONMODE=Negative
ORGANISM=HMDB
NAME=HMDB:HMDB00933-1329 Traumatic acid M-H
PI=HMDB
DATACOLLECTOR=HMDB
SMILES=OC(=O)CCCCCCCC\C=C\C(O)=O
INCHI=InChI=1S/C12H20O4/c13-11(14)9-7-5-3-1-2-4-6-8-10-12(15)16/h7,9H,1-6,8,10H2,(H,13,14)(H,15,16)/b9-7+
INCHIAUX=N/A
PUBMED=N/A
SUBMITUSER=mwang87
TAGS=
LIBRARYQUALITY=3
SPECTRUMID=CCMSLIB00000425473
SCANS=445
56.23 86.962 
68.35 85.256 
92.09 47.403 
104.71 43.651 
127.88 50.813 
157.55 100.0 
196.83 80.482 
END IONS

BEGIN IONS
PEPMASS=81.0453
CHARGE=1+
MSLEVEL=2
SOURCE_INSTRUMENT=Positive-Quattro_QQQ:25eV
FILENAME=hmdb_intermediate.mgf
SEQ=*..*
IONMODE=Positive
ORGANISM=HMDB
NAME=HMDB:HMDB03361-2266 Pyrimidine M+H
PI=HMDB
DATACOLLECTOR=HMDB
SMILES=C1=CN=CN=C1
INCHI=InChI=1S/C4H4N2/c1-2-5-4-6-3-1/h1-4H
INCHIAUX=N/A
PUBMED=N/A
SUBMITUSER=mwang87
TAGS=
LIBRARYQUALITY=3
SPECTRUMID=CCMSLIB00000425474
SCANS=446
28.18 35.852 
54.05 100.0 
80.83 36.603 
END IONS

BEGIN IONS
PEPMASS=134.045
CHARGE=1+
MSLEVEL=2
SOURCE_INSTRUMENT=Positive-Quattro_QQQ:40eV
FILENAME=hmdb_intermediate.mgf
SEQ=*..*
IONMODE=Positive
ORGANISM=HMDB
NAME=HMDB:HMDB06483-2489 D-Aspartic acid M+H
PI=HMDB
DATACOLLECTOR=HMDB
SMILES=N[C@H](CC(O)=O)C(O)=O
INCHI=InChI=1S/C4H7NO4/c5-2(4(8)9)1-3(6)7/h2H,1,5H2,(H,6,7)(H,8,9)/t2-/m1/s1
INCHIAUX=N/A
PUBMED=N/A
SUBMITUSER=mwang87
TAGS=
LIBRARYQUALITY=3
SPECTRUMID=CCMSLIB00000425475
SCANS=447
74.04 100.0 
88.02 39.3062540396 
END IONS

BEGIN IONS
PEPMASS=129.019
CHARGE=1+
MSLEVEL=2
SOURCE_INSTRUMENT=Negative-Quattro_QQQ:10eV
FILENAME=hmdb_intermediate.mgf
SEQ=*..*
IONMODE=Negative
ORGANISM=HMDB
NAME=HMDB:HMDB00634-864 Citraconic acid M-H
PI=HMDB
DATACOLLECTOR=HMDB
SMILES=C\C(=C\C(O)=O)C(O)=O
INCHI=InChI=1S/C5H6O4/c1-3(5(8)9)2-4(6)7/h2H,1H3,(H,6,7)(H,8,9)/b3-2-
INCHIAUX=N/A
PUBMED=N/A
SUBMITUSER=mwang87
TAGS=
LIBRARYQUALITY=3
SPECTRUMID=CCMSLIB00000425476
SCANS=448
41.691 15.625 
85.326 100.0 
129.166 17.292 
END IONS

BEGIN IONS
PEPMASS=111.008
CHARGE=1+
MSLEVEL=2
SOURCE_INSTRUMENT=Negative-Quattro_QQQ:25eV
FILENAME=hmdb_intermediate.mgf
SEQ=*..*
IONMODE=Negative
ORGANISM=HMDB
NAME=HMDB:HMDB00617-832 2-Furoic acid M-H
PI=HMDB
DATACOLLECTOR=HMDB
SMILES=OC(=O)C1=CC=CO1
INCHI=InChI=1S/C5H4O3/c6-5(7)4-2-1-3-8-4/h1-3H,(H,6,7)
INCHIAUX=N/A
PUBMED=N/A
SUBMITUSER=mwang87
TAGS=
LIBRARYQUALITY=3
SPECTRUMID=CCMSLIB00000425477
SCANS=449
41.266 32.813 
49.194 43.304 
67.065 100.0 
110.938 7.199 
END IONS

BEGIN IONS
PEPMASS=100.022
CHARGE=1+
MSLEVEL=2
SOURCE_INSTRUMENT=Positive-Quattro_QQQ:40eV
FILENAME=hmdb_intermediate.mgf
SEQ=*..*
IONMODE=Positive
ORGANISM=HMDB
NAME=HMDB:HMDB05843-2462 Allyl isothiocyanate M+H
PI=HMDB
DATACOLLECTOR=HMDB
SMILES=C=CCN=C=S
INCHI=InChI=1S/C4H5NS/c1-2-3-5-4-6/h2H,1,3H2
INCHIAUX=N/A
PUBMED=N/A
SUBMITUSER=mwang87
TAGS=
LIBRARYQUALITY=3
SPECTRUMID=CCMSLIB00000425478
SCANS=450
41.1 100.0 
END IONS

BEGIN IONS
PEPMASS=159.066
CHARGE=1+
MSLEVEL=2
SOURCE_INSTRUMENT=Positive-Quattro_QQQ:40eV
FILENAME=hmdb_intermediate.mgf
SEQ=*..*
IONMODE=Positive
ORGANISM=HMDB
NAME=HMDB:HMDB00635-869 Succinylacetone M+H
PI=HMDB
DATACOLLECTOR=HMDB
SMILES=CC(=O)CC(=O)CCC(O)=O
INCHI=InChI=1S/C7H10O4/c1-5(8)4-6(9)2-3-7(10)11/h2-4H2,1H3,(H,10,11)
INCHIAUX=N/A
PUBMED=N/A
SUBMITUSER=mwang87
TAGS=
LIBRARYQUALITY=3
SPECTRUMID=CCMSLIB00000425479
SCANS=451
43.18 12.991 
98.86 10.345 
140.83 13.685 
158.69 100.0 
END IONS

BEGIN IONS
PEPMASS=389.378
CHARGE=1+
MSLEVEL=2
SOURCE_INSTRUMENT=Positive-Quattro_QQQ:10eV
FILENAME=hmdb_intermediate.mgf
SEQ=*..*
IONMODE=Positive
ORGANISM=HMDB
NAME=HMDB:HMDB00908-1295 5alpha-Cholestanol M+H
PI=HMDB
DATACOLLECTOR=HMDB
SMILES=[H][C@@]1(CC[C@@]2([H])[C@]3([H])CC[C@@]4([H])C[C@@H](O)CC[C@]4(C)[C@@]3([H])CC[C@]12C)[C@H](C)CCCC(C)C
INCHI=InChI=1S/C27H48O/c1-18(2)7-6-8-19(3)23-11-12-24-22-10-9-20-17-21(28)13-15-26(20,4)25(22)14-16-27(23,24)5/h18-25,28H,6-17H2,1-5H3/t19-,20+,21+,22+,23-,24+,25+,26+,27-/m1/s1
INCHIAUX=N/A
PUBMED=N/A
SUBMITUSER=mwang87
TAGS=
LIBRARYQUALITY=3
SPECTRUMID=CCMSLIB00000425480
SCANS=452
46.0 35.952 
212.0 35.503 
356.0 36.425 
388.0 100.0 
END IONS

BEGIN IONS
PEPMASS=442.147
CHARGE=1+
MSLEVEL=2
SOURCE_INSTRUMENT=Positive-Quattro_QQQ:25eV
FILENAME=hmdb_intermediate.mgf
SEQ=*..*
IONMODE=Positive
ORGANISM=HMDB
NAME=HMDB:HMDB00121-175 Folic acid M+H
PI=HMDB
DATACOLLECTOR=HMDB
SMILES=NC1=NC(=O)C2=NC(CNC3=CC=C(C=C3)C(=O)N[C@@H](CCC(O)=O)C(O)=O)=CN=C2N1
INCHI=InChI=1S/C19H19N7O6/c20-19-25-15-14(17(30)26-19)23-11(8-22-15)7-21-10-3-1-9(2-4-10)16(29)24-12(18(31)32)5-6-13(27)28/h1-4,8,12,21H,5-7H2,(H,24,29)(H,27,28)(H,31,32)(H3,20,22,25,26,30)/t12-/m0/s1
INCHIAUX=N/A
PUBMED=N/A
SUBMITUSER=mwang87
TAGS=
LIBRARYQUALITY=3
SPECTRUMID=CCMSLIB00000425481
SCANS=453
294.42 27.663 
294.76 83.346 
442.54 100.0 
END IONS

BEGIN IONS
PEPMASS=553.237
CHARGE=1+
MSLEVEL=2
SOURCE_INSTRUMENT=Negative-Quattro_QQQ:25eV
FILENAME=hmdb_intermediate.mgf
SEQ=*..*
IONMODE=Negative
ORGANISM=HMDB
NAME=HMDB:HMDB03828-2344 D-Pantethine M-H
PI=HMDB
DATACOLLECTOR=HMDB
SMILES=CC(C)(CO)[C@@H](O)C(=O)NCCC(=O)NCCSSCCNC(=O)CCNC(=O)[C@H](O)C(C)(C)CO
INCHI=InChI=1S/C22H42N4O8S2/c1-21(2,13-27)17(31)19(33)25-7-5-15(29)23-9-11-35-36-12-10-24-16(30)6-8-26-20(34)18(32)22(3,4)14-28/h17-18,27-28,31-32H,5-14H2,1-4H3,(H,23,29)(H,24,30)(H,25,33)(H,26,34)/t17-,18-/m0/s1
INCHIAUX=N/A
PUBMED=N/A
SUBMITUSER=mwang87
TAGS=
LIBRARYQUALITY=3
SPECTRUMID=CCMSLIB00000425482
SCANS=454
127.0 6.779 
145.0 17.766 
216.0 6.418 
274.0 14.661 
275.0 100.0 
END IONS

BEGIN IONS
PEPMASS=201.113
CHARGE=1+
MSLEVEL=2
SOURCE_INSTRUMENT=Negative-Quattro_QQQ:25eV
FILENAME=hmdb_intermediate.mgf
SEQ=*..*
IONMODE=Negative
ORGANISM=HMDB
NAME=HMDB:HMDB00792-1130 Sebacic acid M-H
PI=HMDB
DATACOLLECTOR=HMDB
SMILES=OC(=O)CCCCCCCCC(O)=O
INCHI=InChI=1S/C10H18O4/c11-9(12)7-5-3-1-2-4-6-8-10(13)14/h1-8H2,(H,11,12)(H,13,14)
INCHIAUX=N/A
PUBMED=N/A
SUBMITUSER=mwang87
TAGS=
LIBRARYQUALITY=3
SPECTRUMID=CCMSLIB00000425483
SCANS=455
54.246 5.505 
57.22 70.861 
69.162 9.147 
83.095 9.52 
111.073 29.139 
139.069 49.007 
182.998 100.0 
200.67 30.629 
END IONS

BEGIN IONS
PEPMASS=126.103
CHARGE=1+
MSLEVEL=2
SOURCE_INSTRUMENT=Positive-Quattro_QQQ:10eV
FILENAME=hmdb_intermediate.mgf
SEQ=*..*
IONMODE=Positive
ORGANISM=HMDB
NAME=HMDB:HMDB01861-1738 3-Methylhistamine M+H
PI=HMDB
DATACOLLECTOR=HMDB
SMILES=CN1C=NC=C1CCN
INCHI=InChI=1S/C6H11N3/c1-9-5-8-4-6(9)2-3-7/h4-5H,2-3,7H2,1H3
INCHIAUX=N/A
PUBMED=N/A
SUBMITUSER=mwang87
TAGS=
LIBRARYQUALITY=3
SPECTRUMID=CCMSLIB00000425484
SCANS=456
96.458 37.036 
109.119 64.166 
126.001 100.0 
END IONS

BEGIN IONS
PEPMASS=166.054
CHARGE=1+
MSLEVEL=2
SOURCE_INSTRUMENT=Positive-Quattro_QQQ:25eV
FILENAME=hmdb_intermediate.mgf
SEQ=*..*
IONMODE=Positive
ORGANISM=HMDB
NAME=HMDB:HMDB02005-1942 Methionine sulfoxide M+H
PI=HMDB
DATACOLLECTOR=HMDB
SMILES=CS(=O)CCC(N)C(O)=O
INCHI=InChI=1S/C5H11NO3S/c1-10(9)3-2-4(6)5(7)8/h4H,2-3,6H2,1H3,(H,7,8)
INCHIAUX=N/A
PUBMED=N/A
SUBMITUSER=mwang87
TAGS=
LIBRARYQUALITY=3
SPECTRUMID=CCMSLIB00000425485
SCANS=457
74.0 100.0 
84.0 6.148 
85.0 2.503 
102.0 7.329 
END IONS

BEGIN IONS
PEPMASS=308.111
CHARGE=1+
MSLEVEL=2
SOURCE_INSTRUMENT=Positive-Quattro_QQQ:25eV
FILENAME=hmdb_intermediate.mgf
SEQ=*..*
IONMODE=Positive
ORGANISM=HMDB
NAME=HMDB:HMDB05005-2437 Tolnaftate M+H
PI=HMDB
DATACOLLECTOR=HMDB
SMILES=CN(C(=S)OC1=CC2=CC=CC=C2C=C1)C1=CC=CC(C)=C1
INCHI=InChI=1S/C19H17NOS/c1-14-6-5-9-17(12-14)20(2)19(22)21-18-11-10-15-7-3-4-8-16(15)13-18/h3-13H,1-2H3
INCHIAUX=N/A
PUBMED=N/A
SUBMITUSER=mwang87
TAGS=
LIBRARYQUALITY=3
SPECTRUMID=CCMSLIB00000425486
SCANS=458
90.0 20.122 
106.0 3.821 
119.0 87.437 
147.0 100.0 
163.0 10.808 
179.0 6.185 
307.0 2.939 
END IONS

BEGIN IONS
PEPMASS=301.217
CHARGE=1+
MSLEVEL=2
SOURCE_INSTRUMENT=Positive-Quattro_QQQ:25eV
FILENAME=hmdb_intermediate.mgf
SEQ=*..*
IONMODE=Positive
ORGANISM=HMDB
NAME=HMDB:HMDB06219-2476 13-cis-Retinoic acid M+H
PI=HMDB
DATACOLLECTOR=HMDB
SMILES=C\C(\C=C\C1=C(C)CCCC1(C)C)=C/C=C/C(/C)=C\C(O)=O
INCHI=InChI=1S/C20H28O2/c1-15(8-6-9-16(2)14-19(21)22)11-12-18-17(3)10-7-13-20(18,4)5/h6,8-9,11-12,14H,7,10,13H2,1-5H3,(H,21,22)/b9-6+,12-11+,15-8+,16-14-
INCHIAUX=N/A
PUBMED=N/A
SUBMITUSER=mwang87
TAGS=
LIBRARYQUALITY=3
SPECTRUMID=CCMSLIB00000425487
SCANS=459
69.04 100.0 
80.99 36.465 
108.97 20.979 
122.97 33.68 
132.9 19.335 
144.65 26.109 
158.91 57.871 
170.69 19.982 
END IONS

BEGIN IONS
PEPMASS=122.061
CHARGE=1+
MSLEVEL=2
SOURCE_INSTRUMENT=Positive-Quattro_QQQ:25eV
FILENAME=hmdb_intermediate.mgf
SEQ=*..*
IONMODE=Positive
ORGANISM=HMDB
NAME=HMDB:HMDB04461-2389 Benzamide M+H
PI=HMDB
DATACOLLECTOR=HMDB
SMILES=NC(=O)C1=CC=CC=C1
INCHI=InChI=1S/C7H7NO/c8-7(9)6-4-2-1-3-5-6/h1-5H,(H2,8,9)
INCHIAUX=N/A
PUBMED=N/A
SUBMITUSER=mwang87
TAGS=
LIBRARYQUALITY=3
SPECTRUMID=CCMSLIB00000425488
SCANS=460
51.071 24.75 
78.947 100.0 
104.772 56.783 
END IONS

BEGIN IONS
PEPMASS=115.076
CHARGE=1+
MSLEVEL=2
SOURCE_INSTRUMENT=Positive-Quattro_QQQ:10eV
FILENAME=hmdb_intermediate.mgf
SEQ=*..*
IONMODE=Positive
ORGANISM=HMDB
NAME=HMDB:HMDB00453-662 Delta-Hexanolactone M+H
PI=HMDB
DATACOLLECTOR=HMDB
SMILES=CC1CCCC(=O)O1
INCHI=InChI=1S/C6H10O2/c1-5-3-2-4-6(7)8-5/h5H,2-4H2,1H3
INCHIAUX=N/A
PUBMED=N/A
SUBMITUSER=mwang87
TAGS=
LIBRARYQUALITY=3
SPECTRUMID=CCMSLIB00000425489
SCANS=461
69.151 100.0 
END IONS

BEGIN IONS
PEPMASS=271.181
CHARGE=1+
MSLEVEL=2
SOURCE_INSTRUMENT=Positive-Quattro_QQQ:25eV
FILENAME=hmdb_intermediate.mgf
SEQ=*..*
IONMODE=Positive
ORGANISM=HMDB
NAME=HMDB:HMDB01936-1885 Doxylamine M+H
PI=HMDB
DATACOLLECTOR=HMDB
SMILES=CN(C)CCOC(C)(C1=CC=CC=C1)C1=NC=CC=C1
INCHI=InChI=1S/C17H22N2O/c1-17(20-14-13-19(2)3,15-9-5-4-6-10-15)16-11-7-8-12-18-16/h4-12H,13-14H2,1-3H3
INCHIAUX=N/A
PUBMED=N/A
SUBMITUSER=mwang87
TAGS=
LIBRARYQUALITY=3
SPECTRUMID=CCMSLIB00000425490
SCANS=462
133.331 24.955 
156.984 22.424 
182.4 100.0 
207.062 5.425 
229.586 6.871 
352.544 5.062 
371.047 5.062 
402.643 5.785 
END IONS

BEGIN IONS
PEPMASS=136.062
CHARGE=1+
MSLEVEL=2
SOURCE_INSTRUMENT=Positive-Quattro_QQQ:25eV
FILENAME=hmdb_intermediate.mgf
SEQ=*..*
IONMODE=Positive
ORGANISM=HMDB
NAME=HMDB:HMDB00034-58 Adenine M+H
PI=HMDB
DATACOLLECTOR=HMDB
SMILES=NC1=NC=NC2=C1NC=N2
INCHI=InChI=1S/C5H5N5/c6-4-3-5(9-1-7-3)10-2-8-4/h1-2H,(H3,6,7,8,9,10)
INCHIAUX=N/A
PUBMED=N/A
SUBMITUSER=mwang87
TAGS=
LIBRARYQUALITY=3
SPECTRUMID=CCMSLIB00000425491
SCANS=463
55.215 4.109 
67.141 15.741 
82.079 5.035 
92.039 39.12 
108.993 4.745 
118.954 100.0 
135.887 35.648 
END IONS

BEGIN IONS
PEPMASS=667.23
CHARGE=1+
MSLEVEL=2
SOURCE_INSTRUMENT=Positive-Quattro_QQQ:40eV
FILENAME=hmdb_intermediate.mgf
SEQ=*..*
IONMODE=Positive
ORGANISM=HMDB
NAME=HMDB:HMDB03553-2330 Stachyose M+H
PI=HMDB
DATACOLLECTOR=HMDB
SMILES=OC[C@H]1O[C@@](CO)(O[C@H]2O[C@H](CO[C@H]3O[C@H](CO[C@H]4O[C@H](CO)[C@H](O)[C@H](O)[C@H]4O)[C@H](O)[C@H](O)[C@H]3O)[C@@H](O)[C@H](O)[C@H]2O)[C@@H](O)[C@@H]1O
INCHI=InChI=1S/C24H42O21/c25-1-6-10(28)14(32)17(35)21(41-6)39-3-8-11(29)15(33)18(36)22(42-8)40-4-9-12(30)16(34)19(37)23(43-9)45-24(5-27)20(38)13(31)7(2-26)44-24/h6-23,25-38H,1-5H2/t6-,7-,8-,9-,10+,11+,12-,13-,14+,15+,16+,17-,18-,19-,20+,21+,22+,23-,24+/m1/s1
INCHIAUX=N/A
PUBMED=N/A
SUBMITUSER=mwang87
TAGS=
LIBRARYQUALITY=3
SPECTRUMID=CCMSLIB00000425492
SCANS=464
58.0 11.065 
70.0 20.647 
88.0 100.0 
100.0 43.766 
112.0 18.775 
118.0 37.401 
130.0 7.104 
142.0 16.254 
148.0 5.945 
160.0 17.892 
178.0 63.107 
202.0 8.988 
220.0 18.633 
382.0 53.997 
END IONS

BEGIN IONS
PEPMASS=223.075
CHARGE=1+
MSLEVEL=2
SOURCE_INSTRUMENT=Positive-Quattro_QQQ:25eV
FILENAME=hmdb_intermediate.mgf
SEQ=*..*
IONMODE=Positive
ORGANISM=HMDB
NAME=HMDB:HMDB00455-666 Allocystathionine M+H
PI=HMDB
DATACOLLECTOR=HMDB
SMILES=N[C@@H](CCSCC(N)C(O)=O)C(O)=O
INCHI=InChI=1S/C7H14N2O4S/c8-4(6(10)11)1-2-14-3-5(9)7(12)13/h4-5H,1-3,8-9H2,(H,10,11)(H,12,13)/t4-,5?/m0/s1
INCHIAUX=N/A
PUBMED=N/A
SUBMITUSER=mwang87
TAGS=
LIBRARYQUALITY=3
SPECTRUMID=CCMSLIB00000425493
SCANS=465
56.253 5.315 
88.082 100.0 
133.95 23.014 
END IONS

BEGIN IONS
PEPMASS=167.034
CHARGE=1+
MSLEVEL=2
SOURCE_INSTRUMENT=Negative-Quattro_QQQ:40eV
FILENAME=hmdb_intermediate.mgf
SEQ=*..*
IONMODE=Negative
ORGANISM=HMDB
NAME=HMDB:HMDB00750-1073 3-Hydroxymandelic acid M-H
PI=HMDB
DATACOLLECTOR=HMDB
SMILES=OC(C(O)=O)C1=CC(O)=CC=C1
INCHI=InChI=1S/C8H8O4/c9-6-3-1-2-5(4-6)7(10)8(11)12/h1-4,7,9-10H,(H,11,12)
INCHIAUX=N/A
PUBMED=N/A
SUBMITUSER=mwang87
TAGS=
LIBRARYQUALITY=3
SPECTRUMID=CCMSLIB00000425494
SCANS=466
65.399 10.595 
92.296 60.952 
121.044 100.0 
END IONS

BEGIN IONS
PEPMASS=651.608
CHARGE=1+
MSLEVEL=2
SOURCE_INSTRUMENT=Positive-Quattro_QQQ:25eV
FILENAME=hmdb_intermediate.mgf
SEQ=*..*
IONMODE=Positive
ORGANISM=HMDB
NAME=HMDB:HMDB00918-1304 CE(18:1(9Z)) M+H
PI=HMDB
DATACOLLECTOR=HMDB
SMILES=CCCCCCCC\C=C/CCCCCCCC(=O)O[C@H]1CC[C@@]2(C)C(=CC[C@@]3([H])[C@]4([H])CC[C@]([H])([C@H](C)CCCC(C)C)[C@@]4(C)CC[C@]23[H])C1
INCHI=InChI=1S/C45H78O2/c1-7-8-9-10-11-12-13-14-15-16-17-18-19-20-21-25-43(46)47-38-30-32-44(5)37(34-38)26-27-39-41-29-28-40(36(4)24-22-23-35(2)3)45(41,6)33-31-42(39)44/h14-15,26,35-36,38-42H,7-13,16-25,27-34H2,1-6H3/b15-14-/t36-,38+,39+,40-,41+,42+,44+,45-/m1/s1
INCHIAUX=N/A
PUBMED=N/A
SUBMITUSER=mwang87
TAGS=
LIBRARYQUALITY=3
SPECTRUMID=CCMSLIB00000425495
SCANS=467
651.0 100.0 
END IONS

BEGIN IONS
PEPMASS=138.079
CHARGE=1+
MSLEVEL=2
SOURCE_INSTRUMENT=Positive-Quattro_QQQ:40eV
FILENAME=hmdb_intermediate.mgf
SEQ=*..*
IONMODE=Positive
ORGANISM=HMDB
NAME=HMDB:HMDB00699-974 1-Methylnicotinamide M+H
PI=HMDB
DATACOLLECTOR=HMDB
SMILES=C[N+]1=CC=CC(=C1)C(N)=O
INCHI=InChI=1S/C7H8N2O/c1-9-4-2-3-6(5-9)7(8)10/h2-5H,1H3,(H-,8,10)/p+1
INCHIAUX=N/A
PUBMED=N/A
SUBMITUSER=mwang87
TAGS=
LIBRARYQUALITY=3
SPECTRUMID=CCMSLIB00000425496
SCANS=468
41.0 27.578 
52.0 50.893 
65.0 52.942 
78.0 100.0 
92.0 42.547 
END IONS

BEGIN IONS
PEPMASS=492.009
CHARGE=1+
MSLEVEL=2
SOURCE_INSTRUMENT=Positive-Quattro_QQQ:10eV
FILENAME=hmdb_intermediate.mgf
SEQ=*..*
IONMODE=Positive
ORGANISM=HMDB
NAME=HMDB:HMDB01532-1628 Deoxyadenosine triphosphate M+H
PI=HMDB
DATACOLLECTOR=HMDB
SMILES=NC1=NC=NC2=C1N=CN2[C@H]1C[C@H](O)[C@@H](COP(O)(=O)OP(O)(=O)OP(O)(O)=O)O1
INCHI=InChI=1S/C10H16N5O12P3/c11-9-8-10(13-3-12-9)15(4-14-8)7-1-5(16)6(25-7)2-24-29(20,21)27-30(22,23)26-28(17,18)19/h3-7,16H,1-2H2,(H,20,21)(H,22,23)(H2,11,12,13)(H2,17,18,19)/t5-,6+,7+/m0/s1
INCHIAUX=N/A
PUBMED=N/A
SUBMITUSER=mwang87
TAGS=
LIBRARYQUALITY=3
SPECTRUMID=CCMSLIB00000425497
SCANS=469
80.0 7.625 
135.0 100.0 
393.0 10.048 
491.0 97.107 
END IONS

BEGIN IONS
PEPMASS=174.088
CHARGE=1+
MSLEVEL=2
SOURCE_INSTRUMENT=Positive-Quattro_QQQ:10eV
FILENAME=hmdb_intermediate.mgf
SEQ=*..*
IONMODE=Positive
ORGANISM=HMDB
NAME=HMDB:HMDB04225-2373 2-Oxoarginine M+H
PI=HMDB
DATACOLLECTOR=HMDB
SMILES=NC(N)=NCCCC(=O)C(O)=O
INCHI=InChI=1S/C6H11N3O3/c7-6(8)9-3-1-2-4(10)5(11)12/h1-3H2,(H,11,12)(H4,7,8,9)
INCHIAUX=N/A
PUBMED=N/A
SUBMITUSER=mwang87
TAGS=
LIBRARYQUALITY=3
SPECTRUMID=CCMSLIB00000425498
SCANS=470
132.66 100.0 
173.56 33.707 
END IONS

BEGIN IONS
PEPMASS=198.003
CHARGE=1+
MSLEVEL=2
SOURCE_INSTRUMENT=Positive-Quattro_QQQ:25eV
FILENAME=hmdb_intermediate.mgf
SEQ=*..*
IONMODE=Positive
ORGANISM=HMDB
NAME=HMDB:HMDB03966-2353 Selenomethionine M+H
PI=HMDB
DATACOLLECTOR=HMDB
SMILES=C[Se]CCC(N)C(O)=O
INCHI=InChI=1S/C5H11NO2Se/c1-9-3-2-4(6)5(7)8/h4H,2-3,6H2,1H3,(H,7,8)
INCHIAUX=N/A
PUBMED=N/A
SUBMITUSER=mwang87
TAGS=
LIBRARYQUALITY=3
SPECTRUMID=CCMSLIB00000425499
SCANS=471
53.0 2.42 
56.0 100.0 
74.0 19.045 
84.0 5.466 
85.0 2.658 
102.0 8.177 
109.0 52.274 
135.0 7.658 
152.0 5.152 
181.0 3.64 
END IONS

BEGIN IONS
PEPMASS=197.066
CHARGE=1+
MSLEVEL=2
SOURCE_INSTRUMENT=Positive-Quattro_QQQ:25eV
FILENAME=hmdb_intermediate.mgf
SEQ=*..*
IONMODE=Positive
ORGANISM=HMDB
NAME=HMDB:HMDB03290-2231 Gulonic acid M+H
PI=HMDB
DATACOLLECTOR=HMDB
SMILES=OC[C@@H](O)[C@H](O)[C@@H](O)[C@@H](O)C(O)=O
INCHI=InChI=1S/C6H12O7/c7-1-2(8)3(9)4(10)5(11)6(12)13/h2-5,7-11H,1H2,(H,12,13)/t2-,3+,4-,5-/m1/s1
INCHIAUX=N/A
PUBMED=N/A
SUBMITUSER=mwang87
TAGS=
LIBRARYQUALITY=3
SPECTRUMID=CCMSLIB00000425500
SCANS=472
40.0 60.0 
55.0 71.0 
71.0 75.795 
81.0 74.483 
95.0 69.427 
113.0 100.0 
END IONS

BEGIN IONS
PEPMASS=139.051
CHARGE=1+
MSLEVEL=2
SOURCE_INSTRUMENT=Positive-Quattro_QQQ:40eV
FILENAME=hmdb_intermediate.mgf
SEQ=*..*
IONMODE=Positive
ORGANISM=HMDB
NAME=HMDB:HMDB00301-515 Urocanic acid M+H
PI=HMDB
DATACOLLECTOR=HMDB
SMILES=OC(=O)\C=C\C1=CNC=N1
INCHI=InChI=1S/C6H6N2O2/c9-6(10)2-1-5-3-7-4-8-5/h1-4H,(H,7,8)(H,9,10)/b2-1+
INCHIAUX=N/A
PUBMED=N/A
SUBMITUSER=mwang87
TAGS=
LIBRARYQUALITY=3
SPECTRUMID=CCMSLIB00000425501
SCANS=473
41.289 26.115 
52.137 5.812 
66.075 83.439 
93.01 100.0 
120.893 4.777 
END IONS

BEGIN IONS
PEPMASS=152.071
CHARGE=1+
MSLEVEL=2
SOURCE_INSTRUMENT=Positive-Quattro_QQQ:25eV
FILENAME=hmdb_intermediate.mgf
SEQ=*..*
IONMODE=Positive
ORGANISM=HMDB
NAME=HMDB:HMDB02210-2032 2-Phenylglycine M+H
PI=HMDB
DATACOLLECTOR=HMDB
SMILES=NC(C(O)=O)C1=CC=CC=C1
INCHI=InChI=1S/C8H9NO2/c9-7(8(10)11)6-4-2-1-3-5-6/h1-5,7H,9H2,(H,10,11)
INCHIAUX=N/A
PUBMED=N/A
SUBMITUSER=mwang87
TAGS=
LIBRARYQUALITY=3
SPECTRUMID=CCMSLIB00000425502
SCANS=474
78.0 100.0 
106.0 13.197 
END IONS

BEGIN IONS
PEPMASS=170.022
CHARGE=1+
MSLEVEL=2
SOURCE_INSTRUMENT=Positive-Quattro_QQQ:10eV
FILENAME=hmdb_intermediate.mgf
SEQ=*..*
IONMODE=Positive
ORGANISM=HMDB
NAME=HMDB:HMDB00370-585 2-Amino-3-phosphonopropionic acid M+H
PI=HMDB
DATACOLLECTOR=HMDB
SMILES=NC(CP(O)(O)=O)C(O)=O
INCHI=InChI=1S/C3H8NO5P/c4-2(3(5)6)1-10(7,8)9/h2H,1,4H2,(H,5,6)(H2,7,8,9)
INCHIAUX=N/A
PUBMED=N/A
SUBMITUSER=mwang87
TAGS=
LIBRARYQUALITY=3
SPECTRUMID=CCMSLIB00000425503
SCANS=475
43.0 16.613 
47.0 3.934 
80.0 100.0 
106.0 32.885 
124.0 6.146 
END IONS

BEGIN IONS
PEPMASS=161.045
CHARGE=1+
MSLEVEL=2
SOURCE_INSTRUMENT=Positive-Quattro_QQQ:40eV
FILENAME=hmdb_intermediate.mgf
SEQ=*..*
IONMODE=Positive
ORGANISM=HMDB
NAME=HMDB:HMDB00398-608 3-Oxoadipic acid M+H
PI=HMDB
DATACOLLECTOR=HMDB
SMILES=OC(=O)CCC(=O)CC(O)=O
INCHI=InChI=1S/C6H8O5/c7-4(3-6(10)11)1-2-5(8)9/h1-3H2,(H,8,9)(H,10,11)
INCHIAUX=N/A
PUBMED=N/A
SUBMITUSER=mwang87
TAGS=
LIBRARYQUALITY=3
SPECTRUMID=CCMSLIB00000425504
SCANS=476
114.49 15.268 
124.43 21.341 
125.19 22.997 
143.16 26.165 
160.91 100.0 
END IONS

BEGIN IONS
PEPMASS=127.062
CHARGE=1+
MSLEVEL=2
SOURCE_INSTRUMENT=Positive-Quattro_QQQ:40eV
FILENAME=hmdb_intermediate.mgf
SEQ=*..*
IONMODE=Positive
ORGANISM=HMDB
NAME=HMDB:HMDB02128-2015 2,4-Diamino-6-hydroxypyrimidine M+H
PI=HMDB
DATACOLLECTOR=HMDB
SMILES=NC1=CC(=O)N=C(N)N1
INCHI=InChI=1S/C4H6N4O/c5-2-1-3(9)8-4(6)7-2/h1H,(H5,5,6,7,8,9)
INCHIAUX=N/A
PUBMED=N/A
SUBMITUSER=mwang87
TAGS=
LIBRARYQUALITY=3
SPECTRUMID=CCMSLIB00000425505
SCANS=477
68.0 100.0 
85.0 4.608 
127.0 3.033 
END IONS

BEGIN IONS
PEPMASS=175.061
CHARGE=1+
MSLEVEL=2
SOURCE_INSTRUMENT=Positive-Quattro_QQQ:40eV
FILENAME=hmdb_intermediate.mgf
SEQ=*..*
IONMODE=Positive
ORGANISM=HMDB
NAME=HMDB:HMDB03070-2190 Shikimic acid M+H
PI=HMDB
DATACOLLECTOR=HMDB
SMILES=O[C@@H]1CC(=C[C@@H](O)[C@H]1O)C(O)=O
INCHI=InChI=1S/C7H10O5/c8-4-1-3(7(11)12)2-5(9)6(4)10/h1,4-6,8-10H,2H2,(H,11,12)/t4-,5-,6-/m1/s1
INCHIAUX=N/A
PUBMED=N/A
SUBMITUSER=mwang87
TAGS=
LIBRARYQUALITY=3
SPECTRUMID=CCMSLIB00000425506
SCANS=478
61.0 14.555 
73.0 6.431 
88.0 100.0 
116.0 4.671 
129.0 8.243 
END IONS

BEGIN IONS
PEPMASS=130.05
CHARGE=1+
MSLEVEL=2
SOURCE_INSTRUMENT=Positive-Quattro_QQQ:40eV
FILENAME=hmdb_intermediate.mgf
SEQ=*..*
IONMODE=Positive
ORGANISM=HMDB
NAME=HMDB:HMDB00267-465 Pyroglutamic acid M+H
PI=HMDB
DATACOLLECTOR=HMDB
SMILES=OC(=O)[C@@H]1CCC(=O)N1
INCHI=InChI=1S/C5H7NO3/c7-4-2-1-3(6-4)5(8)9/h3H,1-2H2,(H,6,7)(H,8,9)/t3-/m0/s1
INCHIAUX=N/A
PUBMED=N/A
SUBMITUSER=mwang87
TAGS=
LIBRARYQUALITY=3
SPECTRUMID=CCMSLIB00000425507
SCANS=479
41.337 47.348 
56.132 100.0 
84.075 95.455 
130.031 13.92 
END IONS

BEGIN IONS
PEPMASS=169.036
CHARGE=1+
MSLEVEL=2
SOURCE_INSTRUMENT=Positive-Quattro_QQQ:40eV
FILENAME=hmdb_intermediate.mgf
SEQ=*..*
IONMODE=Positive
ORGANISM=HMDB
NAME=HMDB:HMDB00289-491 Uric acid M+H
PI=HMDB
DATACOLLECTOR=HMDB
SMILES=O=C1NC2=C(N1)C(=O)NC(=O)N2
INCHI=InChI=1S/C5H4N4O3/c10-3-1-2(7-4(11)6-1)8-5(12)9-3/h(H4,6,7,8,9,10,11,12)
INCHIAUX=N/A
PUBMED=N/A
SUBMITUSER=mwang87
TAGS=
LIBRARYQUALITY=3
SPECTRUMID=CCMSLIB00000425508
SCANS=480
43.328 74.02 
53.208 100.0 
55.214 56.373 
69.122 84.804 
80.081 10.049 
95.997 81.863 
125.833 8.701 
152.082 10.049 
169.017 27.451 
END IONS

BEGIN IONS
PEPMASS=786.601
CHARGE=1+
MSLEVEL=2
SOURCE_INSTRUMENT=Positive-Quattro_QQQ:25eV
FILENAME=hmdb_intermediate.mgf
SEQ=*..*
IONMODE=Positive
ORGANISM=HMDB
NAME=HMDB:HMDB00593-820 PC(18:1(9Z)/18:1(9Z))  M+H
PI=HMDB
DATACOLLECTOR=HMDB
SMILES=CCCCCCCC\C=C/CCCCCCCC(=O)OCC(COP([O-])(=O)OCC[N+](C)(C)C)OC(=O)CCCCCCC\C=C/CCCCCCCC
INCHI=InChI=1S/C44H84NO8P/c1-6-8-10-12-14-16-18-20-22-24-26-28-30-32-34-36-43(46)50-40-42(41-52-54(48,49)51-39-38-45(3,4)5)53-44(47)37-35-33-31-29-27-25-23-21-19-17-15-13-11-9-7-2/h20-23,42H,6-19,24-41H2,1-5H3/b22-20-,23-21-
INCHIAUX=N/A
PUBMED=N/A
SUBMITUSER=mwang87
TAGS=
LIBRARYQUALITY=3
SPECTRUMID=CCMSLIB00000425509
SCANS=481
85.0 0.861 
183.0 100.0 
185.0 3.332 
787.0 6.489 
END IONS

BEGIN IONS
PEPMASS=261.038
CHARGE=1+
MSLEVEL=2
SOURCE_INSTRUMENT=Positive-Quattro_QQQ:25eV
FILENAME=hmdb_intermediate.mgf
SEQ=*..*
IONMODE=Positive
ORGANISM=HMDB
NAME=HMDB:HMDB01078-1419 Mannose 6-phosphate M+H
PI=HMDB
DATACOLLECTOR=HMDB
SMILES=O[C@@H]1O[C@H](COP(O)(O)=O)[C@@H](O)[C@H](O)[C@@H]1O
INCHI=InChI=1S/C6H13O9P/c7-3-2(1-14-16(11,12)13)15-6(10)5(9)4(3)8/h2-10H,1H2,(H2,11,12,13)/t2-,3-,4+,5+,6-/m1/s1
INCHIAUX=N/A
PUBMED=N/A
SUBMITUSER=mwang87
TAGS=
LIBRARYQUALITY=3
SPECTRUMID=CCMSLIB00000425510
SCANS=482
69.0 46.965 
81.0 32.122 
85.0 47.195 
99.0 100.0 
109.0 61.937 
127.0 26.218 
END IONS

BEGIN IONS
PEPMASS=33.034
CHARGE=1+
MSLEVEL=2
SOURCE_INSTRUMENT=Positive-Quattro_QQQ:25eV
FILENAME=hmdb_intermediate.mgf
SEQ=*..*
IONMODE=Positive
ORGANISM=HMDB
NAME=HMDB:HMDB01875-1769 Methanol M+H
PI=HMDB
DATACOLLECTOR=HMDB
SMILES=CO
INCHI=InChI=1S/CH4O/c1-2/h2H,1H3
INCHIAUX=N/A
PUBMED=N/A
SUBMITUSER=mwang87
TAGS=
LIBRARYQUALITY=3
SPECTRUMID=CCMSLIB00000425511
SCANS=483
33.481 100.0 
END IONS

BEGIN IONS
PEPMASS=384.151
CHARGE=1+
MSLEVEL=2
SOURCE_INSTRUMENT=Positive-Quattro_QQQ:40eV
FILENAME=hmdb_intermediate.mgf
SEQ=*..*
IONMODE=Positive
ORGANISM=HMDB
NAME=HMDB:HMDB01542-1639 N-Acetyllactosamine M+H
PI=HMDB
DATACOLLECTOR=HMDB
SMILES=CC(=O)N[C@H]1[C@H](O)O[C@H](CO)[C@@H](O[C@@H]2O[C@H](CO)[C@H](O)[C@H](O)[C@H]2O)[C@@H]1O
INCHI=InChI=1S/C14H25NO11/c1-4(18)15-7-9(20)12(6(3-17)24-13(7)23)26-14-11(22)10(21)8(19)5(2-16)25-14/h5-14,16-17,19-23H,2-3H2,1H3,(H,15,18)/t5-,6-,7-,8+,9-,10+,11-,12-,13-,14+/m1/s1
INCHIAUX=N/A
PUBMED=N/A
SUBMITUSER=mwang87
TAGS=
LIBRARYQUALITY=3
SPECTRUMID=CCMSLIB00000425512
SCANS=484
61.0 14.593 
69.0 7.517 
84.0 72.877 
85.0 15.306 
96.0 36.787 
126.0 38.153 
138.0 100.0 
END IONS

BEGIN IONS
PEPMASS=204.102
CHARGE=1+
MSLEVEL=2
SOURCE_INSTRUMENT=Positive-Quattro_QQQ:10eV
FILENAME=hmdb_intermediate.mgf
SEQ=*..*
IONMODE=Positive
ORGANISM=HMDB
NAME=HMDB:HMDB02096-1999 3-Indolebutyric acid M+H
PI=HMDB
DATACOLLECTOR=HMDB
SMILES=OC(=O)CCCC1=CNC2=CC=CC=C12
INCHI=InChI=1S/C12H13NO2/c14-12(15)7-3-4-9-8-13-11-6-2-1-5-10(9)11/h1-2,5-6,8,13H,3-4,7H2,(H,14,15)
INCHIAUX=N/A
PUBMED=N/A
SUBMITUSER=mwang87
TAGS=
LIBRARYQUALITY=3
SPECTRUMID=CCMSLIB00000425513
SCANS=485
168.0 4.431 
186.0 100.0 
204.0 87.254 
END IONS

BEGIN IONS
PEPMASS=303.05
CHARGE=1+
MSLEVEL=2
SOURCE_INSTRUMENT=Positive-Quattro_QQQ:25eV
FILENAME=hmdb_intermediate.mgf
SEQ=*..*
IONMODE=Positive
ORGANISM=HMDB
NAME=HMDB:HMDB05794-2446 Quercetin M+H
PI=HMDB
DATACOLLECTOR=HMDB
SMILES=OC1=CC(O)=C2C(OC(=C(O)C2=O)C2=CC(O)=C(O)C=C2)=C1
INCHI=InChI=1S/C15H10O7/c16-7-4-10(19)12-11(5-7)22-15(14(21)13(12)20)6-1-2-8(17)9(18)3-6/h1-5,16-19,21H
INCHIAUX=N/A
PUBMED=N/A
SUBMITUSER=mwang87
TAGS=
LIBRARYQUALITY=3
SPECTRUMID=CCMSLIB00000425514
SCANS=486
68.0 5.336 
92.0 4.266 
110.0 8.797 
120.0 7.041 
136.0 27.72 
152.0 30.624 
164.0 27.245 
165.0 10.638 
182.0 4.156 
186.0 3.729 
200.0 13.885 
228.0 33.479 
246.0 3.918 
256.0 19.451 
273.0 6.048 
284.0 8.794 
302.0 100.0 
END IONS

BEGIN IONS
PEPMASS=103.076
CHARGE=1+
MSLEVEL=2
SOURCE_INSTRUMENT=Positive-Quattro_QQQ:40eV
FILENAME=hmdb_intermediate.mgf
SEQ=*..*
IONMODE=Positive
ORGANISM=HMDB
NAME=HMDB:HMDB00718-1007 Isovaleric acid M+H
PI=HMDB
DATACOLLECTOR=HMDB
SMILES=CC(C)CC(O)=O
INCHI=InChI=1S/C5H10O2/c1-4(2)3-5(6)7/h4H,3H2,1-2H3,(H,6,7)
INCHIAUX=N/A
PUBMED=N/A
SUBMITUSER=mwang87
TAGS=
LIBRARYQUALITY=3
SPECTRUMID=CCMSLIB00000425515
SCANS=487
41.0 100.0 
54.0 26.672 
55.0 17.481 
72.0 17.732 
102.0 21.997 
END IONS

BEGIN IONS
PEPMASS=149.045
CHARGE=1+
MSLEVEL=2
SOURCE_INSTRUMENT=Positive-Quattro_QQQ:25eV
FILENAME=hmdb_intermediate.mgf
SEQ=*..*
IONMODE=Positive
ORGANISM=HMDB
NAME=HMDB:HMDB01900-1817 Ribonolactone M+H
PI=HMDB
DATACOLLECTOR=HMDB
SMILES=OC[C@H]1OC(=O)[C@H](O)[C@@H]1O
INCHI=InChI=1S/C5H8O5/c6-1-2-3(7)4(8)5(9)10-2/h2-4,6-8H,1H2/t2-,3-,4-/m1/s1
INCHIAUX=N/A
PUBMED=N/A
SUBMITUSER=mwang87
TAGS=
LIBRARYQUALITY=3
SPECTRUMID=CCMSLIB00000425516
SCANS=488
67.259 15.651 
77.118 28.305 
103.079 100.0 
131.412 21.47 
END IONS

BEGIN IONS
PEPMASS=202.144
CHARGE=1+
MSLEVEL=2
SOURCE_INSTRUMENT=Positive-Quattro_QQQ:40eV
FILENAME=hmdb_intermediate.mgf
SEQ=*..*
IONMODE=Positive
ORGANISM=HMDB
NAME=HMDB:HMDB00832-1183 Capryloylglycine M+H
PI=HMDB
DATACOLLECTOR=HMDB
SMILES=CCCCCCCC(=O)NCC(O)=O
INCHI=InChI=1S/C10H19NO3/c1-2-3-4-5-6-7-9(12)11-8-10(13)14/h2-8H2,1H3,(H,11,12)(H,13,14)
INCHIAUX=N/A
PUBMED=N/A
SUBMITUSER=mwang87
TAGS=
LIBRARYQUALITY=3
SPECTRUMID=CCMSLIB00000425517
SCANS=489
52.125 8.258 
61.283 12.763 
67.682 100.0 
81.859 46.096 
90.265 30.33 
97.542 57.357 
105.071 59.009 
119.5 23.123 
171.323 19.369 
203.448 75.676 
239.467 7.357 
254.277 6.907 
274.861 7.057 
END IONS

BEGIN IONS
PEPMASS=179.034
CHARGE=1+
MSLEVEL=2
SOURCE_INSTRUMENT=Negative-Quattro_QQQ:25eV
FILENAME=hmdb_intermediate.mgf
SEQ=*..*
IONMODE=Negative
ORGANISM=HMDB
NAME=HMDB:HMDB00707-991 4-Hydroxyphenylpyruvic acid M-H
PI=HMDB
DATACOLLECTOR=HMDB
SMILES=OC(=O)C(=O)CC1=CC=C(O)C=C1
INCHI=InChI=1S/C9H8O4/c10-7-3-1-6(2-4-7)5-8(11)9(12)13/h1-4,10H,5H2,(H,12,13)
INCHIAUX=N/A
PUBMED=N/A
SUBMITUSER=mwang87
TAGS=
LIBRARYQUALITY=3
SPECTRUMID=CCMSLIB00000425518
SCANS=490
77.082 3.765 
92.139 3.125 
106.666 100.0 
116.956 5.309 
133.928 43.976 
135.169 4.029 
179.066 15.663 
END IONS

BEGIN IONS
PEPMASS=157.061
CHARGE=1+
MSLEVEL=2
SOURCE_INSTRUMENT=Positive-Quattro_QQQ:40eV
FILENAME=hmdb_intermediate.mgf
SEQ=*..*
IONMODE=Positive
ORGANISM=HMDB
NAME=HMDB:HMDB00544-766 5-Hydroxymethyl-4-methyluracil M+H
PI=HMDB
DATACOLLECTOR=HMDB
SMILES=CC1=C(CO)C(=O)NC(=O)N1
INCHI=InChI=1S/C6H8N2O3/c1-3-4(2-9)5(10)8-6(11)7-3/h9H,2H2,1H3,(H2,7,8,10,11)
INCHIAUX=N/A
PUBMED=N/A
SUBMITUSER=mwang87
TAGS=
LIBRARYQUALITY=3
SPECTRUMID=CCMSLIB00000425519
SCANS=491
42.319 100.0 
53.272 3.004 
55.208 32.524 
70.096 2.913 
96.087 15.473 
139.116 7.524 
END IONS

BEGIN IONS
PEPMASS=182.082
CHARGE=1+
MSLEVEL=2
SOURCE_INSTRUMENT=Positive-Quattro_QQQ:40eV
FILENAME=hmdb_intermediate.mgf
SEQ=*..*
IONMODE=Positive
ORGANISM=HMDB
NAME=HMDB:HMDB00158-247 L-Tyrosine M+H
PI=HMDB
DATACOLLECTOR=HMDB
SMILES=N[C@@H](CC1=CC=C(O)C=C1)C(O)=O
INCHI=InChI=1S/C9H11NO3/c10-8(9(12)13)5-6-1-3-7(11)4-2-6/h1-4,8,11H,5,10H2,(H,12,13)/t8-/m0/s1
INCHIAUX=N/A
PUBMED=N/A
SUBMITUSER=mwang87
TAGS=
LIBRARYQUALITY=3
SPECTRUMID=CCMSLIB00000425520
SCANS=492
65.129 31.959 
77.055 65.206 
91.004 100.0 
94.884 15.593 
106.945 22.68 
118.905 8.054 
END IONS

BEGIN IONS
PEPMASS=185.045
CHARGE=1+
MSLEVEL=2
SOURCE_INSTRUMENT=Positive-Quattro_QQQ:25eV
FILENAME=hmdb_intermediate.mgf
SEQ=*..*
IONMODE=Positive
ORGANISM=HMDB
NAME=HMDB:HMDB01866-1748 3,4-Dihydroxymandelic acid M+H
PI=HMDB
DATACOLLECTOR=HMDB
SMILES=OC(C(O)=O)C1=CC=C(O)C(O)=C1
INCHI=InChI=1S/C8H8O5/c9-5-2-1-4(3-6(5)10)7(11)8(12)13/h1-3,7,9-11H,(H,12,13)
INCHIAUX=N/A
PUBMED=N/A
SUBMITUSER=mwang87
TAGS=
LIBRARYQUALITY=3
SPECTRUMID=CCMSLIB00000425521
SCANS=493
42.254 25.072 
59.327 22.529 
72.536 43.951 
81.509 35.245 
103.318 42.386 
112.79 26.637 
123.259 32.507 
128.244 23.996 
140.957 22.04 
160.899 100.0 
185.703 21.942 
END IONS

BEGIN IONS
PEPMASS=208.097
CHARGE=1+
MSLEVEL=2
SOURCE_INSTRUMENT=Positive-Quattro_QQQ:40eV
FILENAME=hmdb_intermediate.mgf
SEQ=*..*
IONMODE=Positive
ORGANISM=HMDB
NAME=HMDB:HMDB00512-739 N-Acetyl-L-phenylalanine M+H
PI=HMDB
DATACOLLECTOR=HMDB
SMILES=CC(=O)N[C@@H](CC1=CC=CC=C1)C(O)=O
INCHI=InChI=1S/C11H13NO3/c1-8(13)12-10(11(14)15)7-9-5-3-2-4-6-9/h2-6,10H,7H2,1H3,(H,12,13)(H,14,15)/t10-/m0/s1
INCHIAUX=N/A
PUBMED=N/A
SUBMITUSER=mwang87
TAGS=
LIBRARYQUALITY=3
SPECTRUMID=CCMSLIB00000425522
SCANS=494
76.0 52.209 
90.0 19.466 
102.0 100.0 
119.0 66.397 
END IONS

BEGIN IONS
PEPMASS=194.082
CHARGE=1+
MSLEVEL=2
SOURCE_INSTRUMENT=Positive-Quattro_QQQ:25eV
FILENAME=hmdb_intermediate.mgf
SEQ=*..*
IONMODE=Positive
ORGANISM=HMDB
NAME=HMDB:HMDB00821-1171 Phenylacetylglycine M+H
PI=HMDB
DATACOLLECTOR=HMDB
SMILES=OC(=O)CNC(=O)CC1=CC=CC=C1
INCHI=InChI=1S/C10H11NO3/c12-9(11-7-10(13)14)6-8-4-2-1-3-5-8/h1-5H,6-7H2,(H,11,12)(H,13,14)
INCHIAUX=N/A
PUBMED=N/A
SUBMITUSER=mwang87
TAGS=
LIBRARYQUALITY=3
SPECTRUMID=CCMSLIB00000425523
SCANS=495
65.0 20.162 
91.0 100.0 
END IONS

BEGIN IONS
PEPMASS=152.057
CHARGE=1+
MSLEVEL=2
SOURCE_INSTRUMENT=Positive-Quattro_QQQ:10eV
FILENAME=hmdb_intermediate.mgf
SEQ=*..*
IONMODE=Positive
ORGANISM=HMDB
NAME=HMDB:HMDB00403-612 2-Hydroxyadenine M+H
PI=HMDB
DATACOLLECTOR=HMDB
SMILES=NC1=NC(O)=NC2=C1NC=N2
INCHI=InChI=1S/C5H5N5O/c6-3-2-4(8-1-7-2)10-5(11)9-3/h1H,(H4,6,7,8,9,10,11)
INCHIAUX=N/A
PUBMED=N/A
SUBMITUSER=mwang87
TAGS=
LIBRARYQUALITY=3
SPECTRUMID=CCMSLIB00000425524
SCANS=496
134.0 10.327 
135.0 2.884 
151.0 100.0 
END IONS

BEGIN IONS
PEPMASS=611.161
CHARGE=1+
MSLEVEL=2
SOURCE_INSTRUMENT=Positive-Quattro_QQQ:10eV
FILENAME=hmdb_intermediate.mgf
SEQ=*..*
IONMODE=Positive
ORGANISM=HMDB
NAME=HMDB:HMDB03249-2221 Rutin M+H
PI=HMDB
DATACOLLECTOR=HMDB
SMILES=C[C@@H]1O[C@@H](OC[C@H]2O[C@@H](OC3=C(OC4=CC(O)=CC(O)=C4C3=O)C3=CC(O)=C(O)C=C3)[C@H](O)[C@@H](O)[C@@H]2O)[C@H](O)[C@H](O)[C@H]1O
INCHI=InChI=1S/C27H30O16/c1-8-17(32)20(35)22(37)26(40-8)39-7-15-18(33)21(36)23(38)27(42-15)43-25-19(34)16-13(31)5-10(28)6-14(16)41-24(25)9-2-3-11(29)12(30)4-9/h2-6,8,15,17-18,20-23,26-33,35-38H,7H2,1H3/t8-,15+,17-,18+,20+,21-,22+,23+,26+,27-/m0/s1
INCHIAUX=N/A
PUBMED=N/A
SUBMITUSER=mwang87
TAGS=
LIBRARYQUALITY=3
SPECTRUMID=CCMSLIB00000425525
SCANS=497
611.0 100.0 
END IONS

BEGIN IONS
PEPMASS=163.061
CHARGE=1+
MSLEVEL=2
SOURCE_INSTRUMENT=Positive-Quattro_QQQ:10eV
FILENAME=hmdb_intermediate.mgf
SEQ=*..*
IONMODE=Positive
ORGANISM=HMDB
NAME=HMDB:HMDB00345-555 3-Hydroxyadipic acid M+H
PI=HMDB
DATACOLLECTOR=HMDB
SMILES=OC(CCC(O)=O)CC(O)=O
INCHI=InChI=1S/C6H10O5/c7-4(3-6(10)11)1-2-5(8)9/h4,7H,1-3H2,(H,8,9)(H,10,11)
INCHIAUX=N/A
PUBMED=N/A
SUBMITUSER=mwang87
TAGS=
LIBRARYQUALITY=3
SPECTRUMID=CCMSLIB00000425526
SCANS=498
84.0 12.116 
104.0 18.998 
126.0 21.17 
144.0 100.0 
145.0 22.041 
162.0 43.288 
END IONS

BEGIN IONS
PEPMASS=397.347
CHARGE=1+
MSLEVEL=2
SOURCE_INSTRUMENT=Positive-Quattro_QQQ:10eV
FILENAME=hmdb_intermediate.mgf
SEQ=*..*
IONMODE=Positive
ORGANISM=HMDB
NAME=HMDB:HMDB00900-1277 Ergocalciferol M+H
PI=HMDB
DATACOLLECTOR=HMDB
SMILES=CC(C)[C@@H](C)\C=C\[C@@H](C)[C@H]1CC[C@@]2([H])\C(CCC[C@]12C)=C\C=C1\C[C@@H](O)CCC1=C
INCHI=InChI=1S/C28H44O/c1-19(2)20(3)9-10-22(5)26-15-16-27-23(8-7-17-28(26,27)6)12-13-24-18-25(29)14-11-21(24)4/h9-10,12-13,19-20,22,25-27,29H,4,7-8,11,14-18H2,1-3,5-6H3/b10-9+,23-12+,24-13-/t20-,22+,25-,26+,27-,28+/m0/s1
INCHIAUX=N/A
PUBMED=N/A
SUBMITUSER=mwang87
TAGS=
LIBRARYQUALITY=3
SPECTRUMID=CCMSLIB00000425527
SCANS=499
57.0 2.087 
68.0 2.979 
82.0 2.067 
106.0 3.249 
124.0 4.147 
134.0 3.796 
136.0 2.517 
149.0 1.936 
158.0 2.936 
177.0 2.094 
186.0 2.921 
200.0 2.855 
215.0 2.29 
244.0 4.904 
254.0 2.533 
256.0 2.387 
270.0 9.568 
284.0 3.712 
294.0 3.76 
312.0 2.472 
327.0 2.192 
379.0 12.447 
397.0 100.0 
END IONS

BEGIN IONS
PEPMASS=136.062
CHARGE=1+
MSLEVEL=2
SOURCE_INSTRUMENT=Positive-Quattro_QQQ:10eV
FILENAME=hmdb_intermediate.mgf
SEQ=*..*
IONMODE=Positive
ORGANISM=HMDB
NAME=HMDB:HMDB00034-57 Adenine M+H
PI=HMDB
DATACOLLECTOR=HMDB
SMILES=NC1=NC=NC2=C1NC=N2
INCHI=InChI=1S/C5H5N5/c6-4-3-5(9-1-7-3)10-2-8-4/h1-2H,(H3,6,7,8,9,10)
INCHIAUX=N/A
PUBMED=N/A
SUBMITUSER=mwang87
TAGS=
LIBRARYQUALITY=3
SPECTRUMID=CCMSLIB00000425528
SCANS=500
118.978 2.672 
135.958 100.0 
END IONS

BEGIN IONS
PEPMASS=262.14
CHARGE=1+
MSLEVEL=2
SOURCE_INSTRUMENT=Positive-Quattro_QQQ:40eV
FILENAME=hmdb_intermediate.mgf
SEQ=*..*
IONMODE=Positive
ORGANISM=HMDB
NAME=HMDB:HMDB04987-2426 Alpha-Aspartyl-lysine M+H
PI=HMDB
DATACOLLECTOR=HMDB
SMILES=NCCCC[C@H](NC(=O)[C@@H](N)CC(O)=O)C(O)=O
INCHI=InChI=1S/C10H19N3O5/c11-4-2-1-3-7(10(17)18)13-9(16)6(12)5-8(14)15/h6-7H,1-5,11-12H2,(H,13,16)(H,14,15)(H,17,18)/t6-,7-/m0/s1
INCHIAUX=N/A
PUBMED=N/A
SUBMITUSER=mwang87
TAGS=
LIBRARYQUALITY=3
SPECTRUMID=CCMSLIB00000425529
SCANS=501
43.0 6.323 
56.0 9.492 
70.0 18.505 
84.0 100.0 
88.0 6.436 
END IONS

BEGIN IONS
PEPMASS=415.394
CHARGE=1+
MSLEVEL=2
SOURCE_INSTRUMENT=Positive-Quattro_QQQ:40eV
FILENAME=hmdb_intermediate.mgf
SEQ=*..*
IONMODE=Positive
ORGANISM=HMDB
NAME=HMDB:HMDB00852-1204 Beta-Sitosterol M+H
PI=HMDB
DATACOLLECTOR=HMDB
SMILES=[H][C@@]1(CC[C@@]2([H])[C@]3([H])CC=C4C[C@@H](O)CC[C@]4(C)[C@@]3([H])CC[C@]12C)[C@H](C)CC[C@@H](CC)C(C)C
INCHI=InChI=1S/C29H50O/c1-7-21(19(2)3)9-8-20(4)25-12-13-26-24-11-10-22-18-23(30)14-16-28(22,5)27(24)15-17-29(25,26)6/h10,19-21,23-27,30H,7-9,11-18H2,1-6H3/t20-,21-,23+,24+,25-,26+,27+,28+,29-/m1/s1
INCHIAUX=N/A
PUBMED=N/A
SUBMITUSER=mwang87
TAGS=
LIBRARYQUALITY=3
SPECTRUMID=CCMSLIB00000425530
SCANS=502
43.319 48.592 
57.189 60.563 
69.109 50.0 
81.067 100.0 
93.049 55.634 
95.079 64.085 
109.076 54.225 
119.053 45.775 
132.973 49.296 
135.05 26.937 
144.895 48.592 
156.941 54.93 
172.987 30.282 
182.934 24.824 
185.003 16.549 
197.036 22.007 
210.888 20.775 
END IONS

BEGIN IONS
PEPMASS=62.0606
CHARGE=1+
MSLEVEL=2
SOURCE_INSTRUMENT=Positive-Quattro_QQQ:25eV
FILENAME=hmdb_intermediate.mgf
SEQ=*..*
IONMODE=Positive
ORGANISM=HMDB
NAME=HMDB:HMDB00149-225 Ethanolamine M+H
PI=HMDB
DATACOLLECTOR=HMDB
SMILES=NCCO
INCHI=InChI=1S/C2H7NO/c3-1-2-4/h4H,1-3H2
INCHIAUX=N/A
PUBMED=N/A
SUBMITUSER=mwang87
TAGS=
LIBRARYQUALITY=3
SPECTRUMID=CCMSLIB00000425531
SCANS=503
27.0 20.027 
44.0 35.999 
45.0 34.705 
62.0 100.0 
END IONS

BEGIN IONS
PEPMASS=174.113
CHARGE=1+
MSLEVEL=2
SOURCE_INSTRUMENT=Positive-Quattro_QQQ:10eV
FILENAME=hmdb_intermediate.mgf
SEQ=*..*
IONMODE=Positive
ORGANISM=HMDB
NAME=HMDB:HMDB00701-978 Hexanoylglycine M+H
PI=HMDB
DATACOLLECTOR=HMDB
SMILES=CCCCCC(=O)NCC(O)=O
INCHI=InChI=1S/C8H15NO3/c1-2-3-4-5-7(10)9-6-8(11)12/h2-6H2,1H3,(H,9,10)(H,11,12)
INCHIAUX=N/A
PUBMED=N/A
SUBMITUSER=mwang87
TAGS=
LIBRARYQUALITY=3
SPECTRUMID=CCMSLIB00000425532
SCANS=504
43.648 5.361 
71.426 35.556 
76.344 100.0 
99.301 48.444 
174.148 3.778 
END IONS

BEGIN IONS
PEPMASS=291.232
CHARGE=1+
MSLEVEL=2
SOURCE_INSTRUMENT=Positive-Quattro_QQQ:10eV
FILENAME=hmdb_intermediate.mgf
SEQ=*..*
IONMODE=Positive
ORGANISM=HMDB
NAME=HMDB:HMDB00546-767 Epietiocholanolone M+H
PI=HMDB
DATACOLLECTOR=HMDB
SMILES=[H][C@@]12CCC(=O)[C@@]1(C)CC[C@@]1([H])[C@@]2([H])CC[C@]2([H])C[C@@H](O)CC[C@]12C
INCHI=InChI=1S/C19H30O2/c1-18-9-7-13(20)11-12(18)3-4-14-15-5-6-17(21)19(15,2)10-8-16(14)18/h12-16,20H,3-11H2,1-2H3/t12-,13+,14+,15+,16+,18+,19+/m1/s1
INCHIAUX=N/A
PUBMED=N/A
SUBMITUSER=mwang87
TAGS=
LIBRARYQUALITY=3
SPECTRUMID=CCMSLIB00000425533
SCANS=505
81.405 8.195 
104.97 9.466 
122.89 13.201 
131.114 9.62 
134.919 21.017 
144.984 12.084 
158.977 7.656 
172.971 13.252 
179.108 6.668 
188.561 14.767 
198.75 20.774 
212.867 5.526 
215.077 31.375 
227.231 5.127 
254.486 46.289 
255.346 100.0 
273.272 32.865 
291.444 10.891 
END IONS

BEGIN IONS
PEPMASS=103.04
CHARGE=1+
MSLEVEL=2
SOURCE_INSTRUMENT=Negative-Quattro_QQQ:40eV
FILENAME=hmdb_intermediate.mgf
SEQ=*..*
IONMODE=Negative
ORGANISM=HMDB
NAME=HMDB:HMDB00008-12 2-Hydroxybutyric acid M-H
PI=HMDB
DATACOLLECTOR=HMDB
SMILES=CCC(O)C(O)=O
INCHI=InChI=1S/C4H8O3/c1-2-3(5)4(6)7/h3,5H,2H2,1H3,(H,6,7)
INCHIAUX=N/A
PUBMED=N/A
SUBMITUSER=mwang87
TAGS=
LIBRARYQUALITY=3
SPECTRUMID=CCMSLIB00000425534
SCANS=506
45.426 100.0 
57.423 59.788 
103.233 88.889 
END IONS

BEGIN IONS
PEPMASS=308.065
CHARGE=1+
MSLEVEL=2
SOURCE_INSTRUMENT=Positive-Quattro_QQQ:10eV
FILENAME=hmdb_intermediate.mgf
SEQ=*..*
IONMODE=Positive
ORGANISM=HMDB
NAME=HMDB:HMDB01202-1463 dCMP M+H
PI=HMDB
DATACOLLECTOR=HMDB
SMILES=NC1=NC(=O)N(C=C1)[C@H]1C[C@H](O)[C@@H](COP(O)(O)=O)O1
INCHI=InChI=1S/C9H14N3O7P/c10-7-1-2-12(9(14)11-7)8-3-5(13)6(19-8)4-18-20(15,16)17/h1-2,5-6,8,13H,3-4H2,(H2,10,11,14)(H2,15,16,17)/t5-,6+,8+/m0/s1
INCHIAUX=N/A
PUBMED=N/A
SUBMITUSER=mwang87
TAGS=
LIBRARYQUALITY=3
SPECTRUMID=CCMSLIB00000425535
SCANS=507
81.0 4.333 
112.0 100.0 
308.0 1.642 
END IONS

BEGIN IONS
PEPMASS=316.249
CHARGE=1+
MSLEVEL=2
SOURCE_INSTRUMENT=Positive-Quattro_QQQ:10eV
FILENAME=hmdb_intermediate.mgf
SEQ=*..*
IONMODE=Positive
ORGANISM=HMDB
NAME=HMDB:HMDB00651-888 Decanoylcarnitine M+H
PI=HMDB
DATACOLLECTOR=HMDB
SMILES=CCCCCCCCCC(=O)OC(CC([O-])=O)C[N+](C)(C)C
INCHI=InChI=1S/C17H33NO4/c1-5-6-7-8-9-10-11-12-17(21)22-15(13-16(19)20)14-18(2,3)4/h15H,5-14H2,1-4H3
INCHIAUX=N/A
PUBMED=N/A
SUBMITUSER=mwang87
TAGS=
LIBRARYQUALITY=3
SPECTRUMID=CCMSLIB00000425536
SCANS=508
60.475 14.216 
85.28 70.196 
144.187 1.618 
155.211 7.549 
257.192 23.922 
316.288 100.0 
END IONS

BEGIN IONS
PEPMASS=129.019
CHARGE=1+
MSLEVEL=2
SOURCE_INSTRUMENT=Negative-Quattro_QQQ:10eV
FILENAME=hmdb_intermediate.mgf
SEQ=*..*
IONMODE=Negative
ORGANISM=HMDB
NAME=HMDB:HMDB61185-837 2-Pentendioate M-H
PI=HMDB
DATACOLLECTOR=HMDB
SMILES=OC(=O)CC=CC(O)=O
INCHI=InChI=1S/C5H6O4/c6-4(7)2-1-3-5(8)9/h1-2H,3H2,(H,6,7)(H,8,9)/b2-1+
INCHIAUX=N/A
PUBMED=N/A
SUBMITUSER=mwang87
TAGS=
LIBRARYQUALITY=3
SPECTRUMID=CCMSLIB00000425537
SCANS=509
41.317 16.447 
85.036 100.0 
128.921 2.237 
END IONS

BEGIN IONS
PEPMASS=136.043
CHARGE=1+
MSLEVEL=2
SOURCE_INSTRUMENT=Positive-Quattro_QQQ:25eV
FILENAME=hmdb_intermediate.mgf
SEQ=*..*
IONMODE=Positive
ORGANISM=HMDB
NAME=HMDB:HMDB00742-1054 Homocysteine M+H
PI=HMDB
DATACOLLECTOR=HMDB
SMILES=NC(CCS)C(O)=O
INCHI=InChI=1S/C4H9NO2S/c5-3(1-2-8)4(6)7/h3,8H,1-2,5H2,(H,6,7)
INCHIAUX=N/A
PUBMED=N/A
SUBMITUSER=mwang87
TAGS=
LIBRARYQUALITY=3
SPECTRUMID=CCMSLIB00000425538
SCANS=510
44.359 22.283 
47.224 35.217 
56.226 100.0 
73.129 19.891 
90.024 40.0 
135.911 6.005 
END IONS

BEGIN IONS
PEPMASS=131.118
CHARGE=1+
MSLEVEL=2
SOURCE_INSTRUMENT=Positive-Quattro_QQQ:25eV
FILENAME=hmdb_intermediate.mgf
SEQ=*..*
IONMODE=Positive
ORGANISM=HMDB
NAME=HMDB:HMDB60268-1976 N-Acetylputrescinium M+H
PI=HMDB
DATACOLLECTOR=HMDB
SMILES=CC(O)=NCCCCN
INCHI=InChI=1S/C6H14N2O/c1-6(9)8-5-3-2-4-7/h2-5,7H2,1H3,(H,8,9)
INCHIAUX=N/A
PUBMED=N/A
SUBMITUSER=mwang87
TAGS=
LIBRARYQUALITY=3
SPECTRUMID=CCMSLIB00000425539
SCANS=511
72.0 100.0 
114.0 2.058 
END IONS

BEGIN IONS
PEPMASS=109.029
CHARGE=1+
MSLEVEL=2
SOURCE_INSTRUMENT=Positive-Quattro_QQQ:10eV
FILENAME=hmdb_intermediate.mgf
SEQ=*..*
IONMODE=Positive
ORGANISM=HMDB
NAME=HMDB:HMDB03364-2268 Quinone M+H
PI=HMDB
DATACOLLECTOR=HMDB
SMILES=O=C1C=CC(=O)C=C1
INCHI=InChI=1S/C6H4O2/c7-5-1-2-6(8)4-3-5/h1-4H
INCHIAUX=N/A
PUBMED=N/A
SUBMITUSER=mwang87
TAGS=
LIBRARYQUALITY=3
SPECTRUMID=CCMSLIB00000425540
SCANS=512
66.0 15.234 
76.0 16.68 
93.0 21.995 
108.0 100.0 
END IONS

BEGIN IONS
PEPMASS=112.087
CHARGE=1+
MSLEVEL=2
SOURCE_INSTRUMENT=Positive-Quattro_QQQ:10eV
FILENAME=hmdb_intermediate.mgf
SEQ=*..*
IONMODE=Positive
ORGANISM=HMDB
NAME=HMDB:HMDB00870-1223 Histamine M+H
PI=HMDB
DATACOLLECTOR=HMDB
SMILES=NCCC1=CNC=N1
INCHI=InChI=1S/C5H9N3/c6-2-1-5-3-7-4-8-5/h3-4H,1-2,6H2,(H,7,8)
INCHIAUX=N/A
PUBMED=N/A
SUBMITUSER=mwang87
TAGS=
LIBRARYQUALITY=3
SPECTRUMID=CCMSLIB00000425541
SCANS=513
83.047 8.26 
95.04 100.0 
111.998 76.652 
END IONS

BEGIN IONS
PEPMASS=555.462
CHARGE=1+
MSLEVEL=2
SOURCE_INSTRUMENT=Positive-Quattro_QQQ:10eV
FILENAME=hmdb_intermediate.mgf
SEQ=*..*
IONMODE=Positive
ORGANISM=HMDB
NAME=HMDB:HMDB00548-770 TG(10:0/10:0/10:0)[iso] M+H
PI=HMDB
DATACOLLECTOR=HMDB
SMILES=CCCCCCCCCC(=O)OCC(COC(=O)CCCCCCCCC)OC(=O)CCCCCCCCC
INCHI=InChI=1S/C33H62O6/c1-4-7-10-13-16-19-22-25-31(34)37-28-30(39-33(36)27-24-21-18-15-12-9-6-3)29-38-32(35)26-23-20-17-14-11-8-5-2/h30H,4-29H2,1-3H3
INCHIAUX=N/A
PUBMED=N/A
SUBMITUSER=mwang87
TAGS=
LIBRARYQUALITY=3
SPECTRUMID=CCMSLIB00000425542
SCANS=514
477.0 35.467 
555.0 100.0 
END IONS

BEGIN IONS
PEPMASS=120.066
CHARGE=1+
MSLEVEL=2
SOURCE_INSTRUMENT=Positive-Quattro_QQQ:10eV
FILENAME=hmdb_intermediate.mgf
SEQ=*..*
IONMODE=Positive
ORGANISM=HMDB
NAME=HMDB:HMDB00167-263 L-Threonine M+H
PI=HMDB
DATACOLLECTOR=HMDB
SMILES=C[C@@H](O)[C@H](N)C(O)=O
INCHI=InChI=1S/C4H9NO3/c1-2(6)3(5)4(7)8/h2-3,6H,5H2,1H3,(H,7,8)/t2-,3+/m1/s1
INCHIAUX=N/A
PUBMED=N/A
SUBMITUSER=mwang87
TAGS=
LIBRARYQUALITY=3
SPECTRUMID=CCMSLIB00000425543
SCANS=515
56.222 27.116 
74.101 100.0 
84.06 9.127 
102.013 26.852 
119.959 28.307 
END IONS

BEGIN IONS
PEPMASS=178.054
CHARGE=1+
MSLEVEL=2
SOURCE_INSTRUMENT=Positive-Quattro_QQQ:10eV
FILENAME=hmdb_intermediate.mgf
SEQ=*..*
IONMODE=Positive
ORGANISM=HMDB
NAME=HMDB:HMDB01015-1387 N-Formyl-L-methionine M+H
PI=HMDB
DATACOLLECTOR=HMDB
SMILES=CSCC[C@@H](NC=O)C(O)=O
INCHI=InChI=1S/C6H11NO3S/c1-11-3-2-5(6(9)10)7-4-8/h4-5H,2-3H2,1H3,(H,7,8)(H,9,10)/t5-/m1/s1
INCHIAUX=N/A
PUBMED=N/A
SUBMITUSER=mwang87
TAGS=
LIBRARYQUALITY=3
SPECTRUMID=CCMSLIB00000425544
SCANS=516
56.11 10.885 
103.94 75.117 
129.87 100.0 
149.88 37.592 
END IONS

BEGIN IONS
PEPMASS=275.017
CHARGE=1+
MSLEVEL=2
SOURCE_INSTRUMENT=Negative-Quattro_QQQ:10eV
FILENAME=hmdb_intermediate.mgf
SEQ=*..*
IONMODE=Negative
ORGANISM=HMDB
NAME=HMDB:HMDB01316-1516 6-Phosphogluconic acid M-H
PI=HMDB
DATACOLLECTOR=HMDB
SMILES=O[C@H](COP(O)(O)=O)[C@@H](O)[C@H](O)[C@@H](O)C(O)=O
INCHI=InChI=1S/C6H13O10P/c7-2(1-16-17(13,14)15)3(8)4(9)5(10)6(11)12/h2-5,7-10H,1H2,(H,11,12)(H2,13,14,15)/t2-,3-,4+,5-/m1/s1
INCHIAUX=N/A
PUBMED=N/A
SUBMITUSER=mwang87
TAGS=
LIBRARYQUALITY=3
SPECTRUMID=CCMSLIB00000425545
SCANS=517
78.0 6.808 
96.0 42.257 
176.0 5.342 
256.0 7.847 
274.0 100.0 
275.0 19.434 
END IONS

BEGIN IONS
PEPMASS=121.05
CHARGE=1+
MSLEVEL=2
SOURCE_INSTRUMENT=Positive-Quattro_QQQ:25eV
FILENAME=hmdb_intermediate.mgf
SEQ=*..*
IONMODE=Positive
ORGANISM=HMDB
NAME=HMDB:HMDB02649-2120 Erythrose M+H
PI=HMDB
DATACOLLECTOR=HMDB
SMILES=O[C@@H]1COC(O)[C@@H]1O
INCHI=InChI=1S/C4H8O4/c5-2-1-8-4(7)3(2)6/h2-7H,1H2/t2-,3-,4?/m1/s1
INCHIAUX=N/A
PUBMED=N/A
SUBMITUSER=mwang87
TAGS=
LIBRARYQUALITY=3
SPECTRUMID=CCMSLIB00000425546
SCANS=518
42.0 95.308 
64.0 36.978 
65.0 41.079 
76.0 100.0 
90.0 51.238 
END IONS

BEGIN IONS
PEPMASS=161.108
CHARGE=1+
MSLEVEL=2
SOURCE_INSTRUMENT=Positive-Quattro_QQQ:10eV
FILENAME=hmdb_intermediate.mgf
SEQ=*..*
IONMODE=Positive
ORGANISM=HMDB
NAME=HMDB:HMDB00303-516 Tryptamine M+H
PI=HMDB
DATACOLLECTOR=HMDB
SMILES=NCCC1=CNC2=CC=CC=C12
INCHI=InChI=1S/C10H12N2/c11-6-5-8-7-12-10-4-2-1-3-9(8)10/h1-4,7,12H,5-6,11H2
INCHIAUX=N/A
PUBMED=N/A
SUBMITUSER=mwang87
TAGS=
LIBRARYQUALITY=3
SPECTRUMID=CCMSLIB00000425547
SCANS=519
91.105 3.594 
117.049 42.5 
127.075 19.0 
161.001 100.0 
END IONS

BEGIN IONS
PEPMASS=190.119
CHARGE=1+
MSLEVEL=2
SOURCE_INSTRUMENT=Positive-Quattro_QQQ:10eV
FILENAME=hmdb_intermediate.mgf
SEQ=*..*
IONMODE=Positive
ORGANISM=HMDB
NAME=HMDB:HMDB00679-942 Homocitrulline M+H
PI=HMDB
DATACOLLECTOR=HMDB
SMILES=N[C@@H](CCCCNC(N)=O)C(O)=O
INCHI=InChI=1S/C7H15N3O3/c8-5(6(11)12)3-1-2-4-10-7(9)13/h5H,1-4,8H2,(H,11,12)(H3,9,10,13)/t5-/m0/s1
INCHIAUX=N/A
PUBMED=N/A
SUBMITUSER=mwang87
TAGS=
LIBRARYQUALITY=3
SPECTRUMID=CCMSLIB00000425548
SCANS=520
84.144 23.933 
127.093 28.049 
144.114 7.088 
147.05 4.421 
173.012 100.0 
190.012 42.073 
END IONS

BEGIN IONS
PEPMASS=89.0239
CHARGE=1+
MSLEVEL=2
SOURCE_INSTRUMENT=Negative-Quattro_QQQ:25eV
FILENAME=hmdb_intermediate.mgf
SEQ=*..*
IONMODE=Negative
ORGANISM=HMDB
NAME=HMDB:HMDB01311-1514 D-Lactic acid M-H
PI=HMDB
DATACOLLECTOR=HMDB
SMILES=C[C@@H](O)C(O)=O
INCHI=InChI=1S/C3H6O3/c1-2(4)3(5)6/h2,4H,1H3,(H,5,6)/t2-/m1/s1
INCHIAUX=N/A
PUBMED=N/A
SUBMITUSER=mwang87
TAGS=
LIBRARYQUALITY=3
SPECTRUMID=CCMSLIB00000425549
SCANS=521
17.0 48.72 
43.0 100.0 
45.0 80.617 
89.0 84.828 
END IONS

BEGIN IONS
PEPMASS=489.115
CHARGE=1+
MSLEVEL=2
SOURCE_INSTRUMENT=Positive-Quattro_QQQ:25eV
FILENAME=hmdb_intermediate.mgf
SEQ=*..*
IONMODE=Positive
ORGANISM=HMDB
NAME=HMDB:HMDB01413-1566 Citicoline M+H
PI=HMDB
DATACOLLECTOR=HMDB
SMILES=C[N+](C)(C)CCOP([O-])(=O)OP(O)(=O)OC[C@H]1O[C@H]([C@H](O)[C@@H]1O)N1C=CC(N)=NC1=O
INCHI=InChI=1S/C14H26N4O11P2/c1-18(2,3)6-7-26-30(22,23)29-31(24,25)27-8-9-11(19)12(20)13(28-9)17-5-4-10(15)16-14(17)21/h4-5,9,11-13,19-20H,6-8H2,1-3H3,(H3-,15,16,21,22,23,24,25)/t9-,11-,12-,13-/m1/s1
INCHIAUX=N/A
PUBMED=N/A
SUBMITUSER=mwang87
TAGS=
LIBRARYQUALITY=3
SPECTRUMID=CCMSLIB00000425550
SCANS=522
112.0 1.87 
184.0 55.803 
185.0 29.763 
227.0 5.194 
246.0 2.625 
264.0 100.0 
265.0 32.954 
281.0 5.181 
361.0 7.819 
379.0 2.274 
END IONS

BEGIN IONS
PEPMASS=181.071
CHARGE=1+
MSLEVEL=2
SOURCE_INSTRUMENT=Positive-Quattro_QQQ:40eV
FILENAME=hmdb_intermediate.mgf
SEQ=*..*
IONMODE=Positive
ORGANISM=HMDB
NAME=HMDB:HMDB00660-902 D-Fructose M+H
PI=HMDB
DATACOLLECTOR=HMDB
SMILES=OC[C@H]1O[C@](O)(CO)[C@@H](O)[C@@H]1O
INCHI=InChI=1S/C6H12O6/c7-1-3-4(9)5(10)6(11,2-8)12-3/h3-5,7-11H,1-2H2/t3-,4-,5+,6-/m1/s1
INCHIAUX=N/A
PUBMED=N/A
SUBMITUSER=mwang87
TAGS=
LIBRARYQUALITY=3
SPECTRUMID=CCMSLIB00000425551
SCANS=523
41.0 22.867 
45.0 47.956 
61.0 39.667 
73.0 100.0 
75.0 34.965 
85.0 81.002 
103.0 20.963 
117.0 51.843 
149.0 19.643 
181.0 8.82 
END IONS

BEGIN IONS
PEPMASS=91.0031
CHARGE=1+
MSLEVEL=2
SOURCE_INSTRUMENT=Positive-Quattro_QQQ:40eV
FILENAME=hmdb_intermediate.mgf
SEQ=*..*
IONMODE=Positive
ORGANISM=HMDB
NAME=HMDB:HMDB02329-2063 Oxalic acid M+H
PI=HMDB
DATACOLLECTOR=HMDB
SMILES=OC(=O)C(O)=O
INCHI=InChI=1S/C2H2O4/c3-1(4)2(5)6/h(H,3,4)(H,5,6)
INCHIAUX=N/A
PUBMED=N/A
SUBMITUSER=mwang87
TAGS=
LIBRARYQUALITY=3
SPECTRUMID=CCMSLIB00000425552
SCANS=524
38.0 100.0 
END IONS

BEGIN IONS
PEPMASS=244.093
CHARGE=1+
MSLEVEL=2
SOURCE_INSTRUMENT=Positive-Quattro_QQQ:40eV
FILENAME=hmdb_intermediate.mgf
SEQ=*..*
IONMODE=Positive
ORGANISM=HMDB
NAME=HMDB:HMDB00089-140 Cytidine M+H
PI=HMDB
DATACOLLECTOR=HMDB
SMILES=NC1=NC(=O)N(C=C1)[C@@H]1O[C@H](CO)[C@@H](O)[C@H]1O
INCHI=InChI=1S/C9H13N3O5/c10-5-1-2-12(9(16)11-5)8-7(15)6(14)4(3-13)17-8/h1-2,4,6-8,13-15H,3H2,(H2,10,11,16)/t4-,6-,7-,8-/m1/s1
INCHIAUX=N/A
PUBMED=N/A
SUBMITUSER=mwang87
TAGS=
LIBRARYQUALITY=3
SPECTRUMID=CCMSLIB00000425553
SCANS=525
57.218 5.366 
69.092 14.878 
94.769 49.268 
111.984 100.0 
END IONS

BEGIN IONS
PEPMASS=181.071
CHARGE=1+
MSLEVEL=2
SOURCE_INSTRUMENT=Positive-Quattro_QQQ:25eV
FILENAME=hmdb_intermediate.mgf
SEQ=*..*
IONMODE=Positive
ORGANISM=HMDB
NAME=HMDB:HMDB06088-2470 Scyllitol M+H
PI=HMDB
DATACOLLECTOR=HMDB
SMILES=O[C@H]1[C@H](O)[C@@H](O)[C@@H](O)[C@@H](O)[C@H]1O
INCHI=InChI=1S/C6H12O6/c7-1-2(8)4(10)6(12)5(11)3(1)9/h1-12H/t1-,2-,3-,4+,5-,6+
INCHIAUX=N/A
PUBMED=N/A
SUBMITUSER=mwang87
TAGS=
LIBRARYQUALITY=3
SPECTRUMID=CCMSLIB00000425554
SCANS=526
54.85 77.257 
80.95 37.987 
98.66 100.0 
139.55 45.465 
END IONS

BEGIN IONS
PEPMASS=91.0759
CHARGE=1+
MSLEVEL=2
SOURCE_INSTRUMENT=Positive-Quattro_QQQ:40eV
FILENAME=hmdb_intermediate.mgf
SEQ=*..*
IONMODE=Positive
ORGANISM=HMDB
NAME=HMDB:HMDB03156-2205 2,3-Butanediol M+H
PI=HMDB
DATACOLLECTOR=HMDB
SMILES=CC(O)C(C)O
INCHI=InChI=1S/C4H10O2/c1-3(5)4(2)6/h3-6H,1-2H3
INCHIAUX=N/A
PUBMED=N/A
SUBMITUSER=mwang87
TAGS=
LIBRARYQUALITY=3
SPECTRUMID=CCMSLIB00000425555
SCANS=527
23.0 17.302 
39.0 100.0 
50.0 37.88 
64.0 45.929 
65.0 28.161 
90.0 32.241 
END IONS

BEGIN IONS
PEPMASS=232.118
CHARGE=1+
MSLEVEL=2
SOURCE_INSTRUMENT=Positive-Quattro_QQQ:25eV
FILENAME=hmdb_intermediate.mgf
SEQ=*..*
IONMODE=Positive
ORGANISM=HMDB
NAME=HMDB:HMDB00953-1346 Suberylglycine M+H
PI=HMDB
DATACOLLECTOR=HMDB
SMILES=OC(=O)CCCCCCC(=O)NCC(O)=O
INCHI=InChI=1S/C10H17NO5/c12-8(11-7-10(15)16)5-3-1-2-4-6-9(13)14/h1-7H2,(H,11,12)(H,13,14)(H,15,16)
INCHIAUX=N/A
PUBMED=N/A
SUBMITUSER=mwang87
TAGS=
LIBRARYQUALITY=3
SPECTRUMID=CCMSLIB00000425556
SCANS=528
55.0 43.739 
69.0 26.393 
83.0 100.0 
111.0 20.708 
157.0 10.499 
END IONS

BEGIN IONS
PEPMASS=153.076
CHARGE=1+
MSLEVEL=2
SOURCE_INSTRUMENT=Positive-Quattro_QQQ:10eV
FILENAME=hmdb_intermediate.mgf
SEQ=*..*
IONMODE=Positive
ORGANISM=HMDB
NAME=HMDB:HMDB02917-2160 D-Xylitol M+H
PI=HMDB
DATACOLLECTOR=HMDB
SMILES=OC[C@H](O)C(O)[C@H](O)CO
INCHI=InChI=1S/C5H12O5/c6-1-3(8)5(10)4(9)2-7/h3-10H,1-2H2/t3-,4+,5?
INCHIAUX=N/A
PUBMED=N/A
SUBMITUSER=mwang87
TAGS=
LIBRARYQUALITY=3
SPECTRUMID=CCMSLIB00000425557
SCANS=529
61.0 8.0286281179 
69.0 90.765542328 
87.0 9.0655706727 
99.0 72.4903155707 
117.0 100.0 
135.0 53.7970049131 
153.0 43.2338907785 
END IONS

BEGIN IONS
PEPMASS=289.217
CHARGE=1+
MSLEVEL=2
SOURCE_INSTRUMENT=Positive-Quattro_QQQ:10eV
FILENAME=hmdb_intermediate.mgf
SEQ=*..*
IONMODE=Positive
ORGANISM=HMDB
NAME=HMDB:HMDB00628-855 Epitestosterone M+H
PI=HMDB
DATACOLLECTOR=HMDB
SMILES=[H][C@@]12CC[C@@H](O)[C@@]1(C)CC[C@@]1([H])[C@@]2([H])CCC2=CC(=O)CC[C@]12C
INCHI=InChI=1S/C19H28O2/c1-18-9-7-13(20)11-12(18)3-4-14-15-5-6-17(21)19(15,2)10-8-16(14)18/h11,14-17,21H,3-10H2,1-2H3/t14-,15-,16-,17+,18-,19-/m0/s1
INCHIAUX=N/A
PUBMED=N/A
SUBMITUSER=mwang87
TAGS=
LIBRARYQUALITY=3
SPECTRUMID=CCMSLIB00000425558
SCANS=530
97.243 8.712 
109.197 4.83 
171.121 1.054 
175.124 1.314 
189.101 0.994 
253.169 3.788 
271.207 3.504 
289.255 100.0 
END IONS

BEGIN IONS
PEPMASS=537.446
CHARGE=1+
MSLEVEL=2
SOURCE_INSTRUMENT=Positive-Quattro_QQQ:25eV
FILENAME=hmdb_intermediate.mgf
SEQ=*..*
IONMODE=Positive
ORGANISM=HMDB
NAME=HMDB:HMDB00561-783 B-Carotene M+H
PI=HMDB
DATACOLLECTOR=HMDB
SMILES=C\C(\C=C\C=C(/C)\C=C\C1=C(C)CCCC1(C)C)=C/C=C/C=C(\C)/C=C/C=C(\C)/C=C/C1=C(C)CCCC1(C)C
INCHI=InChI=1S/C40H56/c1-31(19-13-21-33(3)25-27-37-35(5)23-15-29-39(37,7)8)17-11-12-18-32(2)20-14-22-34(4)26-28-38-36(6)24-16-30-40(38,9)10/h11-14,17-22,25-28H,15-16,23-24,29-30H2,1-10H3/b12-11+,19-13+,20-14+,27-25+,28-26+,31-17+,32-18+,33-21+,34-22+
INCHIAUX=N/A
PUBMED=N/A
SUBMITUSER=mwang87
TAGS=
LIBRARYQUALITY=3
SPECTRUMID=CCMSLIB00000425559
SCANS=531
55.023 14.503 
70.501 11.45 
75.619 12.211 
91.342 12.977 
104.139 10.685 
110.111 18.317 
123.031 11.45 
125.591 16.029 
134.733 13.737 
146.556 18.317 
158.746 13.737 
183.491 11.45 
201.899 19.082 
214.334 13.737 
223.843 11.45 
226.525 12.211 
238.717 12.211 
253.591 17.556 
256.761 11.45 
268.953 11.45 
281.146 12.977 
290.534 10.685 
298.094 11.45 
313.214 13.737 
318.579 12.211 
324.676 10.685 
342.357 12.977 
348.942 10.685 
360.649 19.082 
366.624 11.45 
384.185 12.977 
391.38 13.737 
397.478 14.503 
410.649 12.211 
415.771 12.977 
433.455 12.211 
443.334 12.211 
452.603 12.977 
461.507 11.45 
469.19 14.503 
479.07 10.685 
486.754 10.685 
497.609 100.0 
522.736 11.45 
526.639 14.503 
541.032 13.737 
550.79 12.977 
556.279 13.737 
573.966 12.211 
574.576 13.737 
588.848 13.737 
END IONS

BEGIN IONS
PEPMASS=119.082
CHARGE=1+
MSLEVEL=2
SOURCE_INSTRUMENT=Positive-Quattro_QQQ:25eV
FILENAME=hmdb_intermediate.mgf
SEQ=*..*
IONMODE=Positive
ORGANISM=HMDB
NAME=HMDB:HMDB02362-2084 2,4-Diaminobutyric acid M+H
PI=HMDB
DATACOLLECTOR=HMDB
SMILES=NCCC(N)C(O)=O
INCHI=InChI=1S/C4H10N2O2/c5-2-1-3(6)4(7)8/h3H,1-2,5-6H2,(H,7,8)
INCHIAUX=N/A
PUBMED=N/A
SUBMITUSER=mwang87
TAGS=
LIBRARYQUALITY=3
SPECTRUMID=CCMSLIB00000425560
SCANS=532
44.0 42.331 
46.0 7.994 
56.0 100.0 
74.0 29.357 
84.0 5.362 
102.0 5.559 
END IONS

BEGIN IONS
PEPMASS=143.107
CHARGE=1+
MSLEVEL=2
SOURCE_INSTRUMENT=Negative-Quattro_QQQ:25eV
FILENAME=hmdb_intermediate.mgf
SEQ=*..*
IONMODE=Negative
ORGANISM=HMDB
NAME=HMDB:HMDB00482-699 Caprylic acid M-H
PI=HMDB
DATACOLLECTOR=HMDB
SMILES=CCCCCCCC(O)=O
INCHI=InChI=1S/C8H16O2/c1-2-3-4-5-6-7-8(9)10/h2-7H2,1H3,(H,9,10)
INCHIAUX=N/A
PUBMED=N/A
SUBMITUSER=mwang87
TAGS=
LIBRARYQUALITY=3
SPECTRUMID=CCMSLIB00000425561
SCANS=533
45.602 7.237 
54.53 13.158 
71.408 5.428 
80.331 3.906 
123.219 2.529 
125.246 4.729 
143.224 100.0 
END IONS

BEGIN IONS
PEPMASS=209.03
CHARGE=1+
MSLEVEL=2
SOURCE_INSTRUMENT=Negative-Quattro_QQQ:10eV
FILENAME=hmdb_intermediate.mgf
SEQ=*..*
IONMODE=Negative
ORGANISM=HMDB
NAME=HMDB:HMDB00663-906 Glucaric acid M-H
PI=HMDB
DATACOLLECTOR=HMDB
SMILES=O[C@@H]([C@H](O)[C@@H](O)C(O)=O)[C@H](O)C(O)=O
INCHI=InChI=1S/C6H10O8/c7-1(3(9)5(11)12)2(8)4(10)6(13)14/h1-4,7-10H,(H,11,12)(H,13,14)/t1-,2-,3-,4+/m0/s1
INCHIAUX=N/A
PUBMED=N/A
SUBMITUSER=mwang87
TAGS=
LIBRARYQUALITY=3
SPECTRUMID=CCMSLIB00000425562
SCANS=534
59.465 2.0522601564 
85.349 45.8954796872 
121.27 2.3784093076 
133.125 3.3339691017 
191.08 18.3768834637 
209.071 100.0 
END IONS

BEGIN IONS
PEPMASS=154.05
CHARGE=1+
MSLEVEL=2
SOURCE_INSTRUMENT=Positive-Quattro_QQQ:25eV
FILENAME=hmdb_intermediate.mgf
SEQ=*..*
IONMODE=Positive
ORGANISM=HMDB
NAME=HMDB:HMDB01476-1596 3-Hydroxyanthranilic acid M+H
PI=HMDB
DATACOLLECTOR=HMDB
SMILES=NC1=C(O)C=CC=C1C(O)=O
INCHI=InChI=1S/C7H7NO3/c8-6-4(7(10)11)2-1-3-5(6)9/h1-3,9H,8H2,(H,10,11)
INCHIAUX=N/A
PUBMED=N/A
SUBMITUSER=mwang87
TAGS=
LIBRARYQUALITY=3
SPECTRUMID=CCMSLIB00000425563
SCANS=535
80.0 100.0 
108.0 29.299 
136.0 18.048 
END IONS

BEGIN IONS
PEPMASS=238.094
CHARGE=1+
MSLEVEL=2
SOURCE_INSTRUMENT=Positive-Quattro_QQQ:25eV
FILENAME=hmdb_intermediate.mgf
SEQ=*..*
IONMODE=Positive
ORGANISM=HMDB
NAME=HMDB:HMDB00468-681 Biopterin M+H
PI=HMDB
DATACOLLECTOR=HMDB
SMILES=C[C@H](O)[C@H](O)C1=NC2=C(NC(N)=NC2=O)N=C1
INCHI=InChI=1S/C9H11N5O3/c1-3(15)6(16)4-2-11-7-5(12-4)8(17)14-9(10)13-7/h2-3,6,15-16H,1H3,(H3,10,11,13,14,17)/t3-,6-/m0/s1
INCHIAUX=N/A
PUBMED=N/A
SUBMITUSER=mwang87
TAGS=
LIBRARYQUALITY=3
SPECTRUMID=CCMSLIB00000425564
SCANS=536
43.323 11.087 
80.147 12.283 
107.839 12.065 
123.946 20.109 
132.948 16.739 
135.291 6.087 
146.995 28.696 
161.143 7.283 
164.602 11.304 
177.134 100.0 
192.056 35.652 
202.013 7.609 
219.927 11.087 
237.552 5.217 
END IONS

BEGIN IONS
PEPMASS=165.092
CHARGE=1+
MSLEVEL=2
SOURCE_INSTRUMENT=Positive-Quattro_QQQ:40eV
FILENAME=hmdb_intermediate.mgf
SEQ=*..*
IONMODE=Positive
ORGANISM=HMDB
NAME=HMDB:HMDB01955-1910 3-Phenylbutyric acid M+H
PI=HMDB
DATACOLLECTOR=HMDB
SMILES=CC(CC(O)=O)C1=CC=CC=C1
INCHI=InChI=1S/C10H12O2/c1-8(7-10(11)12)9-5-3-2-4-6-9/h2-6,8H,7H2,1H3,(H,11,12)
INCHIAUX=N/A
PUBMED=N/A
SUBMITUSER=mwang87
TAGS=
LIBRARYQUALITY=3
SPECTRUMID=CCMSLIB00000425565
SCANS=537
50.0 12.976 
76.0 100.0 
90.0 12.841 
104.0 32.891 
105.0 17.606 
END IONS

BEGIN IONS
PEPMASS=149.045
CHARGE=1+
MSLEVEL=2
SOURCE_INSTRUMENT=Positive-Quattro_QQQ:10eV
FILENAME=hmdb_intermediate.mgf
SEQ=*..*
IONMODE=Positive
ORGANISM=HMDB
NAME=HMDB:HMDB00694-964 L-2-Hydroxyglutaric acid M+H
PI=HMDB
DATACOLLECTOR=HMDB
SMILES=O[C@@H](CCC(O)=O)C(O)=O
INCHI=InChI=1S/C5H8O5/c6-3(5(9)10)1-2-4(7)8/h3,6H,1-2H2,(H,7,8)(H,9,10)/t3-/m0/s1
INCHIAUX=N/A
PUBMED=N/A
SUBMITUSER=mwang87
TAGS=
LIBRARYQUALITY=3
SPECTRUMID=CCMSLIB00000425566
SCANS=538
73.0 13.56 
87.0 16.965 
101.0 9.564 
105.0 70.267 
117.0 58.114 
131.0 14.521 
149.0 100.0 
END IONS

BEGIN IONS
PEPMASS=132.066
CHARGE=1+
MSLEVEL=2
SOURCE_INSTRUMENT=Positive-Quattro_QQQ:40eV
FILENAME=hmdb_intermediate.mgf
SEQ=*..*
IONMODE=Positive
ORGANISM=HMDB
NAME=HMDB:HMDB00725-1019 4-Hydroxyproline M+H
PI=HMDB
DATACOLLECTOR=HMDB
SMILES=O[C@H]1CN[C@@H](C1)C(O)=O
INCHI=InChI=1S/C5H9NO3/c7-3-1-4(5(8)9)6-2-3/h3-4,6-7H,1-2H2,(H,8,9)/t3-,4+/m1/s1
INCHIAUX=N/A
PUBMED=N/A
SUBMITUSER=mwang87
TAGS=
LIBRARYQUALITY=3
SPECTRUMID=CCMSLIB00000425567
SCANS=539
41.323 83.333 
58.14 23.438 
68.082 100.0 
85.971 22.917 
131.925 8.138 
END IONS

BEGIN IONS
PEPMASS=788.181
CHARGE=1+
MSLEVEL=2
SOURCE_INSTRUMENT=Positive-Quattro_QQQ:10eV
FILENAME=hmdb_intermediate.mgf
SEQ=*..*
IONMODE=Positive
ORGANISM=HMDB
NAME=HMDB:HMDB01197-1457 FADH M+H
PI=HMDB
DATACOLLECTOR=HMDB
SMILES=CC1=CC2=C(C=C1C)N(C[C@H](O)[C@H](O)[C@H](O)COP(O)(=O)OP(O)(=O)OC[C@H]1O[C@H]([C@H](O)[C@@H]1O)N1C=NC3=C1N=CN=C3N)C1=C(N2)C(=O)NC(=O)N1
INCHI=InChI=1S/C27H35N9O15P2/c1-10-3-12-13(4-11(10)2)35(24-18(32-12)25(42)34-27(43)33-24)5-14(37)19(39)15(38)6-48-52(44,45)51-53(46,47)49-7-16-20(40)21(41)26(50-16)36-9-31-17-22(28)29-8-30-23(17)36/h3-4,8-9,14-16,19-21,26,32,37-41H,5-7H2,1-2H3,(H,44,45)(H,46,47)(H2,28,29,30)(H2,33,34,42,43)/t14-,15+,16+,19-,20+,21+,26+/m0/s1
INCHIAUX=N/A
PUBMED=N/A
SUBMITUSER=mwang87
TAGS=
LIBRARYQUALITY=3
SPECTRUMID=CCMSLIB00000425568
SCANS=540
348.0 12.746 
439.0 23.589 
786.0 100.0 
END IONS

BEGIN IONS
PEPMASS=208.097
CHARGE=1+
MSLEVEL=2
SOURCE_INSTRUMENT=Positive-Quattro_QQQ:10eV
FILENAME=hmdb_intermediate.mgf
SEQ=*..*
IONMODE=Positive
ORGANISM=HMDB
NAME=HMDB:HMDB00512-737 N-Acetyl-L-phenylalanine M+H
PI=HMDB
DATACOLLECTOR=HMDB
SMILES=CC(=O)N[C@@H](CC1=CC=CC=C1)C(O)=O
INCHI=InChI=1S/C11H13NO3/c1-8(13)12-10(11(14)15)7-9-5-3-2-4-6-9/h2-6,10H,7H2,1H3,(H,12,13)(H,14,15)/t10-/m0/s1
INCHIAUX=N/A
PUBMED=N/A
SUBMITUSER=mwang87
TAGS=
LIBRARYQUALITY=3
SPECTRUMID=CCMSLIB00000425569
SCANS=541
119.0 100.0 
161.0 66.789 
165.0 91.724 
207.0 9.562 
END IONS

BEGIN IONS
PEPMASS=153.019
CHARGE=1+
MSLEVEL=2
SOURCE_INSTRUMENT=Negative-Quattro_QQQ:25eV
FILENAME=hmdb_intermediate.mgf
SEQ=*..*
IONMODE=Negative
ORGANISM=HMDB
NAME=HMDB:HMDB00152-234 Gentisic acid M-H
PI=HMDB
DATACOLLECTOR=HMDB
SMILES=OC(=O)C1=CC(O)=CC=C1O
INCHI=InChI=1S/C7H6O4/c8-4-1-2-6(9)5(3-4)7(10)11/h1-3,8-9H,(H,10,11)
INCHIAUX=N/A
PUBMED=N/A
SUBMITUSER=mwang87
TAGS=
LIBRARYQUALITY=3
SPECTRUMID=CCMSLIB00000425570
SCANS=542
53.253 9.248 
81.053 5.64 
108.072 100.0 
152.744 2.515 
END IONS

BEGIN IONS
PEPMASS=786.165
CHARGE=1+
MSLEVEL=2
SOURCE_INSTRUMENT=Positive-Quattro_QQQ:10eV
FILENAME=hmdb_intermediate.mgf
SEQ=*..*
IONMODE=Positive
ORGANISM=HMDB
NAME=HMDB:HMDB01248-1481 FAD M+H
PI=HMDB
DATACOLLECTOR=HMDB
SMILES=CC1=CC2=C(C=C1C)N(C[C@H](O)[C@H](O)[C@H](O)COP(O)(=O)OP(O)(=O)OC[C@H]1O[C@H]([C@H](O)[C@@H]1O)N1C=NC3=C1N=CN=C3N)C1=NC(=O)NC(=O)C1=N2
INCHI=InChI=1S/C27H33N9O15P2/c1-10-3-12-13(4-11(10)2)35(24-18(32-12)25(42)34-27(43)33-24)5-14(37)19(39)15(38)6-48-52(44,45)51-53(46,47)49-7-16-20(40)21(41)26(50-16)36-9-31-17-22(28)29-8-30-23(17)36/h3-4,8-9,14-16,19-21,26,37-41H,5-7H2,1-2H3,(H,44,45)(H,46,47)(H2,28,29,30)(H,34,42,43)/t14-,15+,16+,19-,20+,21+,26+/m0/s1
INCHIAUX=N/A
PUBMED=N/A
SUBMITUSER=mwang87
TAGS=
LIBRARYQUALITY=3
SPECTRUMID=CCMSLIB00000425571
SCANS=543
348.0 12.746 
439.0 23.589 
786.0 100.0 
END IONS

BEGIN IONS
PEPMASS=150.059
CHARGE=1+
MSLEVEL=2
SOURCE_INSTRUMENT=Positive-Quattro_QQQ:10eV
FILENAME=hmdb_intermediate.mgf
SEQ=*..*
IONMODE=Positive
ORGANISM=HMDB
NAME=HMDB:HMDB00696-969 L-Methionine M+H
PI=HMDB
DATACOLLECTOR=HMDB
SMILES=CSCC[C@H](N)C(O)=O
INCHI=InChI=1S/C5H11NO2S/c1-9-3-2-4(6)5(7)8/h4H,2-3,6H2,1H3,(H,7,8)/t4-/m0/s1
INCHIAUX=N/A
PUBMED=N/A
SUBMITUSER=mwang87
TAGS=
LIBRARYQUALITY=3
SPECTRUMID=CCMSLIB00000425572
SCANS=544
56.211 26.408 
74.115 4.291 
104.01 100.0 
132.918 75.704 
149.907 66.549 
END IONS

BEGIN IONS
PEPMASS=80.9646
CHARGE=1+
MSLEVEL=2
SOURCE_INSTRUMENT=Positive-Quattro_QQQ:40eV
FILENAME=hmdb_intermediate.mgf
SEQ=*..*
IONMODE=Positive
ORGANISM=HMDB
NAME=HMDB:HMDB00240-408 Sulfite M+H
PI=HMDB
DATACOLLECTOR=HMDB
SMILES=[O-]S([O-])=O
INCHI=InChI=1S/H2O3S/c1-4(2)3/h(H2,1,2,3)/p-2
INCHIAUX=N/A
PUBMED=N/A
SUBMITUSER=mwang87
TAGS=
LIBRARYQUALITY=3
SPECTRUMID=CCMSLIB00000425573
SCANS=545
53.406 74.932 
54.649 100.0 
73.172 33.696 
91.198 24.429 
98.16 27.867 
124.144 27.514 
128.122 27.867 
END IONS

BEGIN IONS
PEPMASS=220.118
CHARGE=1+
MSLEVEL=2
SOURCE_INSTRUMENT=Positive-Quattro_QQQ:10eV
FILENAME=hmdb_intermediate.mgf
SEQ=*..*
IONMODE=Positive
ORGANISM=HMDB
NAME=HMDB:HMDB00210-340 Pantothenic acid M+H
PI=HMDB
DATACOLLECTOR=HMDB
SMILES=CC(C)(CO)C(O)C(=O)NCCC(O)=O
INCHI=InChI=1S/C9H17NO5/c1-9(2,5-11)7(14)8(15)10-4-3-6(12)13/h7,11,14H,3-5H2,1-2H3,(H,10,15)(H,12,13)
INCHIAUX=N/A
PUBMED=N/A
SUBMITUSER=mwang87
TAGS=
LIBRARYQUALITY=3
SPECTRUMID=CCMSLIB00000425574
SCANS=546
72.135 3.51 
90.074 41.096 
103.056 2.215 
115.984 4.152 
183.969 11.301 
201.961 23.116 
219.962 100.0 
END IONS

BEGIN IONS
PEPMASS=110.028
CHARGE=1+
MSLEVEL=2
SOURCE_INSTRUMENT=Positive-Quattro_QQQ:25eV
FILENAME=hmdb_intermediate.mgf
SEQ=*..*
IONMODE=Positive
ORGANISM=HMDB
NAME=HMDB:HMDB00965-1370 Hypotaurine M+H
PI=HMDB
DATACOLLECTOR=HMDB
SMILES=NCCS(O)=O
INCHI=InChI=1S/C2H7NO2S/c3-1-2-6(4)5/h1-3H2,(H,4,5)
INCHIAUX=N/A
PUBMED=N/A
SUBMITUSER=mwang87
TAGS=
LIBRARYQUALITY=3
SPECTRUMID=CCMSLIB00000425575
SCANS=547
63.0 7.911 
65.0 100.0 
92.0 12.774 
110.0 30.53 
END IONS

BEGIN IONS
PEPMASS=148.076
CHARGE=1+
MSLEVEL=2
SOURCE_INSTRUMENT=Positive-Quattro_QQQ:40eV
FILENAME=hmdb_intermediate.mgf
SEQ=*..*
IONMODE=Positive
ORGANISM=HMDB
NAME=HMDB:HMDB05785-2444 Indole-3-carbinol M+H
PI=HMDB
DATACOLLECTOR=HMDB
SMILES=OCC1=CNC2=CC=CC=C12
INCHI=InChI=1S/C9H9NO/c11-6-7-5-10-9-4-2-1-3-8(7)9/h1-5,10-11H,6H2
INCHIAUX=N/A
PUBMED=N/A
SUBMITUSER=mwang87
TAGS=
LIBRARYQUALITY=3
SPECTRUMID=CCMSLIB00000425576
SCANS=548
50.0 15.454 
64.0 100.0 
65.0 19.685 
76.0 32.68 
91.0 16.055 
END IONS

BEGIN IONS
PEPMASS=153.019
CHARGE=1+
MSLEVEL=2
SOURCE_INSTRUMENT=Negative-Quattro_QQQ:10eV
FILENAME=hmdb_intermediate.mgf
SEQ=*..*
IONMODE=Negative
ORGANISM=HMDB
NAME=HMDB:HMDB00152-233 Gentisic acid M-H
PI=HMDB
DATACOLLECTOR=HMDB
SMILES=OC(=O)C1=CC(O)=CC=C1O
INCHI=InChI=1S/C7H6O4/c8-4-1-2-6(9)5(3-4)7(10)11/h1-3,8-9H,(H,10,11)
INCHIAUX=N/A
PUBMED=N/A
SUBMITUSER=mwang87
TAGS=
LIBRARYQUALITY=3
SPECTRUMID=CCMSLIB00000425577
SCANS=549
108.884 65.0 
152.9 100.0 
END IONS

BEGIN IONS
PEPMASS=151.04
CHARGE=1+
MSLEVEL=2
SOURCE_INSTRUMENT=Negative-Quattro_QQQ:25eV
FILENAME=hmdb_intermediate.mgf
SEQ=*..*
IONMODE=Negative
ORGANISM=HMDB
NAME=HMDB:HMDB00440-642 3-Hydroxyphenylacetic acid M-H
PI=HMDB
DATACOLLECTOR=HMDB
SMILES=OC(=O)CC1=CC=CC(O)=C1
INCHI=InChI=1S/C8H8O3/c9-7-3-1-2-6(4-7)5-8(10)11/h1-4,9H,5H2,(H,10,11)
INCHIAUX=N/A
PUBMED=N/A
SUBMITUSER=mwang87
TAGS=
LIBRARYQUALITY=3
SPECTRUMID=CCMSLIB00000425578
SCANS=550
41.64 9.0 
65.426 100.0 
79.369 18.75 
107.121 93.0 
END IONS

BEGIN IONS
PEPMASS=151.04
CHARGE=1+
MSLEVEL=2
SOURCE_INSTRUMENT=Negative-Quattro_QQQ:25eV
FILENAME=hmdb_intermediate.mgf
SEQ=*..*
IONMODE=Negative
ORGANISM=HMDB
NAME=HMDB:HMDB00703-982 Mandelic acid M-H
PI=HMDB
DATACOLLECTOR=HMDB
SMILES=O[C@H](C(O)=O)C1=CC=CC=C1
INCHI=InChI=1S/C8H8O3/c9-7(8(10)11)6-4-2-1-3-5-6/h1-5,7,9H,(H,10,11)/t7-/m0/s1
INCHIAUX=N/A
PUBMED=N/A
SUBMITUSER=mwang87
TAGS=
LIBRARYQUALITY=3
SPECTRUMID=CCMSLIB00000425579
SCANS=551
77.051 100.0 
106.916 100.0 
150.751 85.563 
END IONS

BEGIN IONS
PEPMASS=191.103
CHARGE=1+
MSLEVEL=2
SOURCE_INSTRUMENT=Positive-Quattro_QQQ:10eV
FILENAME=hmdb_intermediate.mgf
SEQ=*..*
IONMODE=Positive
ORGANISM=HMDB
NAME=HMDB:HMDB01370-1538 Diaminopimelic acid M+H
PI=HMDB
DATACOLLECTOR=HMDB
SMILES=N[C@@H](CCC[C@H](N)C(O)=O)C(O)=O
INCHI=InChI=1S/C7H14N2O4/c8-4(6(10)11)2-1-3-5(9)7(12)13/h4-5H,1-3,8-9H2,(H,10,11)(H,12,13)/t4-,5-/m0/s1
INCHIAUX=N/A
PUBMED=N/A
SUBMITUSER=mwang87
TAGS=
LIBRARYQUALITY=3
SPECTRUMID=CCMSLIB00000425580
SCANS=552
82.0 5.405 
128.0 100.0 
145.0 4.524 
173.0 32.059 
191.0 60.585 
END IONS

BEGIN IONS
PEPMASS=104.071
CHARGE=1+
MSLEVEL=2
SOURCE_INSTRUMENT=Positive-Quattro_QQQ:10eV
FILENAME=hmdb_intermediate.mgf
SEQ=*..*
IONMODE=Positive
ORGANISM=HMDB
NAME=HMDB:HMDB03911-2349 3-Aminoisobutanoic acid M+H
PI=HMDB
DATACOLLECTOR=HMDB
SMILES=CC(CN)C(O)=O
INCHI=InChI=1S/C4H9NO2/c1-3(2-5)4(6)7/h3H,2,5H2,1H3,(H,6,7)
INCHIAUX=N/A
PUBMED=N/A
SUBMITUSER=mwang87
TAGS=
LIBRARYQUALITY=3
SPECTRUMID=CCMSLIB00000425581
SCANS=553
86.0 100.0 
104.0 26.683 
END IONS

BEGIN IONS
PEPMASS=178.054
CHARGE=1+
MSLEVEL=2
SOURCE_INSTRUMENT=Positive-Quattro_QQQ:40eV
FILENAME=hmdb_intermediate.mgf
SEQ=*..*
IONMODE=Positive
ORGANISM=HMDB
NAME=HMDB:HMDB01015-1389 N-Formyl-L-methionine M+H
PI=HMDB
DATACOLLECTOR=HMDB
SMILES=CSCC[C@@H](NC=O)C(O)=O
INCHI=InChI=1S/C6H11NO3S/c1-11-3-2-5(6(9)10)7-4-8/h4-5H,2-3H2,1H3,(H,7,8)(H,9,10)/t5-/m1/s1
INCHIAUX=N/A
PUBMED=N/A
SUBMITUSER=mwang87
TAGS=
LIBRARYQUALITY=3
SPECTRUMID=CCMSLIB00000425582
SCANS=554
28.37 15.577 
61.03 100.0 
84.25 8.042 
END IONS

BEGIN IONS
PEPMASS=130.05
CHARGE=1+
MSLEVEL=2
SOURCE_INSTRUMENT=Positive-Quattro_QQQ:10eV
FILENAME=hmdb_intermediate.mgf
SEQ=*..*
IONMODE=Positive
ORGANISM=HMDB
NAME=HMDB:HMDB00805-1147 Pyrrolidonecarboxylic acid M+H
PI=HMDB
DATACOLLECTOR=HMDB
SMILES=OC(=O)C1CCC(=O)N1
INCHI=InChI=1S/C5H7NO3/c7-4-2-1-3(6-4)5(8)9/h3H,1-2H2,(H,6,7)(H,8,9)
INCHIAUX=N/A
PUBMED=N/A
SUBMITUSER=mwang87
TAGS=
LIBRARYQUALITY=3
SPECTRUMID=CCMSLIB00000425583
SCANS=555
84.334 100.0 
130.194 66.667 
END IONS

BEGIN IONS
PEPMASS=131.071
CHARGE=1+
MSLEVEL=2
SOURCE_INSTRUMENT=Positive-Quattro_QQQ:40eV
FILENAME=hmdb_intermediate.mgf
SEQ=*..*
IONMODE=Positive
ORGANISM=HMDB
NAME=HMDB:HMDB00491-712 3-Methyl-2-oxovaleric acid M+H
PI=HMDB
DATACOLLECTOR=HMDB
SMILES=CCC(C)C(=O)C(O)=O
INCHI=InChI=1S/C6H10O3/c1-3-4(2)5(7)6(8)9/h4H,3H2,1-2H3,(H,8,9)
INCHIAUX=N/A
PUBMED=N/A
SUBMITUSER=mwang87
TAGS=
LIBRARYQUALITY=3
SPECTRUMID=CCMSLIB00000425584
SCANS=556
72.0 95.453 
77.0 98.724 
92.0 93.53 
99.0 100.0 
END IONS

BEGIN IONS
PEPMASS=159.102
CHARGE=1+
MSLEVEL=2
SOURCE_INSTRUMENT=Negative-Quattro_QQQ:25eV
FILENAME=hmdb_intermediate.mgf
SEQ=*..*
IONMODE=Negative
ORGANISM=HMDB
NAME=HMDB:HMDB00711-994 Hydroxyoctanoic acid M-H
PI=HMDB
DATACOLLECTOR=HMDB
SMILES=CCCCCCC(O)C(O)=O
INCHI=InChI=1S/C8H16O3/c1-2-3-4-5-6-7(9)8(10)11/h7,9H,2-6H2,1H3,(H,10,11)
INCHIAUX=N/A
PUBMED=N/A
SUBMITUSER=mwang87
TAGS=
LIBRARYQUALITY=3
SPECTRUMID=CCMSLIB00000425585
SCANS=557
45.58 100.0 
55.528 26.503 
73.404 3.757 
84.246 6.455 
85.368 6.284 
113.271 74.863 
159.18 4.406 
END IONS

BEGIN IONS
PEPMASS=163.076
CHARGE=1+
MSLEVEL=2
SOURCE_INSTRUMENT=Negative-Quattro_QQQ:10eV
FILENAME=hmdb_intermediate.mgf
SEQ=*..*
IONMODE=Negative
ORGANISM=HMDB
NAME=HMDB:HMDB00329-540 2-Phenylbutyric acid M-H
PI=HMDB
DATACOLLECTOR=HMDB
SMILES=CCC(C(O)=O)C1=CC=CC=C1
INCHI=InChI=1S/C10H12O2/c1-2-9(10(11)12)8-6-4-3-5-7-8/h3-7,9H,2H2,1H3,(H,11,12)
INCHIAUX=N/A
PUBMED=N/A
SUBMITUSER=mwang87
TAGS=
LIBRARYQUALITY=3
SPECTRUMID=CCMSLIB00000425586
SCANS=558
119.25 100.0 
163.157 3.137 
END IONS

BEGIN IONS
PEPMASS=145.014
CHARGE=1+
MSLEVEL=2
SOURCE_INSTRUMENT=Negative-Quattro_QQQ:40eV
FILENAME=hmdb_intermediate.mgf
SEQ=*..*
IONMODE=Negative
ORGANISM=HMDB
NAME=HMDB:HMDB00208-339 Oxoglutaric acid M-H
PI=HMDB
DATACOLLECTOR=HMDB
SMILES=OC(=O)CCC(=O)C(O)=O
INCHI=InChI=1S/C5H6O5/c6-3(5(9)10)1-2-4(7)8/h1-2H2,(H,7,8)(H,9,10)
INCHIAUX=N/A
PUBMED=N/A
SUBMITUSER=mwang87
TAGS=
LIBRARYQUALITY=3
SPECTRUMID=CCMSLIB00000425587
SCANS=559
45.203 12.302 
57.112 100.0 
73.041 26.19 
101.016 45.437 
143.968 23.611 
144.991 64.286 
END IONS

BEGIN IONS
PEPMASS=118.05
CHARGE=1+
MSLEVEL=2
SOURCE_INSTRUMENT=Positive-Quattro_QQQ:25eV
FILENAME=hmdb_intermediate.mgf
SEQ=*..*
IONMODE=Positive
ORGANISM=HMDB
NAME=HMDB:HMDB00532-753 Acetylglycine M+H
PI=HMDB
DATACOLLECTOR=HMDB
SMILES=CC(=O)NCC(O)=O
INCHI=InChI=1S/C4H7NO3/c1-3(6)5-2-4(7)8/h2H2,1H3,(H,5,6)(H,7,8)
INCHIAUX=N/A
PUBMED=N/A
SUBMITUSER=mwang87
TAGS=
LIBRARYQUALITY=3
SPECTRUMID=CCMSLIB00000425588
SCANS=560
43.26 100.0 
48.233 3.09 
76.027 31.389 
117.869 10.833 
END IONS

BEGIN IONS
PEPMASS=109.065
CHARGE=1+
MSLEVEL=2
SOURCE_INSTRUMENT=Positive-Quattro_QQQ:25eV
FILENAME=hmdb_intermediate.mgf
SEQ=*..*
IONMODE=Positive
ORGANISM=HMDB
NAME=HMDB:HMDB01858-1730 p-Cresol M+H
PI=HMDB
DATACOLLECTOR=HMDB
SMILES=CC1=CC=C(O)C=C1
INCHI=InChI=1S/C7H8O/c1-6-2-4-7(8)5-3-6/h2-5,8H,1H3
INCHIAUX=N/A
PUBMED=N/A
SUBMITUSER=mwang87
TAGS=
LIBRARYQUALITY=3
SPECTRUMID=CCMSLIB00000425589
SCANS=561
40.0 17.554 
54.0 10.711 
64.0 63.933 
65.0 54.568 
76.0 19.517 
93.0 100.0 
108.0 10.724 
END IONS

BEGIN IONS
PEPMASS=241.13
CHARGE=1+
MSLEVEL=2
SOURCE_INSTRUMENT=Positive-Quattro_QQQ:10eV
FILENAME=hmdb_intermediate.mgf
SEQ=*..*
IONMODE=Positive
ORGANISM=HMDB
NAME=HMDB:HMDB00745-1059 Homocarnosine M+H
PI=HMDB
DATACOLLECTOR=HMDB
SMILES=NCCCC(=O)N[C@@H](CC1=CNC=N1)C(O)=O
INCHI=InChI=1S/C10H16N4O3/c11-3-1-2-9(15)14-8(10(16)17)4-7-5-12-6-13-7/h5-6,8H,1-4,11H2,(H,12,13)(H,14,15)(H,16,17)/t8-/m0/s1
INCHIAUX=N/A
PUBMED=N/A
SUBMITUSER=mwang87
TAGS=
LIBRARYQUALITY=3
SPECTRUMID=CCMSLIB00000425590
SCANS=562
86.073 5.294 
95.09 2.083 
110.056 20.588 
155.966 100.0 
223.043 9.412 
240.981 12.745 
END IONS

BEGIN IONS
PEPMASS=197.067
CHARGE=1+
MSLEVEL=2
SOURCE_INSTRUMENT=Positive-Quattro_QQQ:25eV
FILENAME=hmdb_intermediate.mgf
SEQ=*..*
IONMODE=Positive
ORGANISM=HMDB
NAME=HMDB:HMDB01857-1727 1,3-Dimethyluric acid M+H
PI=HMDB
DATACOLLECTOR=HMDB
SMILES=CN1C2=C(NC(=O)N2)C(=O)N(C)C1=O
INCHI=InChI=1S/C7H8N4O3/c1-10-4-3(8-6(13)9-4)5(12)11(2)7(10)14/h1-2H3,(H2,8,9,13)
INCHIAUX=N/A
PUBMED=N/A
SUBMITUSER=mwang87
TAGS=
LIBRARYQUALITY=3
SPECTRUMID=CCMSLIB00000425591
SCANS=563
57.017 20.656 
71.551 75.528 
79.194 22.024 
94.48 33.871 
95.106 42.486 
113.4 100.0 
119.415 18.468 
128.186 13.638 
137.71 49.548 
155.504 16.828 
165.028 33.416 
180.943 24.439 
194.478 15.051 
196.233 27.491 
END IONS

BEGIN IONS
PEPMASS=287.165
CHARGE=1+
MSLEVEL=2
SOURCE_INSTRUMENT=Positive-Quattro_QQQ:25eV
FILENAME=hmdb_intermediate.mgf
SEQ=*..*
IONMODE=Positive
ORGANISM=HMDB
NAME=HMDB:HMDB00343-553 2-Hydroxyestrone M+H
PI=HMDB
DATACOLLECTOR=HMDB
SMILES=[H][C@@]12CCC(=O)[C@@]1(C)CC[C@]1([H])C3=C(CC[C@@]21[H])C=C(O)C(O)=C3
INCHI=InChI=1S/C18H22O3/c1-18-7-6-11-12(14(18)4-5-17(18)21)3-2-10-8-15(19)16(20)9-13(10)11/h8-9,11-12,14,19-20H,2-7H2,1H3/t11-,12+,14-,18-/m0/s1
INCHIAUX=N/A
PUBMED=N/A
SUBMITUSER=mwang87
TAGS=
LIBRARYQUALITY=3
SPECTRUMID=CCMSLIB00000425592
SCANS=564
81.095 57.778 
125.623 77.037 
146.972 100.0 
179.22 51.852 
218.856 60.741 
253.32 32.593 
END IONS

BEGIN IONS
PEPMASS=198.003
CHARGE=1+
MSLEVEL=2
SOURCE_INSTRUMENT=Positive-Quattro_QQQ:10eV
FILENAME=hmdb_intermediate.mgf
SEQ=*..*
IONMODE=Positive
ORGANISM=HMDB
NAME=HMDB:HMDB03966-2352 Selenomethionine M+H
PI=HMDB
DATACOLLECTOR=HMDB
SMILES=C[Se]CCC(N)C(O)=O
INCHI=InChI=1S/C5H11NO2Se/c1-9-3-2-4(6)5(7)8/h4H,2-3,6H2,1H3,(H,7,8)
INCHIAUX=N/A
PUBMED=N/A
SUBMITUSER=mwang87
TAGS=
LIBRARYQUALITY=3
SPECTRUMID=CCMSLIB00000425593
SCANS=565
56.0 18.176 
74.0 3.09 
102.0 14.198 
109.0 5.668 
135.0 2.708 
152.0 41.603 
181.0 100.0 
198.0 43.853 
END IONS

BEGIN IONS
PEPMASS=181.071
CHARGE=1+
MSLEVEL=2
SOURCE_INSTRUMENT=Positive-Quattro_QQQ:40eV
FILENAME=hmdb_intermediate.mgf
SEQ=*..*
IONMODE=Positive
ORGANISM=HMDB
NAME=HMDB:HMDB00143-217 D-Galactose M+H
PI=HMDB
DATACOLLECTOR=HMDB
SMILES=OC[C@H]1O[C@H](O)[C@H](O)[C@@H](O)[C@H]1O
INCHI=InChI=1S/C6H12O6/c7-1-2-3(8)4(9)5(10)6(11)12-2/h2-11H,1H2/t2-,3+,4+,5-,6+/m1/s1
INCHIAUX=N/A
PUBMED=N/A
SUBMITUSER=mwang87
TAGS=
LIBRARYQUALITY=3
SPECTRUMID=CCMSLIB00000425594
SCANS=566
41.0 21.696 
45.0 44.231 
61.0 30.267 
73.0 100.0 
75.0 31.872 
85.0 79.258 
103.0 28.735 
105.0 8.049 
117.0 45.554 
149.0 19.247 
181.0 8.215 
END IONS

BEGIN IONS
PEPMASS=181.05
CHARGE=1+
MSLEVEL=2
SOURCE_INSTRUMENT=Positive-Quattro_QQQ:25eV
FILENAME=hmdb_intermediate.mgf
SEQ=*..*
IONMODE=Positive
ORGANISM=HMDB
NAME=HMDB:HMDB01879-1778 Aspirin M+H
PI=HMDB
DATACOLLECTOR=HMDB
SMILES=CC(=O)OC1=CC=CC=C1C(O)=O
INCHI=InChI=1S/C9H8O4/c1-6(10)13-8-5-3-2-4-7(8)9(11)12/h2-5H,1H3,(H,11,12)
INCHIAUX=N/A
PUBMED=N/A
SUBMITUSER=mwang87
TAGS=
LIBRARYQUALITY=3
SPECTRUMID=CCMSLIB00000425595
SCANS=567
41.0 4.084 
84.0 14.642 
85.0 100.0 
117.0 8.181 
149.0 2.623 
END IONS

BEGIN IONS
PEPMASS=375.29
CHARGE=1+
MSLEVEL=2
SOURCE_INSTRUMENT=Positive-Quattro_QQQ:25eV
FILENAME=hmdb_intermediate.mgf
SEQ=*..*
IONMODE=Positive
ORGANISM=HMDB
NAME=HMDB:HMDB00308-526 3b-Hydroxy-5-cholenoic acid M+H
PI=HMDB
DATACOLLECTOR=HMDB
SMILES=[H][C@@]12CC[C@H]([C@H](C)CCC(O)=O)[C@@]1(C)CC[C@@]1([H])[C@@]2([H])CC=C2C[C@@H](O)CC[C@]12C
INCHI=InChI=1S/C24H38O3/c1-15(4-9-22(26)27)19-7-8-20-18-6-5-16-14-17(25)10-12-23(16,2)21(18)11-13-24(19,20)3/h5,15,17-21,25H,4,6-14H2,1-3H3,(H,26,27)/t15-,17+,18+,19-,20+,21+,23+,24-/m1/s1
INCHIAUX=N/A
PUBMED=N/A
SUBMITUSER=mwang87
TAGS=
LIBRARYQUALITY=3
SPECTRUMID=CCMSLIB00000425596
SCANS=568
57.001 21.486 
67.597 64.674 
83.238 37.722 
93.203 42.82 
94.969 100.0 
109.223 32.887 
119.441 43.768 
126.379 19.758 
143.914 44.72 
146.311 33.579 
161.071 59.748 
173.183 9.306 
374.834 19.672 
395.156 18.031 
END IONS

BEGIN IONS
PEPMASS=123.056
CHARGE=1+
MSLEVEL=2
SOURCE_INSTRUMENT=Positive-Quattro_QQQ:10eV
FILENAME=hmdb_intermediate.mgf
SEQ=*..*
IONMODE=Positive
ORGANISM=HMDB
NAME=HMDB:HMDB01406-1559 Niacinamide M+H
PI=HMDB
DATACOLLECTOR=HMDB
SMILES=NC(=O)C1=CN=CC=C1
INCHI=InChI=1S/C6H6N2O/c7-6(9)5-2-1-3-8-4-5/h1-4H,(H2,7,9)
INCHIAUX=N/A
PUBMED=N/A
SUBMITUSER=mwang87
TAGS=
LIBRARYQUALITY=3
SPECTRUMID=CCMSLIB00000425597
SCANS=569
80.096 20.294 
96.003 2.623 
105.97 2.696 
122.957 100.0 
END IONS

BEGIN IONS
PEPMASS=158.082
CHARGE=1+
MSLEVEL=2
SOURCE_INSTRUMENT=Positive-Quattro_QQQ:10eV
FILENAME=hmdb_intermediate.mgf
SEQ=*..*
IONMODE=Positive
ORGANISM=HMDB
NAME=HMDB:HMDB00459-668 3-Methylcrotonylglycine M+H
PI=HMDB
DATACOLLECTOR=HMDB
SMILES=CC(C)=CC(=O)NCC(O)=O
INCHI=InChI=1S/C7H11NO3/c1-5(2)3-6(9)8-4-7(10)11/h3H,4H2,1-2H3,(H,8,9)(H,10,11)
INCHIAUX=N/A
PUBMED=N/A
SUBMITUSER=mwang87
TAGS=
LIBRARYQUALITY=3
SPECTRUMID=CCMSLIB00000425598
SCANS=570
55.562 2.689 
83.352 100.0 
END IONS

BEGIN IONS
PEPMASS=163.061
CHARGE=1+
MSLEVEL=2
SOURCE_INSTRUMENT=Positive-Quattro_QQQ:40eV
FILENAME=hmdb_intermediate.mgf
SEQ=*..*
IONMODE=Positive
ORGANISM=HMDB
NAME=HMDB:HMDB00345-557 3-Hydroxyadipic acid M+H
PI=HMDB
DATACOLLECTOR=HMDB
SMILES=OC(CCC(O)=O)CC(O)=O
INCHI=InChI=1S/C6H10O5/c7-4(3-6(10)11)1-2-5(8)9/h4,7H,1-3H2,(H,8,9)(H,10,11)
INCHIAUX=N/A
PUBMED=N/A
SUBMITUSER=mwang87
TAGS=
LIBRARYQUALITY=3
SPECTRUMID=CCMSLIB00000425599
SCANS=571
60.0 100.0 
76.0 6.559 
102.0 33.308 
END IONS

BEGIN IONS
PEPMASS=45.034
CHARGE=1+
MSLEVEL=2
SOURCE_INSTRUMENT=Positive-Quattro_QQQ:25eV
FILENAME=hmdb_intermediate.mgf
SEQ=*..*
IONMODE=Positive
ORGANISM=HMDB
NAME=HMDB:HMDB00990-1379 Acetaldehyde M+H
PI=HMDB
DATACOLLECTOR=HMDB
SMILES=CC=O
INCHI=InChI=1S/C2H4O/c1-2-3/h2H,1H3
INCHIAUX=N/A
PUBMED=N/A
SUBMITUSER=mwang87
TAGS=
LIBRARYQUALITY=3
SPECTRUMID=CCMSLIB00000425600
SCANS=572
4.593 11.639 
30.16 100.0 
43.946 37.996 
44.948 53.928 
78.788 11.752 
98.34 10.262 
END IONS

BEGIN IONS
PEPMASS=132.102
CHARGE=1+
MSLEVEL=2
SOURCE_INSTRUMENT=Positive-Quattro_QQQ:40eV
FILENAME=hmdb_intermediate.mgf
SEQ=*..*
IONMODE=Positive
ORGANISM=HMDB
NAME=HMDB:HMDB01645-1671 L-Norleucine M+H
PI=HMDB
DATACOLLECTOR=HMDB
SMILES=CCCC[C@H](N)C(O)=O
INCHI=InChI=1S/C6H13NO2/c1-2-3-4-5(7)6(8)9/h5H,2-4,7H2,1H3,(H,8,9)/t5-/m0/s1
INCHIAUX=N/A
PUBMED=N/A
SUBMITUSER=mwang87
TAGS=
LIBRARYQUALITY=3
SPECTRUMID=CCMSLIB00000425601
SCANS=573
41.297 100.0 
45.355 5.385 
55.188 19.182 
69.111 11.95 
85.985 35.22 
132.041 4.285 
END IONS

BEGIN IONS
PEPMASS=331.227
CHARGE=1+
MSLEVEL=2
SOURCE_INSTRUMENT=Positive-Quattro_QQQ:25eV
FILENAME=hmdb_intermediate.mgf
SEQ=*..*
IONMODE=Positive
ORGANISM=HMDB
NAME=HMDB:HMDB00920-1307 11a-Hydroxyprogesterone M+H
PI=HMDB
DATACOLLECTOR=HMDB
SMILES=[H][C@@]12CCC(C(C)=O)[C@@]1(C)C[C@@H](O)[C@@]1([H])[C@@]2([H])CCC2=CC(=O)CC[C@]12C
INCHI=InChI=1S/C21H30O3/c1-12(22)16-6-7-17-15-5-4-13-10-14(23)8-9-20(13,2)19(15)18(24)11-21(16,17)3/h10,15-19,24H,4-9,11H2,1-3H3/t15-,16?,17-,18+,19+,20-,21+/m0/s1
INCHIAUX=N/A
PUBMED=N/A
SUBMITUSER=mwang87
TAGS=
LIBRARYQUALITY=3
SPECTRUMID=CCMSLIB00000425602
SCANS=574
43.555 78.537 
71.333 16.829 
83.284 41.951 
85.288 82.927 
97.234 82.927 
109.196 42.439 
121.161 100.0 
133.165 41.951 
135.155 33.659 
147.138 41.951 
159.138 42.927 
173.129 44.878 
175.127 31.22 
187.098 23.171 
197.018 17.073 
211.092 22.927 
229.094 15.854 
237.097 13.78 
253.118 25.732 
255.117 21.463 
271.164 22.073 
295.179 23.659 
313.182 21.098 
331.132 14.268 
END IONS

BEGIN IONS
PEPMASS=138.079
CHARGE=1+
MSLEVEL=2
SOURCE_INSTRUMENT=Positive-Quattro_QQQ:25eV
FILENAME=hmdb_intermediate.mgf
SEQ=*..*
IONMODE=Positive
ORGANISM=HMDB
NAME=HMDB:HMDB00699-973 1-Methylnicotinamide M+H
PI=HMDB
DATACOLLECTOR=HMDB
SMILES=C[N+]1=CC=CC(=C1)C(N)=O
INCHI=InChI=1S/C7H8N2O/c1-9-4-2-3-6(5-9)7(8)10/h2-5H,1H3,(H-,8,10)/p+1
INCHIAUX=N/A
PUBMED=N/A
SUBMITUSER=mwang87
TAGS=
LIBRARYQUALITY=3
SPECTRUMID=CCMSLIB00000425603
SCANS=575
53.0 20.954 
67.0 19.658 
78.0 65.374 
94.0 100.0 
137.0 16.653 
END IONS

BEGIN IONS
PEPMASS=359.147
CHARGE=1+
MSLEVEL=2
SOURCE_INSTRUMENT=Positive-Quattro_QQQ:10eV
FILENAME=hmdb_intermediate.mgf
SEQ=*..*
IONMODE=Positive
ORGANISM=HMDB
NAME=HMDB:HMDB01069-1415 2-Phenylaminoadenosine M+H
PI=HMDB
DATACOLLECTOR=HMDB
SMILES=NC1=C2N=CN(C3OC(CO)C(O)C3O)C2=NC(NC2=CC=CC=C2)=N1
INCHI=InChI=1S/C16H18N6O4/c17-13-10-14(21-16(20-13)19-8-4-2-1-3-5-8)22(7-18-10)15-12(25)11(24)9(6-23)26-15/h1-5,7,9,11-12,15,23-25H,6H2,(H3,17,19,20,21)
INCHIAUX=N/A
PUBMED=N/A
SUBMITUSER=mwang87
TAGS=
LIBRARYQUALITY=3
SPECTRUMID=CCMSLIB00000425604
SCANS=576
226.88 24.583 
359.0 100.0 
END IONS

BEGIN IONS
PEPMASS=201.113
CHARGE=1+
MSLEVEL=2
SOURCE_INSTRUMENT=Negative-Quattro_QQQ:10eV
FILENAME=hmdb_intermediate.mgf
SEQ=*..*
IONMODE=Negative
ORGANISM=HMDB
NAME=HMDB:HMDB00792-1129 Sebacic acid M-H
PI=HMDB
DATACOLLECTOR=HMDB
SMILES=OC(=O)CCCCCCCCC(O)=O
INCHI=InChI=1S/C10H18O4/c11-9(12)7-5-3-1-2-4-6-8-10(13)14/h1-8H2,(H,11,12)(H,13,14)
INCHIAUX=N/A
PUBMED=N/A
SUBMITUSER=mwang87
TAGS=
LIBRARYQUALITY=3
SPECTRUMID=CCMSLIB00000425605
SCANS=577
139.098 11.364 
183.052 16.558 
201.048 100.0 
END IONS

BEGIN IONS
PEPMASS=131.071
CHARGE=1+
MSLEVEL=2
SOURCE_INSTRUMENT=Positive-Quattro_QQQ:25eV
FILENAME=hmdb_intermediate.mgf
SEQ=*..*
IONMODE=Positive
ORGANISM=HMDB
NAME=HMDB:HMDB00491-711 3-Methyl-2-oxovaleric acid M+H
PI=HMDB
DATACOLLECTOR=HMDB
SMILES=CCC(C)C(=O)C(O)=O
INCHI=InChI=1S/C6H10O3/c1-3-4(2)5(7)6(8)9/h4H,3H2,1-2H3,(H,8,9)
INCHIAUX=N/A
PUBMED=N/A
SUBMITUSER=mwang87
TAGS=
LIBRARYQUALITY=3
SPECTRUMID=CCMSLIB00000425606
SCANS=578
77.0 73.933 
99.0 100.0 
END IONS

BEGIN IONS
PEPMASS=104.071
CHARGE=1+
MSLEVEL=2
SOURCE_INSTRUMENT=Positive-Quattro_QQQ:40eV
FILENAME=hmdb_intermediate.mgf
SEQ=*..*
IONMODE=Positive
ORGANISM=HMDB
NAME=HMDB:HMDB00092-143 Dimethylglycine M+H
PI=HMDB
DATACOLLECTOR=HMDB
SMILES=CN(C)CC(O)=O
INCHI=InChI=1S/C4H9NO2/c1-5(2)3-4(6)7/h3H2,1-2H3,(H,6,7)
INCHIAUX=N/A
PUBMED=N/A
SUBMITUSER=mwang87
TAGS=
LIBRARYQUALITY=3
SPECTRUMID=CCMSLIB00000425607
SCANS=579
63.102 34.647 
74.914 100.0 
99.671 82.144 
113.621 20.62 
120.91 22.528 
END IONS

BEGIN IONS
PEPMASS=144.066
CHARGE=1+
MSLEVEL=2
SOURCE_INSTRUMENT=Positive-Quattro_QQQ:10eV
FILENAME=hmdb_intermediate.mgf
SEQ=*..*
IONMODE=Positive
ORGANISM=HMDB
NAME=HMDB:HMDB00894-1259 Vinylacetylglycine M+H
PI=HMDB
DATACOLLECTOR=HMDB
SMILES=OC(=O)CNC(=O)CC=C
INCHI=InChI=1S/C6H9NO3/c1-2-3-5(8)7-4-6(9)10/h2H,1,3-4H2,(H,7,8)(H,9,10)
INCHIAUX=N/A
PUBMED=N/A
SUBMITUSER=mwang87
TAGS=
LIBRARYQUALITY=3
SPECTRUMID=CCMSLIB00000425608
SCANS=580
68.98 10.801 
89.94 100.0 
97.91 8.188 
125.84 7.524 
END IONS

BEGIN IONS
PEPMASS=181.086
CHARGE=1+
MSLEVEL=2
SOURCE_INSTRUMENT=Positive-Quattro_QQQ:25eV
FILENAME=hmdb_intermediate.mgf
SEQ=*..*
IONMODE=Positive
ORGANISM=HMDB
NAME=HMDB:HMDB11751-2503 3-Methoxybenzenepropanoic acid M+H
PI=HMDB
DATACOLLECTOR=HMDB
SMILES=COC1=CC(CCC(O)=O)=CC=C1
INCHI=InChI=1S/C10H12O3/c1-13-9-4-2-3-8(7-9)5-6-10(11)12/h2-4,7H,5-6H2,1H3,(H,11,12)
INCHIAUX=N/A
PUBMED=N/A
SUBMITUSER=mwang87
TAGS=
LIBRARYQUALITY=3
SPECTRUMID=CCMSLIB00000425609
SCANS=581
91.02 3.7655872957 
103.14 2.9618287758 
105.12 22.0265803322 
121.08 65.984962947 
135.12 100.0 
163.08 21.56194073 
END IONS

BEGIN IONS
PEPMASS=269.284
CHARGE=1+
MSLEVEL=2
SOURCE_INSTRUMENT=Negative-Quattro_QQQ:40eV
FILENAME=hmdb_intermediate.mgf
SEQ=*..*
IONMODE=Negative
ORGANISM=HMDB
NAME=HMDB:HMDB02350-2075 Octadecanol M-H
PI=HMDB
DATACOLLECTOR=HMDB
SMILES=CCCCCCCCCCCCCCCCCCO
INCHI=InChI=1S/C18H38O/c1-2-3-4-5-6-7-8-9-10-11-12-13-14-15-16-17-18-19/h19H,2-18H2,1H3
INCHIAUX=N/A
PUBMED=N/A
SUBMITUSER=mwang87
TAGS=
LIBRARYQUALITY=3
SPECTRUMID=CCMSLIB00000425610
SCANS=582
63.22 41.589 
78.2 100.0 
END IONS

BEGIN IONS
PEPMASS=166.073
CHARGE=1+
MSLEVEL=2
SOURCE_INSTRUMENT=Positive-Quattro_QQQ:25eV
FILENAME=hmdb_intermediate.mgf
SEQ=*..*
IONMODE=Positive
ORGANISM=HMDB
NAME=HMDB:HMDB00897-1269 7-Methylguanine M+H
PI=HMDB
DATACOLLECTOR=HMDB
SMILES=CN1C=NC2=C1C(=O)N=C(N)N2
INCHI=InChI=1S/C6H7N5O/c1-11-2-8-4-3(11)5(12)10-6(7)9-4/h2H,1H3,(H3,7,9,10,12)
INCHIAUX=N/A
PUBMED=N/A
SUBMITUSER=mwang87
TAGS=
LIBRARYQUALITY=3
SPECTRUMID=CCMSLIB00000425611
SCANS=583
123.88 27.984 
148.84 100.0 
END IONS

BEGIN IONS
PEPMASS=287.056
CHARGE=1+
MSLEVEL=2
SOURCE_INSTRUMENT=Positive-Quattro_QQQ:40eV
FILENAME=hmdb_intermediate.mgf
SEQ=*..*
IONMODE=Positive
ORGANISM=HMDB
NAME=HMDB:HMDB05801-2450 Kaempferol M+H
PI=HMDB
DATACOLLECTOR=HMDB
SMILES=OC1=CC=C(C=C1)C1=C(O)C(=O)C2=C(O1)C=C(O)C=C2O
INCHI=InChI=1S/C15H10O6/c16-8-3-1-7(2-4-8)15-14(20)13(19)12-10(18)5-9(17)6-11(12)21-15/h1-6,16-18,20H
INCHIAUX=N/A
PUBMED=N/A
SUBMITUSER=mwang87
TAGS=
LIBRARYQUALITY=3
SPECTRUMID=CCMSLIB00000425612
SCANS=584
43.0 7.975 
64.0 11.154 
68.0 66.994 
76.0 24.293 
92.0 37.799 
104.0 13.427 
106.0 18.48 
120.0 60.645 
128.0 19.091 
136.0 18.001 
152.0 100.0 
156.0 21.393 
170.0 7.372 
212.0 13.87 
228.0 8.293 
286.0 8.355 
END IONS

BEGIN IONS
PEPMASS=76.0399
CHARGE=1+
MSLEVEL=2
SOURCE_INSTRUMENT=Positive-Quattro_QQQ:25eV
FILENAME=hmdb_intermediate.mgf
SEQ=*..*
IONMODE=Positive
ORGANISM=HMDB
NAME=HMDB:HMDB00123-181 Glycine M+H
PI=HMDB
DATACOLLECTOR=HMDB
SMILES=NCC(O)=O
INCHI=InChI=1S/C2H5NO2/c3-1-2(4)5/h1,3H2,(H,4,5)
INCHIAUX=N/A
PUBMED=N/A
SUBMITUSER=mwang87
TAGS=
LIBRARYQUALITY=3
SPECTRUMID=CCMSLIB00000425613
SCANS=585
30.375 100.0 
75.851 47.904 
END IONS

BEGIN IONS
PEPMASS=162.077
CHARGE=1+
MSLEVEL=2
SOURCE_INSTRUMENT=Positive-Quattro_QQQ:25eV
FILENAME=hmdb_intermediate.mgf
SEQ=*..*
IONMODE=Positive
ORGANISM=HMDB
NAME=HMDB:HMDB00510-732 Aminoadipic acid M+H
PI=HMDB
DATACOLLECTOR=HMDB
SMILES=NC(CCCC(O)=O)C(O)=O
INCHI=InChI=1S/C6H11NO4/c7-4(6(10)11)2-1-3-5(8)9/h4H,1-3,7H2,(H,8,9)(H,10,11)
INCHIAUX=N/A
PUBMED=N/A
SUBMITUSER=mwang87
TAGS=
LIBRARYQUALITY=3
SPECTRUMID=CCMSLIB00000425614
SCANS=586
55.185 89.916 
70.107 49.16 
97.997 100.0 
115.889 11.187 
END IONS

BEGIN IONS
PEPMASS=114.067
CHARGE=1+
MSLEVEL=2
SOURCE_INSTRUMENT=Positive-Quattro_QQQ:25eV
FILENAME=hmdb_intermediate.mgf
SEQ=*..*
IONMODE=Positive
ORGANISM=HMDB
NAME=HMDB:HMDB00562-786 Creatinine M+H
PI=HMDB
DATACOLLECTOR=HMDB
SMILES=CN1CC(=O)NC1=N
INCHI=InChI=1S/C4H7N3O/c1-7-2-3(8)6-4(7)5/h2H2,1H3,(H2,5,6,8)
INCHIAUX=N/A
PUBMED=N/A
SUBMITUSER=mwang87
TAGS=
LIBRARYQUALITY=3
SPECTRUMID=CCMSLIB00000425615
SCANS=587
44.138 100.0 
86.062 2.145 
113.865 8.762 
END IONS

BEGIN IONS
PEPMASS=114.067
CHARGE=1+
MSLEVEL=2
SOURCE_INSTRUMENT=Positive-Quattro_QQQ:10eV
FILENAME=hmdb_intermediate.mgf
SEQ=*..*
IONMODE=Positive
ORGANISM=HMDB
NAME=HMDB:HMDB00562-785 Creatinine M+H
PI=HMDB
DATACOLLECTOR=HMDB
SMILES=CN1CC(=O)NC1=N
INCHI=InChI=1S/C4H7N3O/c1-7-2-3(8)6-4(7)5/h2H2,1H3,(H2,5,6,8)
INCHIAUX=N/A
PUBMED=N/A
SUBMITUSER=mwang87
TAGS=
LIBRARYQUALITY=3
SPECTRUMID=CCMSLIB00000425616
SCANS=588
44.302 33.725 
86.085 28.627 
113.99 100.0 
END IONS

BEGIN IONS
PEPMASS=169.098
CHARGE=1+
MSLEVEL=2
SOURCE_INSTRUMENT=Positive-Quattro_QQQ:40eV
FILENAME=hmdb_intermediate.mgf
SEQ=*..*
IONMODE=Positive
ORGANISM=HMDB
NAME=HMDB:HMDB01431-1576 Pyridoxamine M+H
PI=HMDB
DATACOLLECTOR=HMDB
SMILES=CC1=C(O)C(CN)=C(CO)C=N1
INCHI=InChI=1S/C8H12N2O2/c1-5-8(12)7(2-9)6(4-11)3-10-5/h3,11-12H,2,4,9H2,1H3
INCHIAUX=N/A
PUBMED=N/A
SUBMITUSER=mwang87
TAGS=
LIBRARYQUALITY=3
SPECTRUMID=CCMSLIB00000425617
SCANS=589
53.262 11.173 
65.199 20.531 
77.136 100.0 
94.046 22.346 
106.078 19.832 
133.92 35.196 
152.012 6.006 
END IONS

BEGIN IONS
PEPMASS=129.066
CHARGE=1+
MSLEVEL=2
SOURCE_INSTRUMENT=Positive-Quattro_QQQ:40eV
FILENAME=hmdb_intermediate.mgf
SEQ=*..*
IONMODE=Positive
ORGANISM=HMDB
NAME=HMDB:HMDB00079-131 Dihydrothymine M+H
PI=HMDB
DATACOLLECTOR=HMDB
SMILES=CC1CNC(=O)NC1=O
INCHI=InChI=1S/C5H8N2O2/c1-3-2-6-5(9)7-4(3)8/h3H,2H2,1H3,(H2,6,7,8,9)
INCHIAUX=N/A
PUBMED=N/A
SUBMITUSER=mwang87
TAGS=
LIBRARYQUALITY=3
SPECTRUMID=CCMSLIB00000425618
SCANS=590
41.338 100.0 
56.125 17.946 
69.054 22.614 
85.02 8.921 
129.041 13.589 
END IONS

BEGIN IONS
PEPMASS=160.097
CHARGE=1+
MSLEVEL=2
SOURCE_INSTRUMENT=Positive-Quattro_QQQ:25eV
FILENAME=hmdb_intermediate.mgf
SEQ=*..*
IONMODE=Positive
ORGANISM=HMDB
NAME=HMDB:HMDB00927-1319 Valerylglycine M+H
PI=HMDB
DATACOLLECTOR=HMDB
SMILES=CCCCC(=O)NCC(O)=O
INCHI=InChI=1S/C7H13NO3/c1-2-3-4-6(9)8-5-7(10)11/h2-5H2,1H3,(H,8,9)(H,10,11)
INCHIAUX=N/A
PUBMED=N/A
SUBMITUSER=mwang87
TAGS=
LIBRARYQUALITY=3
SPECTRUMID=CCMSLIB00000425619
SCANS=591
41.659 28.182 
57.521 100.0 
76.333 11.591 
85.312 9.205 
END IONS

BEGIN IONS
PEPMASS=166.087
CHARGE=1+
MSLEVEL=2
SOURCE_INSTRUMENT=Positive-Quattro_QQQ:25eV
FILENAME=hmdb_intermediate.mgf
SEQ=*..*
IONMODE=Positive
ORGANISM=HMDB
NAME=HMDB:HMDB00159-249 L-Phenylalanine M+H
PI=HMDB
DATACOLLECTOR=HMDB
SMILES=N[C@@H](CC1=CC=CC=C1)C(O)=O
INCHI=InChI=1S/C9H11NO2/c10-8(9(11)12)6-7-4-2-1-3-5-7/h1-5,8H,6,10H2,(H,11,12)/t8-/m0/s1
INCHIAUX=N/A
PUBMED=N/A
SUBMITUSER=mwang87
TAGS=
LIBRARYQUALITY=3
SPECTRUMID=CCMSLIB00000425620
SCANS=592
77.085 17.0 
93.087 16.0 
103.0 90.667 
119.948 100.0 
END IONS

BEGIN IONS
PEPMASS=369.373
CHARGE=1+
MSLEVEL=2
SOURCE_INSTRUMENT=Positive-Quattro_QQQ:25eV
FILENAME=hmdb_intermediate.mgf
SEQ=*..*
IONMODE=Positive
ORGANISM=HMDB
NAME=HMDB:HMDB02003-1939 Tetracosanoic acid M+H
PI=HMDB
DATACOLLECTOR=HMDB
SMILES=CCCCCCCCCCCCCCCCCCCCCCCC(O)=O
INCHI=InChI=1S/C24H48O2/c1-2-3-4-5-6-7-8-9-10-11-12-13-14-15-16-17-18-19-20-21-22-23-24(25)26/h2-23H2,1H3,(H,25,26)
INCHIAUX=N/A
PUBMED=N/A
SUBMITUSER=mwang87
TAGS=
LIBRARYQUALITY=3
SPECTRUMID=CCMSLIB00000425621
SCANS=593
177.0 100.0 
369.0 75.339 
END IONS

BEGIN IONS
PEPMASS=99.0446
CHARGE=1+
MSLEVEL=2
SOURCE_INSTRUMENT=Negative-Quattro_QQQ:25eV
FILENAME=hmdb_intermediate.mgf
SEQ=*..*
IONMODE=Negative
ORGANISM=HMDB
NAME=HMDB:HMDB00509-729 Senecioic acid M-H
PI=HMDB
DATACOLLECTOR=HMDB
SMILES=CC(C)=CC(O)=O
INCHI=InChI=1S/C5H8O2/c1-4(2)3-5(6)7/h3H,1-2H3,(H,6,7)
INCHIAUX=N/A
PUBMED=N/A
SUBMITUSER=mwang87
TAGS=
LIBRARYQUALITY=3
SPECTRUMID=CCMSLIB00000425622
SCANS=594
41.651 9.33 
55.501 99.286 
81.355 10.446 
99.352 100.0 
END IONS

BEGIN IONS
PEPMASS=115.003
CHARGE=1+
MSLEVEL=2
SOURCE_INSTRUMENT=Negative-Quattro_QQQ:10eV
FILENAME=hmdb_intermediate.mgf
SEQ=*..*
IONMODE=Negative
ORGANISM=HMDB
NAME=HMDB:HMDB00176-280 Maleic acid M-H
PI=HMDB
DATACOLLECTOR=HMDB
SMILES=OC(=O)\C=C/C(O)=O
INCHI=InChI=1S/C4H4O4/c5-3(6)1-2-4(7)8/h1-2H,(H,5,6)(H,7,8)/b2-1-
INCHIAUX=N/A
PUBMED=N/A
SUBMITUSER=mwang87
TAGS=
LIBRARYQUALITY=3
SPECTRUMID=CCMSLIB00000425623
SCANS=595
71.102 100.0 
114.911 25.0 
END IONS

BEGIN IONS
PEPMASS=147.113
CHARGE=1+
MSLEVEL=2
SOURCE_INSTRUMENT=Positive-Quattro_QQQ:10eV
FILENAME=hmdb_intermediate.mgf
SEQ=*..*
IONMODE=Positive
ORGANISM=HMDB
NAME=HMDB:HMDB00182-289 L-Lysine M+H
PI=HMDB
DATACOLLECTOR=HMDB
SMILES=NCCCC[C@H](N)C(O)=O
INCHI=InChI=1S/C6H14N2O2/c7-4-2-1-3-5(8)6(9)10/h5H,1-4,7-8H2,(H,9,10)/t5-/m0/s1
INCHIAUX=N/A
PUBMED=N/A
SUBMITUSER=mwang87
TAGS=
LIBRARYQUALITY=3
SPECTRUMID=CCMSLIB00000425624
SCANS=596
84.116 100.0 
129.978 81.865 
147.021 28.238 
END IONS

BEGIN IONS
PEPMASS=171.029
CHARGE=1+
MSLEVEL=2
SOURCE_INSTRUMENT=Positive-Quattro_QQQ:40eV
FILENAME=hmdb_intermediate.mgf
SEQ=*..*
IONMODE=Positive
ORGANISM=HMDB
NAME=HMDB:HMDB05807-2456 Gallic acid M+H
PI=HMDB
DATACOLLECTOR=HMDB
SMILES=OC(=O)C1=CC(O)=C(O)C(O)=C1
INCHI=InChI=1S/C7H6O5/c8-4-1-3(7(11)12)2-5(9)6(4)10/h1-2,8-10H,(H,11,12)
INCHIAUX=N/A
PUBMED=N/A
SUBMITUSER=mwang87
TAGS=
LIBRARYQUALITY=3
SPECTRUMID=CCMSLIB00000425625
SCANS=597
41.0 11.012 
53.0 82.024 
55.0 42.849 
69.0 13.813 
81.0 100.0 
97.0 9.677 
107.0 14.984 
END IONS

BEGIN IONS
PEPMASS=227.114
CHARGE=1+
MSLEVEL=2
SOURCE_INSTRUMENT=Positive-Quattro_QQQ:40eV
FILENAME=hmdb_intermediate.mgf
SEQ=*..*
IONMODE=Positive
ORGANISM=HMDB
NAME=HMDB:HMDB00033-56 Carnosine M+H
PI=HMDB
DATACOLLECTOR=HMDB
SMILES=NCCC(=O)N[C@@H](CC1=CN=CN1)C(O)=O
INCHI=InChI=1S/C9H14N4O3/c10-2-1-8(14)13-7(9(15)16)3-6-4-11-5-12-6/h4-5,7H,1-3,10H2,(H,11,12)(H,13,14)(H,15,16)/t7-/m0/s1
INCHIAUX=N/A
PUBMED=N/A
SUBMITUSER=mwang87
TAGS=
LIBRARYQUALITY=3
SPECTRUMID=CCMSLIB00000425626
SCANS=598
56.105 14.056 
68.189 12.651 
82.929 87.149 
93.102 42.169 
95.085 24.197 
110.043 100.0 
121.981 4.719 
END IONS

BEGIN IONS
PEPMASS=132.102
CHARGE=1+
MSLEVEL=2
SOURCE_INSTRUMENT=Positive-Quattro_QQQ:10eV
FILENAME=hmdb_intermediate.mgf
SEQ=*..*
IONMODE=Positive
ORGANISM=HMDB
NAME=HMDB:HMDB00687-951 L-Leucine M+H
PI=HMDB
DATACOLLECTOR=HMDB
SMILES=CC(C)C[C@H](N)C(O)=O
INCHI=InChI=1S/C6H13NO2/c1-4(2)3-5(7)6(8)9/h4-5H,3,7H2,1-2H3,(H,8,9)/t5-/m0/s1
INCHIAUX=N/A
PUBMED=N/A
SUBMITUSER=mwang87
TAGS=
LIBRARYQUALITY=3
SPECTRUMID=CCMSLIB00000425627
SCANS=599
86.087 100.0 
131.986 15.784 
END IONS

BEGIN IONS
PEPMASS=60.0813
CHARGE=1+
MSLEVEL=2
SOURCE_INSTRUMENT=Positive-Quattro_QQQ:10eV
FILENAME=hmdb_intermediate.mgf
SEQ=*..*
IONMODE=Positive
ORGANISM=HMDB
NAME=HMDB:HMDB00906-1292 Trimethylamine M+H
PI=HMDB
DATACOLLECTOR=HMDB
SMILES=CN(C)C
INCHI=InChI=1S/C3H9N/c1-4(2)3/h1-3H3
INCHIAUX=N/A
PUBMED=N/A
SUBMITUSER=mwang87
TAGS=
LIBRARYQUALITY=3
SPECTRUMID=CCMSLIB00000425628
SCANS=600
44.0 21.137 
59.0 100.0 
END IONS

BEGIN IONS
PEPMASS=174.92
CHARGE=1+
MSLEVEL=2
SOURCE_INSTRUMENT=Positive-Quattro_QQQ:10eV
FILENAME=hmdb_intermediate.mgf
SEQ=*..*
IONMODE=Positive
ORGANISM=HMDB
NAME=HMDB:HMDB00250-427 Pyrophosphate M+H
PI=HMDB
DATACOLLECTOR=HMDB
SMILES=[O-]P([O-])(=O)OP([O-])([O-])=O
INCHI=InChI=1S/H4O7P2/c1-8(2,3)7-9(4,5)6/h(H2,1,2,3)(H2,4,5,6)/p-4
INCHIAUX=N/A
PUBMED=N/A
SUBMITUSER=mwang87
TAGS=
LIBRARYQUALITY=3
SPECTRUMID=CCMSLIB00000425629
SCANS=601
99.0 69.309 
147.0 3.27 
161.0 5.224 
179.0 100.0 
END IONS

BEGIN IONS
PEPMASS=647.465
CHARGE=1+
MSLEVEL=2
SOURCE_INSTRUMENT=Negative-Quattro_QQQ:40eV
FILENAME=hmdb_intermediate.mgf
SEQ=*..*
IONMODE=Negative
ORGANISM=HMDB
NAME=HMDB:HMDB00674-935 PA(16:0/16:0) M-H
PI=HMDB
DATACOLLECTOR=HMDB
SMILES=CCCCCCCCCCCCCCCC(=O)OC[C@H](COP(O)(O)=O)OC(=O)CCCCCCCCCCCCCCC
INCHI=InChI=1S/C35H69O8P/c1-3-5-7-9-11-13-15-17-19-21-23-25-27-29-34(36)41-31-33(32-42-44(38,39)40)43-35(37)30-28-26-24-22-20-18-16-14-12-10-8-6-4-2/h33H,3-32H2,1-2H3,(H2,38,39,40)/t33-/m1/s1
INCHIAUX=N/A
PUBMED=N/A
SUBMITUSER=mwang87
TAGS=
LIBRARYQUALITY=3
SPECTRUMID=CCMSLIB00000425630
SCANS=602
79.0 8.886 
96.0 4.262 
152.0 49.635 
254.0 5.876 
255.0 100.0 
END IONS

BEGIN IONS
PEPMASS=287.056
CHARGE=1+
MSLEVEL=2
SOURCE_INSTRUMENT=Positive-Quattro_QQQ:10eV
FILENAME=hmdb_intermediate.mgf
SEQ=*..*
IONMODE=Positive
ORGANISM=HMDB
NAME=HMDB:HMDB05801-2448 Kaempferol M+H
PI=HMDB
DATACOLLECTOR=HMDB
SMILES=OC1=CC=C(C=C1)C1=C(O)C(=O)C2=C(O1)C=C(O)C=C2O
INCHI=InChI=1S/C15H10O6/c16-8-3-1-7(2-4-8)15-14(20)13(19)12-10(18)5-9(17)6-11(12)21-15/h1-6,16-18,20H
INCHIAUX=N/A
PUBMED=N/A
SUBMITUSER=mwang87
TAGS=
LIBRARYQUALITY=3
SPECTRUMID=CCMSLIB00000425631
SCANS=603
286.0 100.0 
END IONS

BEGIN IONS
PEPMASS=159.041
CHARGE=1+
MSLEVEL=2
SOURCE_INSTRUMENT=Positive-Quattro_QQQ:10eV
FILENAME=hmdb_intermediate.mgf
SEQ=*..*
IONMODE=Positive
ORGANISM=HMDB
NAME=HMDB:HMDB03349-2256 L-Dihydroorotic acid M+H
PI=HMDB
DATACOLLECTOR=HMDB
SMILES=OC(=O)[C@@H]1CC(=O)NC(=O)N1
INCHI=InChI=1S/C5H6N2O4/c8-3-1-2(4(9)10)6-5(11)7-3/h2H,1H2,(H,9,10)(H2,6,7,8,11)/t2-/m0/s1
INCHIAUX=N/A
PUBMED=N/A
SUBMITUSER=mwang87
TAGS=
LIBRARYQUALITY=3
SPECTRUMID=CCMSLIB00000425632
SCANS=604
61.0 9.177 
74.0 59.14 
87.0 99.444 
99.0 9.212 
113.0 65.832 
116.0 28.344 
131.0 22.229 
141.0 12.308 
159.0 100.0 
END IONS

BEGIN IONS
PEPMASS=365.233
CHARGE=1+
MSLEVEL=2
SOURCE_INSTRUMENT=Positive-Quattro_QQQ:25eV
FILENAME=hmdb_intermediate.mgf
SEQ=*..*
IONMODE=Positive
ORGANISM=HMDB
NAME=HMDB:HMDB00903-1284 Tetrahydrocortisone M+H
PI=HMDB
DATACOLLECTOR=HMDB
SMILES=[H][C@@]12CC[C@](O)(C(=O)CO)[C@@]1(C)CC(=O)[C@@]1([H])[C@@]2([H])CC[C@@]2([H])C[C@@H](O)CC[C@]12C
INCHI=InChI=1S/C21H32O5/c1-19-7-5-13(23)9-12(19)3-4-14-15-6-8-21(26,17(25)11-22)20(15,2)10-16(24)18(14)19/h12-15,18,22-23,26H,3-11H2,1-2H3/t12-,13-,14-,15-,18+,19-,20-,21-/m0/s1
INCHIAUX=N/A
PUBMED=N/A
SUBMITUSER=mwang87
TAGS=
LIBRARYQUALITY=3
SPECTRUMID=CCMSLIB00000425633
SCANS=605
43.579 14.535 
67.384 18.605 
81.323 38.953 
93.292 36.919 
95.289 34.593 
107.244 33.14 
121.205 56.686 
133.187 24.128 
135.184 46.221 
149.196 100.0 
159.152 54.36 
173.144 38.663 
175.141 49.709 
185.107 34.012 
201.085 27.035 
211.076 28.779 
223.106 22.093 
225.151 69.186 
243.163 68.895 
253.126 45.058 
255.125 15.48 
269.189 42.442 
281.192 16.279 
293.203 15.77 
299.202 25.581 
311.214 25.0 
329.25 38.081 
END IONS

BEGIN IONS
PEPMASS=332.076
CHARGE=1+
MSLEVEL=2
SOURCE_INSTRUMENT=Positive-Quattro_QQQ:10eV
FILENAME=hmdb_intermediate.mgf
SEQ=*..*
IONMODE=Positive
ORGANISM=HMDB
NAME=HMDB:HMDB00905-1289 Deoxyadenosine monophosphate M+H
PI=HMDB
DATACOLLECTOR=HMDB
SMILES=NC1=NC=NC2=C1N=CN2[C@H]1C[C@H](O)[C@@H](COP(O)(O)=O)O1
INCHI=InChI=1S/C10H14N5O6P/c11-9-8-10(13-3-12-9)15(4-14-8)7-1-5(16)6(21-7)2-20-22(17,18)19/h3-7,16H,1-2H2,(H2,11,12,13)(H2,17,18,19)/t5-,6+,7+/m0/s1
INCHIAUX=N/A
PUBMED=N/A
SUBMITUSER=mwang87
TAGS=
LIBRARYQUALITY=3
SPECTRUMID=CCMSLIB00000425634
SCANS=606
81.0 55.218 
216.0 3.344 
252.0 4.246 
274.0 100.0 
275.0 11.756 
332.0 84.968 
END IONS

BEGIN IONS
PEPMASS=115.051
CHARGE=1+
MSLEVEL=2
SOURCE_INSTRUMENT=Positive-Quattro_QQQ:10eV
FILENAME=hmdb_intermediate.mgf
SEQ=*..*
IONMODE=Positive
ORGANISM=HMDB
NAME=HMDB:HMDB00076-123 Dihydrouracil M+H
PI=HMDB
DATACOLLECTOR=HMDB
SMILES=O=C1CCNC(=O)N1
INCHI=InChI=1S/C4H6N2O2/c7-3-1-2-5-4(8)6-3/h1-2H2,(H2,5,6,7,8)
INCHIAUX=N/A
PUBMED=N/A
SUBMITUSER=mwang87
TAGS=
LIBRARYQUALITY=3
SPECTRUMID=CCMSLIB00000425635
SCANS=607
55.213 7.513 
73.014 72.34 
98.007 16.223 
114.966 100.0 
END IONS

BEGIN IONS
PEPMASS=323.064
CHARGE=1+
MSLEVEL=2
SOURCE_INSTRUMENT=Positive-Quattro_QQQ:40eV
FILENAME=hmdb_intermediate.mgf
SEQ=*..*
IONMODE=Positive
ORGANISM=HMDB
NAME=HMDB:HMDB01227-1474 5-Thymidylic acid M+H
PI=HMDB
DATACOLLECTOR=HMDB
SMILES=CC1=CN([C@H]2C[C@H](O)[C@@H](COP(O)(O)=O)O2)C(=O)NC1=O
INCHI=InChI=1S/C10H15N2O8P/c1-5-3-12(10(15)11-9(5)14)8-2-6(13)7(20-8)4-19-21(16,17)18/h3,6-8,13H,2,4H2,1H3,(H,11,14,15)(H2,16,17,18)/t6-,7+,8+/m0/s1
INCHIAUX=N/A
PUBMED=N/A
SUBMITUSER=mwang87
TAGS=
LIBRARYQUALITY=3
SPECTRUMID=CCMSLIB00000425636
SCANS=608
81.0 100.0 
127.0 4.684 
END IONS

BEGIN IONS
PEPMASS=116.071
CHARGE=1+
MSLEVEL=2
SOURCE_INSTRUMENT=Positive-Quattro_QQQ:25eV
FILENAME=hmdb_intermediate.mgf
SEQ=*..*
IONMODE=Positive
ORGANISM=HMDB
NAME=HMDB:HMDB00162-255 L-Proline M+H
PI=HMDB
DATACOLLECTOR=HMDB
SMILES=OC(=O)[C@@H]1CCCN1
INCHI=InChI=1S/C5H9NO2/c7-5(8)4-2-1-3-6-4/h4,6H,1-3H2,(H,7,8)/t4-/m0/s1
INCHIAUX=N/A
PUBMED=N/A
SUBMITUSER=mwang87
TAGS=
LIBRARYQUALITY=3
SPECTRUMID=CCMSLIB00000425637
SCANS=609
43.334 4.206 
70.14 100.0 
115.856 4.599 
END IONS

BEGIN IONS
PEPMASS=153.076
CHARGE=1+
MSLEVEL=2
SOURCE_INSTRUMENT=Positive-Quattro_QQQ:25eV
FILENAME=hmdb_intermediate.mgf
SEQ=*..*
IONMODE=Positive
ORGANISM=HMDB
NAME=HMDB:HMDB00568-795 D-Arabitol M+H
PI=HMDB
DATACOLLECTOR=HMDB
SMILES=OCC(O)C(O)C(O)CO
INCHI=InChI=1S/C5H12O5/c6-1-3(8)5(10)4(9)2-7/h3-10H,1-2H2
INCHIAUX=N/A
PUBMED=N/A
SUBMITUSER=mwang87
TAGS=
LIBRARYQUALITY=3
SPECTRUMID=CCMSLIB00000425638
SCANS=610
61.0 40.655 
69.0 100.0 
75.0 20.73 
89.0 15.632 
103.0 5.919 
END IONS

BEGIN IONS
PEPMASS=73.0653
CHARGE=1+
MSLEVEL=2
SOURCE_INSTRUMENT=Positive-Quattro_QQQ:25eV
FILENAME=hmdb_intermediate.mgf
SEQ=*..*
IONMODE=Positive
ORGANISM=HMDB
NAME=HMDB:HMDB03543-2323 Butanal M+H
PI=HMDB
DATACOLLECTOR=HMDB
SMILES=CCCC=O
INCHI=InChI=1S/C4H8O/c1-2-3-4-5/h4H,2-3H2,1H3
INCHIAUX=N/A
PUBMED=N/A
SUBMITUSER=mwang87
TAGS=
LIBRARYQUALITY=3
SPECTRUMID=CCMSLIB00000425639
SCANS=611
31.0 26.887 
43.0 100.0 
45.0 28.741 
58.0 39.34 
73.0 26.989 
END IONS

BEGIN IONS
PEPMASS=178.087
CHARGE=1+
MSLEVEL=2
SOURCE_INSTRUMENT=Positive-Quattro_QQQ:25eV
FILENAME=hmdb_intermediate.mgf
SEQ=*..*
IONMODE=Positive
ORGANISM=HMDB
NAME=HMDB:HMDB01855-1721 5-Hydroxytryptophol M+H
PI=HMDB
DATACOLLECTOR=HMDB
SMILES=OCCC1=CNC2=CC=C(O)C=C12
INCHI=InChI=1S/C10H11NO2/c12-4-3-7-6-11-10-2-1-8(13)5-9(7)10/h1-2,5-6,11-13H,3-4H2
INCHIAUX=N/A
PUBMED=N/A
SUBMITUSER=mwang87
TAGS=
LIBRARYQUALITY=3
SPECTRUMID=CCMSLIB00000425640
SCANS=612
115.08 6.7713455012 
132.18 12.3829169114 
142.14 6.3458819076 
160.14 100.0 
178.14 32.5666654637 
END IONS

BEGIN IONS
PEPMASS=159.052
CHARGE=1+
MSLEVEL=2
SOURCE_INSTRUMENT=Positive-Quattro_QQQ:40eV
FILENAME=hmdb_intermediate.mgf
SEQ=*..*
IONMODE=Positive
ORGANISM=HMDB
NAME=HMDB:HMDB00462-673 Allantoin M+H
PI=HMDB
DATACOLLECTOR=HMDB
SMILES=NC(=O)NC1NC(=O)NC1=O
INCHI=InChI=1S/C4H6N4O3/c5-3(10)6-1-2(9)8-4(11)7-1/h1H,(H3,5,6,10)(H2,7,8,9,11)
INCHIAUX=N/A
PUBMED=N/A
SUBMITUSER=mwang87
TAGS=
LIBRARYQUALITY=3
SPECTRUMID=CCMSLIB00000425641
SCANS=613
44.268 100.0 
45.431 11.413 
61.133 76.087 
73.083 22.283 
99.005 45.652 
116.007 8.804 
159.057 12.065 
END IONS

BEGIN IONS
PEPMASS=425.436
CHARGE=1+
MSLEVEL=2
SOURCE_INSTRUMENT=Positive-Quattro_QQQ:10eV
FILENAME=hmdb_intermediate.mgf
SEQ=*..*
IONMODE=Positive
ORGANISM=HMDB
NAME=HMDB:HMDB02348-2070 Octacosanoic acid M+H
PI=HMDB
DATACOLLECTOR=HMDB
SMILES=CCCCCCCCCCCCCCCCCCCCCCCCCCCC(O)=O
INCHI=InChI=1S/C28H56O2/c1-2-3-4-5-6-7-8-9-10-11-12-13-14-15-16-17-18-19-20-21-22-23-24-25-26-27-28(29)30/h2-27H2,1H3,(H,29,30)
INCHIAUX=N/A
PUBMED=N/A
SUBMITUSER=mwang87
TAGS=
LIBRARYQUALITY=3
SPECTRUMID=CCMSLIB00000425642
SCANS=614
292.0 19.77 
408.0 5.046 
426.0 100.0 
END IONS

BEGIN IONS
PEPMASS=183.052
CHARGE=1+
MSLEVEL=2
SOURCE_INSTRUMENT=Positive-Quattro_QQQ:40eV
FILENAME=hmdb_intermediate.mgf
SEQ=*..*
IONMODE=Positive
ORGANISM=HMDB
NAME=HMDB:HMDB01973-1919 9-Methyluric acid M+H
PI=HMDB
DATACOLLECTOR=HMDB
SMILES=CN1C(=O)NC2=C1NC(=O)NC2=O
INCHI=InChI=1S/C6H6N4O3/c1-10-3-2(7-6(10)13)4(11)9-5(12)8-3/h1H3,(H,7,13)(H2,8,9,11,12)
INCHIAUX=N/A
PUBMED=N/A
SUBMITUSER=mwang87
TAGS=
LIBRARYQUALITY=3
SPECTRUMID=CCMSLIB00000425643
SCANS=615
67.0 100.0 
77.0 52.029 
91.0 21.696 
105.0 10.331 
115.0 26.007 
128.0 25.982 
141.0 23.302 
152.0 61.973 
165.0 32.112 
END IONS

BEGIN IONS
PEPMASS=343.124
CHARGE=1+
MSLEVEL=2
SOURCE_INSTRUMENT=Positive-Quattro_QQQ:25eV
FILENAME=hmdb_intermediate.mgf
SEQ=*..*
IONMODE=Positive
ORGANISM=HMDB
NAME=HMDB:HMDB00186-293 Alpha-Lactose M+H
PI=HMDB
DATACOLLECTOR=HMDB
SMILES=OC[C@H]1O[C@@H](O[C@H]2[C@H](O)[C@@H](O)[C@@H](O)O[C@@H]2CO)[C@H](O)[C@@H](O)[C@H]1O
INCHI=InChI=1S/C12H22O11/c13-1-3-5(15)6(16)9(19)12(22-3)23-10-4(2-14)21-11(20)8(18)7(10)17/h3-20H,1-2H2/t3-,4-,5+,6+,7-,8-,9-,10-,11+,12+/m1/s1
INCHIAUX=N/A
PUBMED=N/A
SUBMITUSER=mwang87
TAGS=
LIBRARYQUALITY=3
SPECTRUMID=CCMSLIB00000425644
SCANS=616
61.187 19.928 
73.131 18.116 
91.062 100.0 
97.034 19.565 
126.99 19.082 
144.962 42.512 
162.944 36.232 
END IONS

BEGIN IONS
PEPMASS=165.019
CHARGE=1+
MSLEVEL=2
SOURCE_INSTRUMENT=Negative-Quattro_QQQ:40eV
FILENAME=hmdb_intermediate.mgf
SEQ=*..*
IONMODE=Negative
ORGANISM=HMDB
NAME=HMDB:HMDB02428-2106 Terephthalic acid M-H
PI=HMDB
DATACOLLECTOR=HMDB
SMILES=OC(=O)C1=CC=C(C=C1)C(O)=O
INCHI=InChI=1S/C8H6O4/c9-7(10)5-1-2-6(4-3-5)8(11)12/h1-4H,(H,9,10)(H,11,12)
INCHIAUX=N/A
PUBMED=N/A
SUBMITUSER=mwang87
TAGS=
LIBRARYQUALITY=3
SPECTRUMID=CCMSLIB00000425645
SCANS=617
74.0 6.124 
76.0 100.0 
120.0 95.109 
164.0 11.769 
165.0 6.449 
END IONS

BEGIN IONS
PEPMASS=208.097
CHARGE=1+
MSLEVEL=2
SOURCE_INSTRUMENT=Positive-Quattro_QQQ:25eV
FILENAME=hmdb_intermediate.mgf
SEQ=*..*
IONMODE=Positive
ORGANISM=HMDB
NAME=HMDB:HMDB00512-738 N-Acetyl-L-phenylalanine M+H
PI=HMDB
DATACOLLECTOR=HMDB
SMILES=CC(=O)N[C@@H](CC1=CC=CC=C1)C(O)=O
INCHI=InChI=1S/C11H13NO3/c1-8(13)12-10(11(14)15)7-9-5-3-2-4-6-9/h2-6,10H,7H2,1H3,(H,12,13)(H,14,15)/t10-/m0/s1
INCHIAUX=N/A
PUBMED=N/A
SUBMITUSER=mwang87
TAGS=
LIBRARYQUALITY=3
SPECTRUMID=CCMSLIB00000425646
SCANS=618
102.0 11.813 
119.0 100.0 
END IONS

BEGIN IONS
PEPMASS=289.217
CHARGE=1+
MSLEVEL=2
SOURCE_INSTRUMENT=Positive-Quattro_QQQ:25eV
FILENAME=hmdb_intermediate.mgf
SEQ=*..*
IONMODE=Positive
ORGANISM=HMDB
NAME=HMDB:HMDB00628-856 Epitestosterone M+H
PI=HMDB
DATACOLLECTOR=HMDB
SMILES=[H][C@@]12CC[C@@H](O)[C@@]1(C)CC[C@@]1([H])[C@@]2([H])CCC2=CC(=O)CC[C@]12C
INCHI=InChI=1S/C19H28O2/c1-18-9-7-13(20)11-12(18)3-4-14-15-5-6-17(21)19(15,2)10-8-16(14)18/h11,14-17,21H,3-10H2,1-2H3/t14-,15-,16-,17+,18-,19-/m0/s1
INCHIAUX=N/A
PUBMED=N/A
SUBMITUSER=mwang87
TAGS=
LIBRARYQUALITY=3
SPECTRUMID=CCMSLIB00000425647
SCANS=619
81.289 10.938 
93.256 6.944 
97.225 100.0 
109.179 91.667 
123.148 10.547 
133.147 4.34 
143.101 2.756 
145.13 7.509 
159.126 5.469 
171.088 3.95 
175.146 6.293 
187.047 2.865 
196.983 3.168 
253.105 4.47 
END IONS

BEGIN IONS
PEPMASS=269.284
CHARGE=1+
MSLEVEL=2
SOURCE_INSTRUMENT=Negative-Quattro_QQQ:25eV
FILENAME=hmdb_intermediate.mgf
SEQ=*..*
IONMODE=Negative
ORGANISM=HMDB
NAME=HMDB:HMDB02350-2074 Octadecanol M-H
PI=HMDB
DATACOLLECTOR=HMDB
SMILES=CCCCCCCCCCCCCCCCCCO
INCHI=InChI=1S/C18H38O/c1-2-3-4-5-6-7-8-9-10-11-12-13-14-15-16-17-18-19/h19H,2-18H2,1H3
INCHIAUX=N/A
PUBMED=N/A
SUBMITUSER=mwang87
TAGS=
LIBRARYQUALITY=3
SPECTRUMID=CCMSLIB00000425648
SCANS=620
78.0 100.0 
167.0 52.066 
END IONS

BEGIN IONS
PEPMASS=113.024
CHARGE=1+
MSLEVEL=2
SOURCE_INSTRUMENT=Positive-Quattro_QQQ:10eV
FILENAME=hmdb_intermediate.mgf
SEQ=*..*
IONMODE=Positive
ORGANISM=HMDB
NAME=HMDB:HMDB00444-647 3-Furoic acid M+H
PI=HMDB
DATACOLLECTOR=HMDB
SMILES=OC(=O)C1=COC=C1
INCHI=InChI=1S/C5H4O3/c6-5(7)4-1-2-8-3-4/h1-3H,(H,6,7)
INCHIAUX=N/A
PUBMED=N/A
SUBMITUSER=mwang87
TAGS=
LIBRARYQUALITY=3
SPECTRUMID=CCMSLIB00000425649
SCANS=621
68.99 100.0 
94.78 9.225 
112.68 44.189 
END IONS

BEGIN IONS
PEPMASS=122.097
CHARGE=1+
MSLEVEL=2
SOURCE_INSTRUMENT=Positive-Quattro_QQQ:25eV
FILENAME=hmdb_intermediate.mgf
SEQ=*..*
IONMODE=Positive
ORGANISM=HMDB
NAME=HMDB:HMDB02017-1948 1-Phenylethylamine M+H
PI=HMDB
DATACOLLECTOR=HMDB
SMILES=CC(N)C1=CC=CC=C1
INCHI=InChI=1S/C8H11N/c1-7(9)8-5-3-2-4-6-8/h2-7H,9H2,1H3
INCHIAUX=N/A
PUBMED=N/A
SUBMITUSER=mwang87
TAGS=
LIBRARYQUALITY=3
SPECTRUMID=CCMSLIB00000425650
SCANS=622
43.25 17.827 
51.27 26.177 
65.15 12.717 
76.78 100.0 
90.97 17.369 
END IONS

BEGIN IONS
PEPMASS=206.067
CHARGE=1+
MSLEVEL=2
SOURCE_INSTRUMENT=Positive-Quattro_QQQ:10eV
FILENAME=hmdb_intermediate.mgf
SEQ=*..*
IONMODE=Positive
ORGANISM=HMDB
NAME=HMDB:HMDB00962-1366 Lipoamide M+H
PI=HMDB
DATACOLLECTOR=HMDB
SMILES=NC(=O)CCCCC1CCSS1
INCHI=InChI=1S/C8H15NOS2/c9-8(10)4-2-1-3-7-5-6-11-12-7/h7H,1-6H2,(H2,9,10)
INCHIAUX=N/A
PUBMED=N/A
SUBMITUSER=mwang87
TAGS=
LIBRARYQUALITY=3
SPECTRUMID=CCMSLIB00000425651
SCANS=623
101.0 6.362 
161.0 28.555 
171.0 5.142 
189.0 100.0 
206.0 7.032 
END IONS

BEGIN IONS
PEPMASS=132.102
CHARGE=1+
MSLEVEL=2
SOURCE_INSTRUMENT=Positive-Quattro_QQQ:10eV
FILENAME=hmdb_intermediate.mgf
SEQ=*..*
IONMODE=Positive
ORGANISM=HMDB
NAME=HMDB:HMDB00172-271 L-Isoleucine M+H
PI=HMDB
DATACOLLECTOR=HMDB
SMILES=CC[C@H](C)[C@H](N)C(O)=O
INCHI=InChI=1S/C6H13NO2/c1-3-4(2)5(7)6(8)9/h4-5H,3,7H2,1-2H3,(H,8,9)/t4-,5-/m0/s1
INCHIAUX=N/A
PUBMED=N/A
SUBMITUSER=mwang87
TAGS=
LIBRARYQUALITY=3
SPECTRUMID=CCMSLIB00000425652
SCANS=624
69.126 7.647 
86.016 100.0 
131.932 36.863 
END IONS

BEGIN IONS
PEPMASS=167.071
CHARGE=1+
MSLEVEL=2
SOURCE_INSTRUMENT=Positive-Quattro_QQQ:25eV
FILENAME=hmdb_intermediate.mgf
SEQ=*..*
IONMODE=Positive
ORGANISM=HMDB
NAME=HMDB:HMDB00779-1108 Phenyllactic acid M+H
PI=HMDB
DATACOLLECTOR=HMDB
SMILES=OC(CC1=CC=CC=C1)C(O)=O
INCHI=InChI=1S/C9H10O3/c10-8(9(11)12)6-7-4-2-1-3-5-7/h1-5,8,10H,6H2,(H,11,12)
INCHIAUX=N/A
PUBMED=N/A
SUBMITUSER=mwang87
TAGS=
LIBRARYQUALITY=3
SPECTRUMID=CCMSLIB00000425653
SCANS=625
60.216 20.364 
67.784 34.925 
84.184 92.509 
93.771 52.524 
103.233 52.524 
124.427 47.962 
124.932 100.0 
151.805 21.125 
164.295 32.316 
165.052 19.496 
END IONS

BEGIN IONS
PEPMASS=303.196
CHARGE=1+
MSLEVEL=2
SOURCE_INSTRUMENT=Positive-Quattro_QQQ:40eV
FILENAME=hmdb_intermediate.mgf
SEQ=*..*
IONMODE=Positive
ORGANISM=HMDB
NAME=HMDB:HMDB00405-617 2-Methoxyestradiol M+H
PI=HMDB
DATACOLLECTOR=HMDB
SMILES=[H][C@@]12CC[C@H](O)[C@@]1(C)CC[C@]1([H])C3=C(CC[C@@]21[H])C=C(O)C(OC)=C3
INCHI=InChI=1S/C19H26O3/c1-19-8-7-12-13(15(19)5-6-18(19)21)4-3-11-9-16(20)17(22-2)10-14(11)12/h9-10,12-13,15,18,20-21H,3-8H2,1-2H3/t12-,13+,15-,18-,19-/m0/s1
INCHIAUX=N/A
PUBMED=N/A
SUBMITUSER=mwang87
TAGS=
LIBRARYQUALITY=3
SPECTRUMID=CCMSLIB00000425654
SCANS=626
80.0 4.322 
106.0 10.379 
134.0 95.351 
135.0 37.607 
151.0 100.0 
END IONS

BEGIN IONS
PEPMASS=153.041
CHARGE=1+
MSLEVEL=2
SOURCE_INSTRUMENT=Positive-Quattro_QQQ:10eV
FILENAME=hmdb_intermediate.mgf
SEQ=*..*
IONMODE=Positive
ORGANISM=HMDB
NAME=HMDB:HMDB00786-1122 Oxypurinol M+H
PI=HMDB
DATACOLLECTOR=HMDB
SMILES=O=C1NC2=C(C=NN2)C(=O)N1
INCHI=InChI=1S/C5H4N4O2/c10-4-2-1-6-9-3(2)7-5(11)8-4/h1H,(H3,6,7,8,9,10,11)
INCHIAUX=N/A
PUBMED=N/A
SUBMITUSER=mwang87
TAGS=
LIBRARYQUALITY=3
SPECTRUMID=CCMSLIB00000425655
SCANS=627
70.464 15.339 
83.096 34.273 
91.812 50.906 
94.97 22.118 
111.772 53.24 
118.973 32.419 
125.921 35.233 
135.396 34.914 
152.957 100.0 
END IONS

BEGIN IONS
PEPMASS=373.159
CHARGE=1+
MSLEVEL=2
SOURCE_INSTRUMENT=Positive-Quattro_QQQ:25eV
FILENAME=hmdb_intermediate.mgf
SEQ=*..*
IONMODE=Positive
ORGANISM=HMDB
NAME=HMDB:HMDB02873-2150 Deacetyldiltiazem M+H
PI=HMDB
DATACOLLECTOR=HMDB
SMILES=COC1=CC=C(C=C1)[C@@H]1SC2=CC=CC=C2N(CCN(C)C)C(=O)[C@@H]1O
INCHI=InChI=1S/C20H24N2O3S/c1-21(2)12-13-22-16-6-4-5-7-17(16)26-19(18(23)20(22)24)14-8-10-15(25-3)11-9-14/h4-11,18-19,23H,12-13H2,1-3H3/t18-,19+/m1/s1
INCHIAUX=N/A
PUBMED=N/A
SUBMITUSER=mwang87
TAGS=
LIBRARYQUALITY=3
SPECTRUMID=CCMSLIB00000425656
SCANS=628
71.0 15.065 
120.0 4.924 
149.0 9.836 
177.0 100.0 
END IONS

BEGIN IONS
PEPMASS=313.217
CHARGE=1+
MSLEVEL=2
SOURCE_INSTRUMENT=Positive-Quattro_QQQ:40eV
FILENAME=hmdb_intermediate.mgf
SEQ=*..*
IONMODE=Positive
ORGANISM=HMDB
NAME=HMDB:HMDB00995-1386 16-Dehydroprogesterone M+H
PI=HMDB
DATACOLLECTOR=HMDB
SMILES=[H][C@@]12CC=C(C(C)=O)[C@@]1(C)CC[C@@]1([H])[C@@]2([H])CCC2=CC(=O)CC[C@]12C
INCHI=InChI=1S/C21H28O2/c1-13(22)17-6-7-18-16-5-4-14-12-15(23)8-10-20(14,2)19(16)9-11-21(17,18)3/h6,12,16,18-19H,4-5,7-11H2,1-3H3/t16-,18-,19-,20-,21+/m0/s1
INCHIAUX=N/A
PUBMED=N/A
SUBMITUSER=mwang87
TAGS=
LIBRARYQUALITY=3
SPECTRUMID=CCMSLIB00000425657
SCANS=629
55.189 7.57 
67.132 9.511 
81.082 36.025 
91.067 16.77 
97.062 95.652 
109.023 100.0 
122.974 9.045 
130.985 6.172 
END IONS

BEGIN IONS
PEPMASS=171.139
CHARGE=1+
MSLEVEL=2
SOURCE_INSTRUMENT=Positive-Quattro_QQQ:40eV
FILENAME=hmdb_intermediate.mgf
SEQ=*..*
IONMODE=Positive
ORGANISM=HMDB
NAME=HMDB:HMDB04980-2417 cis-4-Decenoic acid M+H
PI=HMDB
DATACOLLECTOR=HMDB
SMILES=CCCCC\C=C/CCC(O)=O
INCHI=InChI=1S/C10H18O2/c1-2-3-4-5-6-7-8-9-10(11)12/h6-7H,2-5,8-9H2,1H3,(H,11,12)/b7-6-
INCHIAUX=N/A
PUBMED=N/A
SUBMITUSER=mwang87
TAGS=
LIBRARYQUALITY=3
SPECTRUMID=CCMSLIB00000425658
SCANS=630
43.0 100.0 
55.0 82.096 
65.0 31.161 
77.0 31.045 
93.0 30.034 
END IONS

BEGIN IONS
PEPMASS=209.03
CHARGE=1+
MSLEVEL=2
SOURCE_INSTRUMENT=Negative-Quattro_QQQ:10eV
FILENAME=hmdb_intermediate.mgf
SEQ=*..*
IONMODE=Negative
ORGANISM=HMDB
NAME=HMDB:HMDB00639-873 Galactaric acid M-H
PI=HMDB
DATACOLLECTOR=HMDB
SMILES=O[C@@H]([C@@H](O)[C@H](O)C(O)=O)[C@@H](O)C(O)=O
INCHI=InChI=1S/C6H10O8/c7-1(3(9)5(11)12)2(8)4(10)6(13)14/h1-4,7-10H,(H,11,12)(H,13,14)/t1-,2+,3+,4-
INCHIAUX=N/A
PUBMED=N/A
SUBMITUSER=mwang87
TAGS=
LIBRARYQUALITY=3
SPECTRUMID=CCMSLIB00000425659
SCANS=631
59.457 3.564 
85.31 100.0 
103.218 2.35 
133.141 6.431 
147.135 2.144 
191.072 14.05 
209.071 75.207 
END IONS

BEGIN IONS
PEPMASS=788.181
CHARGE=1+
MSLEVEL=2
SOURCE_INSTRUMENT=Positive-Quattro_QQQ:25eV
FILENAME=hmdb_intermediate.mgf
SEQ=*..*
IONMODE=Positive
ORGANISM=HMDB
NAME=HMDB:HMDB01197-1458 FADH M+H
PI=HMDB
DATACOLLECTOR=HMDB
SMILES=CC1=CC2=C(C=C1C)N(C[C@H](O)[C@H](O)[C@H](O)COP(O)(=O)OP(O)(=O)OC[C@H]1O[C@H]([C@H](O)[C@@H]1O)N1C=NC3=C1N=CN=C3N)C1=C(N2)C(=O)NC(=O)N1
INCHI=InChI=1S/C27H35N9O15P2/c1-10-3-12-13(4-11(10)2)35(24-18(32-12)25(42)34-27(43)33-24)5-14(37)19(39)15(38)6-48-52(44,45)51-53(46,47)49-7-16-20(40)21(41)26(50-16)36-9-31-17-22(28)29-8-30-23(17)36/h3-4,8-9,14-16,19-21,26,32,37-41H,5-7H2,1-2H3,(H,44,45)(H,46,47)(H2,28,29,30)(H2,33,34,42,43)/t14-,15+,16+,19-,20+,21+,26+/m0/s1
INCHIAUX=N/A
PUBMED=N/A
SUBMITUSER=mwang87
TAGS=
LIBRARYQUALITY=3
SPECTRUMID=CCMSLIB00000425660
SCANS=632
135.0 16.345 
348.0 49.803 
439.0 100.0 
END IONS

BEGIN IONS
PEPMASS=126.103
CHARGE=1+
MSLEVEL=2
SOURCE_INSTRUMENT=Positive-Quattro_QQQ:25eV
FILENAME=hmdb_intermediate.mgf
SEQ=*..*
IONMODE=Positive
ORGANISM=HMDB
NAME=HMDB:HMDB00898-1272 1-Methylhistamine M+H
PI=HMDB
DATACOLLECTOR=HMDB
SMILES=CN1C=NC(CCN)=C1
INCHI=InChI=1S/C6H11N3/c1-9-4-6(2-3-7)8-5-9/h4-5H,2-3,7H2,1H3
INCHIAUX=N/A
PUBMED=N/A
SUBMITUSER=mwang87
TAGS=
LIBRARYQUALITY=3
SPECTRUMID=CCMSLIB00000425661
SCANS=633
68.282 92.868 
82.06 35.614 
96.334 19.075 
109.491 100.0 
END IONS

BEGIN IONS
PEPMASS=89.1079
CHARGE=1+
MSLEVEL=2
SOURCE_INSTRUMENT=Positive-Quattro_QQQ:25eV
FILENAME=hmdb_intermediate.mgf
SEQ=*..*
IONMODE=Positive
ORGANISM=HMDB
NAME=HMDB:HMDB01414-1569 Putrescine M+H
PI=HMDB
DATACOLLECTOR=HMDB
SMILES=NCCCCN
INCHI=InChI=1S/C4H12N2/c5-3-1-2-4-6/h1-6H2
INCHIAUX=N/A
PUBMED=N/A
SUBMITUSER=mwang87
TAGS=
LIBRARYQUALITY=3
SPECTRUMID=CCMSLIB00000425662
SCANS=634
44.261 7.552 
55.207 15.365 
72.087 100.0 
89.084 19.618 
END IONS

BEGIN IONS
PEPMASS=241.253
CHARGE=1+
MSLEVEL=2
SOURCE_INSTRUMENT=Negative-Quattro_QQQ:40eV
FILENAME=hmdb_intermediate.mgf
SEQ=*..*
IONMODE=Negative
ORGANISM=HMDB
NAME=HMDB:HMDB03424-2306 1-Hexadecanol M-H
PI=HMDB
DATACOLLECTOR=HMDB
SMILES=CCCCCCCCCCCCCCCCO
INCHI=InChI=1S/C16H34O/c1-2-3-4-5-6-7-8-9-10-11-12-13-14-15-16-17/h17H,2-16H2,1H3
INCHIAUX=N/A
PUBMED=N/A
SUBMITUSER=mwang87
TAGS=
LIBRARYQUALITY=3
SPECTRUMID=CCMSLIB00000425663
SCANS=635
154.0 100.0 
155.0 26.897 
END IONS

BEGIN IONS
PEPMASS=137.133
CHARGE=1+
MSLEVEL=2
SOURCE_INSTRUMENT=Positive-Quattro_QQQ:10eV
FILENAME=hmdb_intermediate.mgf
SEQ=*..*
IONMODE=Positive
ORGANISM=HMDB
NAME=HMDB:HMDB03375-2274 D-Limonene M+H
PI=HMDB
DATACOLLECTOR=HMDB
SMILES=CC(=C)[C@H]1CCC(C)=CC1
INCHI=InChI=1S/C10H16/c1-8(2)10-6-4-9(3)5-7-10/h4,10H,1,5-7H2,2-3H3/t10-/m1/s1
INCHIAUX=N/A
PUBMED=N/A
SUBMITUSER=mwang87
TAGS=
LIBRARYQUALITY=3
SPECTRUMID=CCMSLIB00000425664
SCANS=636
66.0 9.536 
80.0 43.774 
94.0 35.766 
95.0 23.151 
108.0 18.696 
118.0 26.694 
136.0 100.0 
END IONS

BEGIN IONS
PEPMASS=183.087
CHARGE=1+
MSLEVEL=2
SOURCE_INSTRUMENT=Positive-Quattro_QQQ:10eV
FILENAME=hmdb_intermediate.mgf
SEQ=*..*
IONMODE=Positive
ORGANISM=HMDB
NAME=HMDB:HMDB00765-1101 Mannitol M+H
PI=HMDB
DATACOLLECTOR=HMDB
SMILES=OC[C@@H](O)[C@@H](O)[C@H](O)[C@H](O)CO
INCHI=InChI=1S/C6H14O6/c7-1-3(9)5(11)6(12)4(10)2-8/h3-12H,1-2H2/t3-,4-,5-,6-/m1/s1
INCHIAUX=N/A
PUBMED=N/A
SUBMITUSER=mwang87
TAGS=
LIBRARYQUALITY=3
SPECTRUMID=CCMSLIB00000425665
SCANS=637
61.201 10.227 
69.156 100.0 
83.131 18.434 
87.12 15.593 
99.089 18.687 
111.058 19.949 
129.032 34.848 
147.021 44.444 
165.027 14.331 
183.003 11.427 
END IONS

BEGIN IONS
PEPMASS=151.076
CHARGE=1+
MSLEVEL=2
SOURCE_INSTRUMENT=Positive-Quattro_QQQ:10eV
FILENAME=hmdb_intermediate.mgf
SEQ=*..*
IONMODE=Positive
ORGANISM=HMDB
NAME=HMDB:HMDB00764-1098 Hydrocinnamic acid M+H
PI=HMDB
DATACOLLECTOR=HMDB
SMILES=OC(=O)CCC1=CC=CC=C1
INCHI=InChI=1S/C9H10O2/c10-9(11)7-6-8-4-2-1-3-5-8/h1-5H,6-7H2,(H,10,11)
INCHIAUX=N/A
PUBMED=N/A
SUBMITUSER=mwang87
TAGS=
LIBRARYQUALITY=3
SPECTRUMID=CCMSLIB00000425666
SCANS=638
118.0 29.93 
150.0 100.0 
END IONS

BEGIN IONS
PEPMASS=209.081
CHARGE=1+
MSLEVEL=2
SOURCE_INSTRUMENT=Positive-Quattro_QQQ:25eV
FILENAME=hmdb_intermediate.mgf
SEQ=*..*
IONMODE=Positive
ORGANISM=HMDB
NAME=HMDB:HMDB12127-2506 (R)-2-Benzylsuccinate M+H
PI=HMDB
DATACOLLECTOR=HMDB
SMILES=OC(=O)C[C@H](CC1=CC=CC=C1)C(O)=O
INCHI=InChI=1S/C11H12O4/c12-10(13)7-9(11(14)15)6-8-4-2-1-3-5-8/h1-5,9H,6-7H2,(H,12,13)(H,14,15)/t9-/m0/s1
INCHIAUX=N/A
PUBMED=N/A
SUBMITUSER=mwang87
TAGS=
LIBRARYQUALITY=3
SPECTRUMID=CCMSLIB00000425667
SCANS=639
117.12 89.3452843535 
133.08 5.9507726443 
144.18 11.3315191134 
145.14 100.0 
173.1 92.4564978588 
191.1 12.1652535281 
END IONS

BEGIN IONS
PEPMASS=152.071
CHARGE=1+
MSLEVEL=2
SOURCE_INSTRUMENT=Positive-Quattro_QQQ:40eV
FILENAME=hmdb_intermediate.mgf
SEQ=*..*
IONMODE=Positive
ORGANISM=HMDB
NAME=HMDB:HMDB01859-1734 Acetaminophen M+H
PI=HMDB
DATACOLLECTOR=HMDB
SMILES=CC(=O)NC1=CC=C(O)C=C1
INCHI=InChI=1S/C8H9NO2/c1-6(10)9-7-2-4-8(11)5-3-7/h2-5,11H,1H3,(H,9,10)
INCHIAUX=N/A
PUBMED=N/A
SUBMITUSER=mwang87
TAGS=
LIBRARYQUALITY=3
SPECTRUMID=CCMSLIB00000425668
SCANS=640
43.327 73.833 
64.378 12.745 
65.38 100.0 
80.166 22.148 
92.948 30.976 
109.239 14.949 
END IONS

BEGIN IONS
PEPMASS=192.069
CHARGE=1+
MSLEVEL=2
SOURCE_INSTRUMENT=Positive-Quattro_QQQ:40eV
FILENAME=hmdb_intermediate.mgf
SEQ=*..*
IONMODE=Positive
ORGANISM=HMDB
NAME=HMDB:HMDB11745-2501 N-Acetyl-L-methionine M+H
PI=HMDB
DATACOLLECTOR=HMDB
SMILES=CSCCC(NC(C)=O)C(O)=O
INCHI=InChI=1S/C7H13NO3S/c1-5(9)8-6(7(10)11)3-4-12-2/h6H,3-4H2,1-2H3,(H,8,9)(H,10,11)
INCHIAUX=N/A
PUBMED=N/A
SUBMITUSER=mwang87
TAGS=
LIBRARYQUALITY=3
SPECTRUMID=CCMSLIB00000425669
SCANS=641
60.96 38.2187477315 
68.04 16.5500201567 
84.06 4.0757512326 
87.0 13.0094689103 
98.04 100.0 
133.08 21.7510627641 
144.12 18.5261419665 
END IONS

BEGIN IONS
PEPMASS=263.023
CHARGE=1+
MSLEVEL=2
SOURCE_INSTRUMENT=Negative-Quattro_QQQ:25eV
FILENAME=hmdb_intermediate.mgf
SEQ=*..*
IONMODE=Negative
ORGANISM=HMDB
NAME=HMDB:HMDB03332-2249 3-Methoxy-4-Hydroxyphenylglycol sulfate M-H
PI=HMDB
DATACOLLECTOR=HMDB
SMILES=COC1=C(O)C=CC(=C1)C(CO)OS(O)(=O)=O
INCHI=InChI=1S/C9H12O7S/c1-15-8-4-6(2-3-7(8)11)9(5-10)16-17(12,13)14/h2-4,9-11H,5H2,1H3,(H,12,13,14)
INCHIAUX=N/A
PUBMED=N/A
SUBMITUSER=mwang87
TAGS=
LIBRARYQUALITY=3
SPECTRUMID=CCMSLIB00000425670
SCANS=642
79.0 10.104 
120.0 13.233 
149.0 100.0 
164.0 17.366 
165.0 10.915 
END IONS

BEGIN IONS
PEPMASS=133.014
CHARGE=1+
MSLEVEL=2
SOURCE_INSTRUMENT=Negative-Quattro_QQQ:25eV
FILENAME=hmdb_intermediate.mgf
SEQ=*..*
IONMODE=Negative
ORGANISM=HMDB
NAME=HMDB:HMDB00744-1057 Malic acid M-H
PI=HMDB
DATACOLLECTOR=HMDB
SMILES=OC(CC(O)=O)C(O)=O
INCHI=InChI=1S/C4H6O5/c5-2(4(8)9)1-3(6)7/h2,5H,1H2,(H,6,7)(H,8,9)
INCHIAUX=N/A
PUBMED=N/A
SUBMITUSER=mwang87
TAGS=
LIBRARYQUALITY=3
SPECTRUMID=CCMSLIB00000425671
SCANS=643
43.248 39.306 
45.207 17.197 
59.106 11.272 
71.031 100.0 
114.835 10.405 
133.017 10.983 
END IONS

BEGIN IONS
PEPMASS=75.0082
CHARGE=1+
MSLEVEL=2
SOURCE_INSTRUMENT=Negative-Quattro_QQQ:40eV
FILENAME=hmdb_intermediate.mgf
SEQ=*..*
IONMODE=Negative
ORGANISM=HMDB
NAME=HMDB:HMDB00115-167 Glycolic acid M-H
PI=HMDB
DATACOLLECTOR=HMDB
SMILES=OCC(O)=O
INCHI=InChI=1S/C2H4O3/c3-1-2(4)5/h3H,1H2,(H,4,5)
INCHIAUX=N/A
PUBMED=N/A
SUBMITUSER=mwang87
TAGS=
LIBRARYQUALITY=3
SPECTRUMID=CCMSLIB00000425672
SCANS=644
45.234 18.199 
73.178 17.096 
74.934 100.0 
END IONS

BEGIN IONS
PEPMASS=183.087
CHARGE=1+
MSLEVEL=2
SOURCE_INSTRUMENT=Positive-Quattro_QQQ:25eV
FILENAME=hmdb_intermediate.mgf
SEQ=*..*
IONMODE=Positive
ORGANISM=HMDB
NAME=HMDB:HMDB00247-422 Sorbitol M+H
PI=HMDB
DATACOLLECTOR=HMDB
SMILES=OC[C@H](O)[C@@H](O)[C@H](O)[C@H](O)CO
INCHI=InChI=1S/C6H14O6/c7-1-3(9)5(11)6(12)4(10)2-8/h3-12H,1-2H2/t3-,4+,5-,6-/m1/s1
INCHIAUX=N/A
PUBMED=N/A
SUBMITUSER=mwang87
TAGS=
LIBRARYQUALITY=3
SPECTRUMID=CCMSLIB00000425673
SCANS=645
43.33 30.556 
45.321 19.167 
55.244 50.833 
69.14 100.0 
83.1 32.778 
85.075 30.278 
99.042 8.403 
111.035 6.181 
END IONS

BEGIN IONS
PEPMASS=131.071
CHARGE=1+
MSLEVEL=2
SOURCE_INSTRUMENT=Negative-Quattro_QQQ:40eV
FILENAME=hmdb_intermediate.mgf
SEQ=*..*
IONMODE=Negative
ORGANISM=HMDB
NAME=HMDB:HMDB01624-1665 2-Hydroxycaproic acid M-H
PI=HMDB
DATACOLLECTOR=HMDB
SMILES=CCCCC(O)C(O)=O
INCHI=InChI=1S/C6H12O3/c1-2-3-4-5(7)6(8)9/h5,7H,2-4H2,1H3,(H,8,9)
INCHIAUX=N/A
PUBMED=N/A
SUBMITUSER=mwang87
TAGS=
LIBRARYQUALITY=3
SPECTRUMID=CCMSLIB00000425674
SCANS=646
45.49 100.0 
55.54 6.696 
74.334 9.208 
83.406 8.036 
85.331 29.018 
131.294 25.223 
END IONS

BEGIN IONS
PEPMASS=171.024
CHARGE=1+
MSLEVEL=2
SOURCE_INSTRUMENT=Positive-Quattro_QQQ:40eV
FILENAME=hmdb_intermediate.mgf
SEQ=*..*
IONMODE=Positive
ORGANISM=HMDB
NAME=HMDB:HMDB01460-1588 Diethylthiophosphate M+H
PI=HMDB
DATACOLLECTOR=HMDB
SMILES=CCOP(O)(=S)OCC
INCHI=InChI=1S/C4H11O3PS/c1-3-6-8(5,9)7-4-2/h3-4H2,1-2H3,(H,5,9)
INCHIAUX=N/A
PUBMED=N/A
SUBMITUSER=mwang87
TAGS=
LIBRARYQUALITY=3
SPECTRUMID=CCMSLIB00000425675
SCANS=647
63.0 10.286 
65.0 31.863 
81.0 77.836 
97.0 100.0 
115.0 16.426 
END IONS

BEGIN IONS
PEPMASS=118.087
CHARGE=1+
MSLEVEL=2
SOURCE_INSTRUMENT=Positive-Quattro_QQQ:25eV
FILENAME=hmdb_intermediate.mgf
SEQ=*..*
IONMODE=Positive
ORGANISM=HMDB
NAME=HMDB:HMDB00043-73 Betaine M+H
PI=HMDB
DATACOLLECTOR=HMDB
SMILES=C[N+](C)(C)CC([O-])=O
INCHI=InChI=1S/C5H11NO2/c1-6(2,3)4-5(7)8/h4H2,1-3H3
INCHIAUX=N/A
PUBMED=N/A
SUBMITUSER=mwang87
TAGS=
LIBRARYQUALITY=3
SPECTRUMID=CCMSLIB00000425676
SCANS=648
58.26 100.0 
117.939 8.654 
END IONS

BEGIN IONS
PEPMASS=171.066
CHARGE=1+
MSLEVEL=2
SOURCE_INSTRUMENT=Positive-Quattro_QQQ:10eV
FILENAME=hmdb_intermediate.mgf
SEQ=*..*
IONMODE=Positive
ORGANISM=HMDB
NAME=HMDB:HMDB00318-531 3,4-Dihydroxyphenylglycol M+H
PI=HMDB
DATACOLLECTOR=HMDB
SMILES=OCC(O)C1=CC(O)=C(O)C=C1
INCHI=InChI=1S/C8H10O4/c9-4-8(12)5-1-2-6(10)7(11)3-5/h1-3,8-12H,4H2
INCHIAUX=N/A
PUBMED=N/A
SUBMITUSER=mwang87
TAGS=
LIBRARYQUALITY=3
SPECTRUMID=CCMSLIB00000425677
SCANS=649
58.717 15.556 
69.884 20.185 
75.183 7.407 
90.526 13.704 
129.504 60.741 
139.909 13.519 
154.326 43.333 
170.812 100.0 
END IONS

BEGIN IONS
PEPMASS=165.076
CHARGE=1+
MSLEVEL=2
SOURCE_INSTRUMENT=Positive-Quattro_QQQ:10eV
FILENAME=hmdb_intermediate.mgf
SEQ=*..*
IONMODE=Positive
ORGANISM=HMDB
NAME=HMDB:HMDB02712-2125 1,5-Anhydrosorbitol M+H
PI=HMDB
DATACOLLECTOR=HMDB
SMILES=OC[C@H]1OC[C@H](O)[C@@H](O)[C@@H]1O
INCHI=InChI=1S/C6H12O5/c7-1-4-6(10)5(9)3(8)2-11-4/h3-10H,1-2H2/t3-,4+,5+,6+/m0/s1
INCHIAUX=N/A
PUBMED=N/A
SUBMITUSER=mwang87
TAGS=
LIBRARYQUALITY=3
SPECTRUMID=CCMSLIB00000425678
SCANS=650
57.0 5.486 
69.0 100.0 
81.0 9.566 
87.0 6.272 
101.0 49.378 
105.0 5.322 
124.0 15.205 
129.0 46.476 
147.0 5.778 
165.0 23.733 
END IONS

BEGIN IONS
PEPMASS=197.066
CHARGE=1+
MSLEVEL=2
SOURCE_INSTRUMENT=Positive-Quattro_QQQ:25eV
FILENAME=hmdb_intermediate.mgf
SEQ=*..*
IONMODE=Positive
ORGANISM=HMDB
NAME=HMDB:HMDB00625-850 Gluconic acid M+H
PI=HMDB
DATACOLLECTOR=HMDB
SMILES=OC[C@@H](O)[C@@H](O)[C@H](O)[C@@H](O)C(O)=O
INCHI=InChI=1S/C6H12O7/c7-1-2(8)3(9)4(10)5(11)6(12)13/h2-5,7-11H,1H2,(H,12,13)/t2-,3-,4+,5-/m1/s1
INCHIAUX=N/A
PUBMED=N/A
SUBMITUSER=mwang87
TAGS=
LIBRARYQUALITY=3
SPECTRUMID=CCMSLIB00000425679
SCANS=651
56.641 22.895 
69.045 17.257 
81.825 22.014 
94.48 23.776 
97.988 69.169 
113.776 100.0 
123.55 14.322 
127.434 29.237 
136.331 80.153 
155.128 52.902 
178.687 20.429 
214.029 12.677 
END IONS

BEGIN IONS
PEPMASS=315.232
CHARGE=1+
MSLEVEL=2
SOURCE_INSTRUMENT=Positive-Quattro_QQQ:40eV
FILENAME=hmdb_intermediate.mgf
SEQ=*..*
IONMODE=Positive
ORGANISM=HMDB
NAME=HMDB:HMDB01830-1686 Progesterone M+H
PI=HMDB
DATACOLLECTOR=HMDB
SMILES=[H][C@@]12CC[C@H](C(C)=O)[C@@]1(C)CC[C@@]1([H])[C@@]2([H])CCC2=CC(=O)CC[C@]12C
INCHI=InChI=1S/C21H30O2/c1-13(22)17-6-7-18-16-5-4-14-12-15(23)8-10-20(14,2)19(16)9-11-21(17,18)3/h12,16-19H,4-11H2,1-3H3/t16-,17+,18-,19-,20-,21+/m0/s1
INCHIAUX=N/A
PUBMED=N/A
SUBMITUSER=mwang87
TAGS=
LIBRARYQUALITY=3
SPECTRUMID=CCMSLIB00000425680
SCANS=652
43.587 15.625 
55.48 6.579 
67.389 9.293 
79.332 34.211 
91.292 10.115 
97.265 100.0 
109.219 96.053 
123.211 9.868 
END IONS

BEGIN IONS
PEPMASS=555.462
CHARGE=1+
MSLEVEL=2
SOURCE_INSTRUMENT=Positive-Quattro_QQQ:40eV
FILENAME=hmdb_intermediate.mgf
SEQ=*..*
IONMODE=Positive
ORGANISM=HMDB
NAME=HMDB:HMDB00548-772 TG(10:0/10:0/10:0)[iso] M+H
PI=HMDB
DATACOLLECTOR=HMDB
SMILES=CCCCCCCCCC(=O)OCC(COC(=O)CCCCCCCCC)OC(=O)CCCCCCCCC
INCHI=InChI=1S/C33H62O6/c1-4-7-10-13-16-19-22-25-31(34)37-28-30(39-33(36)27-24-21-18-15-12-9-6-3)29-38-32(35)26-23-20-17-14-11-8-5-2/h30H,4-29H2,1-3H3
INCHIAUX=N/A
PUBMED=N/A
SUBMITUSER=mwang87
TAGS=
LIBRARYQUALITY=3
SPECTRUMID=CCMSLIB00000425681
SCANS=653
70.0 95.792 
84.0 100.0 
94.0 59.615 
250.0 66.985 
END IONS

BEGIN IONS
PEPMASS=251.07
CHARGE=1+
MSLEVEL=2
SOURCE_INSTRUMENT=Positive-Quattro_QQQ:10eV
FILENAME=hmdb_intermediate.mgf
SEQ=*..*
IONMODE=Positive
ORGANISM=HMDB
NAME=HMDB:HMDB01049-1400 Gamma-Glutamylcysteine M+H
PI=HMDB
DATACOLLECTOR=HMDB
SMILES=N[C@@H](CCC(=O)N[C@@H](CS)C(O)=O)C(O)=O
INCHI=InChI=1S/C8H14N2O5S/c9-4(7(12)13)1-2-6(11)10-5(3-16)8(14)15/h4-5,16H,1-3,9H2,(H,10,11)(H,12,13)(H,14,15)/t4-,5-/m0/s1
INCHIAUX=N/A
PUBMED=N/A
SUBMITUSER=mwang87
TAGS=
LIBRARYQUALITY=3
SPECTRUMID=CCMSLIB00000425682
SCANS=654
250.93 100.0 
END IONS

BEGIN IONS
PEPMASS=175.024
CHARGE=1+
MSLEVEL=2
SOURCE_INSTRUMENT=Positive-Quattro_QQQ:10eV
FILENAME=hmdb_intermediate.mgf
SEQ=*..*
IONMODE=Positive
ORGANISM=HMDB
NAME=HMDB:HMDB00958-1360 trans-Aconitic acid M+H
PI=HMDB
DATACOLLECTOR=HMDB
SMILES=OC(=O)C\C(=C/C(O)=O)C(O)=O
INCHI=InChI=1S/C6H6O6/c7-4(8)1-3(6(11)12)2-5(9)10/h1H,2H2,(H,7,8)(H,9,10)(H,11,12)/b3-1+
INCHIAUX=N/A
PUBMED=N/A
SUBMITUSER=mwang87
TAGS=
LIBRARYQUALITY=3
SPECTRUMID=CCMSLIB00000425683
SCANS=655
41.393 4.358 
85.058 100.0 
128.934 30.046 
172.854 5.39 
END IONS

BEGIN IONS
PEPMASS=555.462
CHARGE=1+
MSLEVEL=2
SOURCE_INSTRUMENT=Positive-Quattro_QQQ:25eV
FILENAME=hmdb_intermediate.mgf
SEQ=*..*
IONMODE=Positive
ORGANISM=HMDB
NAME=HMDB:HMDB00548-771 TG(10:0/10:0/10:0)[iso] M+H
PI=HMDB
DATACOLLECTOR=HMDB
SMILES=CCCCCCCCCC(=O)OCC(COC(=O)CCCCCCCCC)OC(=O)CCCCCCCCC
INCHI=InChI=1S/C33H62O6/c1-4-7-10-13-16-19-22-25-31(34)37-28-30(39-33(36)27-24-21-18-15-12-9-6-3)29-38-32(35)26-23-20-17-14-11-8-5-2/h30H,4-29H2,1-3H3
INCHIAUX=N/A
PUBMED=N/A
SUBMITUSER=mwang87
TAGS=
LIBRARYQUALITY=3
SPECTRUMID=CCMSLIB00000425684
SCANS=656
132.0 13.865 
178.0 13.881 
212.0 23.861 
237.0 18.053 
251.0 16.19 
294.0 18.801 
339.0 12.705 
367.0 20.746 
383.0 22.964 
525.0 17.302 
555.0 100.0 
END IONS

BEGIN IONS
PEPMASS=308.065
CHARGE=1+
MSLEVEL=2
SOURCE_INSTRUMENT=Positive-Quattro_QQQ:25eV
FILENAME=hmdb_intermediate.mgf
SEQ=*..*
IONMODE=Positive
ORGANISM=HMDB
NAME=HMDB:HMDB01202-1464 dCMP M+H
PI=HMDB
DATACOLLECTOR=HMDB
SMILES=NC1=NC(=O)N(C=C1)[C@H]1C[C@H](O)[C@@H](COP(O)(O)=O)O1
INCHI=InChI=1S/C9H14N3O7P/c10-7-1-2-12(9(14)11-7)8-3-5(13)6(19-8)4-18-20(15,16)17/h1-2,5-6,8,13H,3-4H2,(H2,10,11,14)(H2,15,16,17)/t5-,6+,8+/m0/s1
INCHIAUX=N/A
PUBMED=N/A
SUBMITUSER=mwang87
TAGS=
LIBRARYQUALITY=3
SPECTRUMID=CCMSLIB00000425685
SCANS=657
81.0 14.496 
112.0 100.0 
END IONS

BEGIN IONS
PEPMASS=123.066
CHARGE=1+
MSLEVEL=2
SOURCE_INSTRUMENT=Positive-Quattro_QQQ:25eV
FILENAME=hmdb_intermediate.mgf
SEQ=*..*
IONMODE=Positive
ORGANISM=HMDB
NAME=HMDB:HMDB02994-2180 Erythritol M+H
PI=HMDB
DATACOLLECTOR=HMDB
SMILES=OC[C@H](O)[C@H](O)CO
INCHI=InChI=1S/C4H10O4/c5-1-3(7)4(8)2-6/h3-8H,1-2H2/t3-,4+
INCHIAUX=N/A
PUBMED=N/A
SUBMITUSER=mwang87
TAGS=
LIBRARYQUALITY=3
SPECTRUMID=CCMSLIB00000425686
SCANS=658
31.0 47.896 
43.0 100.0 
45.0 42.851 
57.0 70.888 
69.0 63.514 
77.0 65.477 
END IONS

BEGIN IONS
PEPMASS=175.12
CHARGE=1+
MSLEVEL=2
SOURCE_INSTRUMENT=Positive-Quattro_QQQ:25eV
FILENAME=hmdb_intermediate.mgf
SEQ=*..*
IONMODE=Positive
ORGANISM=HMDB
NAME=HMDB:HMDB03416-2293 D-Arginine M+H
PI=HMDB
DATACOLLECTOR=HMDB
SMILES=N[C@H](CCCNC(N)=N)C(O)=O
INCHI=InChI=1S/C6H14N4O2/c7-4(5(11)12)2-1-3-10-6(8)9/h4H,1-3,7H2,(H,11,12)(H4,8,9,10)/t4-/m1/s1
INCHIAUX=N/A
PUBMED=N/A
SUBMITUSER=mwang87
TAGS=
LIBRARYQUALITY=3
SPECTRUMID=CCMSLIB00000425687
SCANS=659
70.048 100.0 
END IONS

BEGIN IONS
PEPMASS=184.985
CHARGE=1+
MSLEVEL=2
SOURCE_INSTRUMENT=Negative-Quattro_QQQ:10eV
FILENAME=hmdb_intermediate.mgf
SEQ=*..*
IONMODE=Negative
ORGANISM=HMDB
NAME=HMDB:HMDB00807-1152 3-Phosphoglyceric acid M-H
PI=HMDB
DATACOLLECTOR=HMDB
SMILES=OC(COP(O)(O)=O)C(O)=O
INCHI=InChI=1S/C3H7O7P/c4-2(3(5)6)1-10-11(7,8)9/h2,4H,1H2,(H,5,6)(H2,7,8,9)
INCHIAUX=N/A
PUBMED=N/A
SUBMITUSER=mwang87
TAGS=
LIBRARYQUALITY=3
SPECTRUMID=CCMSLIB00000425688
SCANS=660
79.0 84.541 
97.0 100.0 
167.0 5.706 
185.0 64.088 
END IONS

BEGIN IONS
PEPMASS=161.108
CHARGE=1+
MSLEVEL=2
SOURCE_INSTRUMENT=Positive-Quattro_QQQ:40eV
FILENAME=hmdb_intermediate.mgf
SEQ=*..*
IONMODE=Positive
ORGANISM=HMDB
NAME=HMDB:HMDB60064-518 Tryptamine M+H
PI=HMDB
DATACOLLECTOR=HMDB
SMILES=NCCC1=CNC2=CC=CC=C12
INCHI=InChI=1S/C10H12N2/c11-6-5-8-7-12-10-4-2-1-3-9(8)10/h1-4,7,12H,5-6,11H2
INCHIAUX=N/A
PUBMED=N/A
SUBMITUSER=mwang87
TAGS=
LIBRARYQUALITY=3
SPECTRUMID=CCMSLIB00000425689
SCANS=661
65.2 13.5 
77.137 40.167 
90.691 100.0 
101.09 6.167 
115.035 80.667 
126.77 13.333 
142.589 34.333 
END IONS

BEGIN IONS
PEPMASS=385.347
CHARGE=1+
MSLEVEL=2
SOURCE_INSTRUMENT=Positive-Quattro_QQQ:10eV
FILENAME=hmdb_intermediate.mgf
SEQ=*..*
IONMODE=Positive
ORGANISM=HMDB
NAME=HMDB:HMDB00921-1309 Cholestenone M+H
PI=HMDB
DATACOLLECTOR=HMDB
SMILES=[H][C@@]12CC[C@H]([C@H](C)CCCC(C)C)[C@@]1(C)CC[C@@]1([H])[C@@]2([H])CCC2=CC(=O)CC[C@]12C
INCHI=InChI=1S/C27H44O/c1-18(2)7-6-8-19(3)23-11-12-24-22-10-9-20-17-21(28)13-15-26(20,4)25(22)14-16-27(23,24)5/h17-19,22-25H,6-16H2,1-5H3/t19-,22+,23-,24+,25+,26+,27-/m1/s1
INCHIAUX=N/A
PUBMED=N/A
SUBMITUSER=mwang87
TAGS=
LIBRARYQUALITY=3
SPECTRUMID=CCMSLIB00000425690
SCANS=662
384.0 100.0 
385.0 28.278 
END IONS

BEGIN IONS
PEPMASS=105.115
CHARGE=1+
MSLEVEL=2
SOURCE_INSTRUMENT=Positive-Quattro_QQQ:40eV
FILENAME=hmdb_intermediate.mgf
SEQ=*..*
IONMODE=Positive
ORGANISM=HMDB
NAME=HMDB:HMDB00097-152 Choline M+H
PI=HMDB
DATACOLLECTOR=HMDB
SMILES=C[N+](C)(C)CCO
INCHI=InChI=1S/C5H14NO/c1-6(2,3)4-5-7/h7H,4-5H2,1-3H3/q+1
INCHIAUX=N/A
PUBMED=N/A
SUBMITUSER=mwang87
TAGS=
LIBRARYQUALITY=3
SPECTRUMID=CCMSLIB00000425691
SCANS=663
59.0 100.0 
105.1 34.68349666 
END IONS

BEGIN IONS
PEPMASS=133.065
CHARGE=1+
MSLEVEL=2
SOURCE_INSTRUMENT=Positive-Quattro_QQQ:40eV
FILENAME=hmdb_intermediate.mgf
SEQ=*..*
IONMODE=Positive
ORGANISM=HMDB
NAME=HMDB:HMDB03441-2312 Cinnamaldehyde M+H
PI=HMDB
DATACOLLECTOR=HMDB
SMILES=O=C\C=C\C1=CC=CC=C1
INCHI=InChI=1S/C9H8O/c10-8-4-7-9-5-2-1-3-6-9/h1-8H/b7-4+
INCHIAUX=N/A
PUBMED=N/A
SUBMITUSER=mwang87
TAGS=
LIBRARYQUALITY=3
SPECTRUMID=CCMSLIB00000425692
SCANS=664
31.0 21.025 
39.0 4.665 
51.0 42.022 
55.0 17.819 
65.0 20.214 
77.0 100.0 
89.0 12.821 
103.0 5.736 
115.0 8.67 
END IONS

BEGIN IONS
PEPMASS=132.066
CHARGE=1+
MSLEVEL=2
SOURCE_INSTRUMENT=Positive-Quattro_QQQ:10eV
FILENAME=hmdb_intermediate.mgf
SEQ=*..*
IONMODE=Positive
ORGANISM=HMDB
NAME=HMDB:HMDB00783-1116 Propionylglycine M+H
PI=HMDB
DATACOLLECTOR=HMDB
SMILES=CCC(=O)NCC(O)=O
INCHI=InChI=1S/C5H9NO3/c1-2-4(7)6-3-5(8)9/h2-3H2,1H3,(H,6,7)(H,8,9)
INCHIAUX=N/A
PUBMED=N/A
SUBMITUSER=mwang87
TAGS=
LIBRARYQUALITY=3
SPECTRUMID=CCMSLIB00000425693
SCANS=665
57.503 41.111 
76.368 100.0 
86.36 3.056 
132.191 4.132 
END IONS

BEGIN IONS
PEPMASS=138.055
CHARGE=1+
MSLEVEL=2
SOURCE_INSTRUMENT=Positive-Quattro_QQQ:40eV
FILENAME=hmdb_intermediate.mgf
SEQ=*..*
IONMODE=Positive
ORGANISM=HMDB
NAME=HMDB:HMDB00875-1237 Trigonelline M+H
PI=HMDB
DATACOLLECTOR=HMDB
SMILES=C[N+]1=CC(=CC=C1)C([O-])=O
INCHI=InChI=1S/C7H7NO2/c1-8-4-2-3-6(5-8)7(9)10/h2-5H,1H3
INCHIAUX=N/A
PUBMED=N/A
SUBMITUSER=mwang87
TAGS=
LIBRARYQUALITY=3
SPECTRUMID=CCMSLIB00000425694
SCANS=666
39.544 32.416 
52.149 52.126 
65.129 100.0 
79.232 61.762 
91.963 68.547 
138.269 31.231 
END IONS

BEGIN IONS
PEPMASS=152.108
CHARGE=1+
MSLEVEL=2
SOURCE_INSTRUMENT=Positive-Quattro_QQQ:10eV
FILENAME=hmdb_intermediate.mgf
SEQ=*..*
IONMODE=Positive
ORGANISM=HMDB
NAME=HMDB:HMDB01942-1899 Phenylpropanolamine M+H
PI=HMDB
DATACOLLECTOR=HMDB
SMILES=C[C@@H](N)[C@@H](O)C1=CC=CC=C1
INCHI=InChI=1S/C9H13NO/c1-7(10)9(11)8-5-3-2-4-6-8/h2-7,9,11H,10H2,1H3/t7-,9-/m1/s1
INCHIAUX=N/A
PUBMED=N/A
SUBMITUSER=mwang87
TAGS=
LIBRARYQUALITY=3
SPECTRUMID=CCMSLIB00000425695
SCANS=667
119.919 13.971 
138.995 21.814 
147.964 97.059 
160.227 12.745 
170.406 16.422 
188.759 100.0 
END IONS

BEGIN IONS
PEPMASS=122.097
CHARGE=1+
MSLEVEL=2
SOURCE_INSTRUMENT=Positive-Quattro_QQQ:10eV
FILENAME=hmdb_intermediate.mgf
SEQ=*..*
IONMODE=Positive
ORGANISM=HMDB
NAME=HMDB:HMDB02017-1947 1-Phenylethylamine M+H
PI=HMDB
DATACOLLECTOR=HMDB
SMILES=CC(N)C1=CC=CC=C1
INCHI=InChI=1S/C8H11N/c1-7(9)8-5-3-2-4-6-8/h2-7H,9H2,1H3
INCHIAUX=N/A
PUBMED=N/A
SUBMITUSER=mwang87
TAGS=
LIBRARYQUALITY=3
SPECTRUMID=CCMSLIB00000425696
SCANS=668
43.15 18.293 
92.72 18.49 
120.65 100.0 
END IONS

BEGIN IONS
PEPMASS=240.11
CHARGE=1+
MSLEVEL=2
SOURCE_INSTRUMENT=Positive-Quattro_QQQ:25eV
FILENAME=hmdb_intermediate.mgf
SEQ=*..*
IONMODE=Positive
ORGANISM=HMDB
NAME=HMDB:HMDB00038-64 Dihydrobiopterin M+H
PI=HMDB
DATACOLLECTOR=HMDB
SMILES=CC(O)C(O)C1=NC2=C(NC1)N=C(N)NC2=O
INCHI=InChI=1S/C9H13N5O3/c1-3(15)6(16)4-2-11-7-5(12-4)8(17)14-9(10)13-7/h3,6,15-16H,2H2,1H3,(H4,10,11,13,14,17)
INCHIAUX=N/A
PUBMED=N/A
SUBMITUSER=mwang87
TAGS=
LIBRARYQUALITY=3
SPECTRUMID=CCMSLIB00000425697
SCANS=669
65.0 46.211 
78.0 100.0 
94.0 40.999 
95.0 42.408 
108.0 37.394 
123.0 69.479 
132.0 66.743 
148.0 76.681 
163.0 39.959 
165.0 33.59 
175.0 57.729 
193.0 66.176 
END IONS

BEGIN IONS
PEPMASS=281.248
CHARGE=1+
MSLEVEL=2
SOURCE_INSTRUMENT=Positive-Quattro_QQQ:10eV
FILENAME=hmdb_intermediate.mgf
SEQ=*..*
IONMODE=Positive
ORGANISM=HMDB
NAME=HMDB:HMDB00673-930 Linoleic acid M+H
PI=HMDB
DATACOLLECTOR=HMDB
SMILES=CCCCC\C=C/C\C=C/CCCCCCCC(O)=O
INCHI=InChI=1S/C18H32O2/c1-2-3-4-5-6-7-8-9-10-11-12-13-14-15-16-17-18(19)20/h6-7,9-10H,2-5,8,11-17H2,1H3,(H,19,20)/b7-6-,10-9-
INCHIAUX=N/A
PUBMED=N/A
SUBMITUSER=mwang87
TAGS=
LIBRARYQUALITY=3
SPECTRUMID=CCMSLIB00000425698
SCANS=670
100.0 7.126 
124.0 23.143 
125.0 7.049 
202.0 63.304 
280.0 100.0 
END IONS

BEGIN IONS
PEPMASS=177.062
CHARGE=1+
MSLEVEL=2
SOURCE_INSTRUMENT=Positive-Quattro_QQQ:25eV
FILENAME=hmdb_intermediate.mgf
SEQ=*..*
IONMODE=Positive
ORGANISM=HMDB
NAME=HMDB:HMDB01209-1467 Allantoic acid M+H
PI=HMDB
DATACOLLECTOR=HMDB
SMILES=NC(=O)NC(NC(N)=O)C(O)=O
INCHI=InChI=1S/C4H8N4O4/c5-3(11)7-1(2(9)10)8-4(6)12/h1H,(H,9,10)(H3,5,7,11)(H3,6,8,12)
INCHIAUX=N/A
PUBMED=N/A
SUBMITUSER=mwang87
TAGS=
LIBRARYQUALITY=3
SPECTRUMID=CCMSLIB00000425699
SCANS=671
61.0 100.0 
74.0 58.908 
99.0 2.998 
117.0 3.431 
END IONS

BEGIN IONS
PEPMASS=195.05
CHARGE=1+
MSLEVEL=2
SOURCE_INSTRUMENT=Positive-Quattro_QQQ:10eV
FILENAME=hmdb_intermediate.mgf
SEQ=*..*
IONMODE=Positive
ORGANISM=HMDB
NAME=HMDB:HMDB03402-2277 Pectin M+H
PI=HMDB
DATACOLLECTOR=HMDB
SMILES=O[C@@H]1O[C@@H]([C@H](O)[C@H](O)[C@H]1O)C(O)=O
INCHI=InChI=1S/C6H10O7/c7-1-2(8)4(5(10)11)13-6(12)3(1)9/h1-4,6-9,12H,(H,10,11)/t1-,2+,3+,4-,6+/m0/s1
INCHIAUX=N/A
PUBMED=N/A
SUBMITUSER=mwang87
TAGS=
LIBRARYQUALITY=3
SPECTRUMID=CCMSLIB00000425700
SCANS=672
89.0 100.0 
101.0 23.536 
107.0 6.356 
119.0 81.416 
133.0 6.843 
135.0 11.961 
152.0 31.996 
END IONS

BEGIN IONS
PEPMASS=111.045
CHARGE=1+
MSLEVEL=2
SOURCE_INSTRUMENT=Positive-Quattro_QQQ:25eV
FILENAME=hmdb_intermediate.mgf
SEQ=*..*
IONMODE=Positive
ORGANISM=HMDB
NAME=HMDB:HMDB00957-1358 Pyrocatechol M+H
PI=HMDB
DATACOLLECTOR=HMDB
SMILES=OC1=CC=CC=C1O
INCHI=InChI=1S/C6H6O2/c7-5-3-1-2-4-6(5)8/h1-4,7-8H
INCHIAUX=N/A
PUBMED=N/A
SUBMITUSER=mwang87
TAGS=
LIBRARYQUALITY=3
SPECTRUMID=CCMSLIB00000425701
SCANS=673
64.262 6.108 
65.144 100.0 
93.088 11.719 
111.054 8.026 
END IONS

BEGIN IONS
PEPMASS=157.061
CHARGE=1+
MSLEVEL=2
SOURCE_INSTRUMENT=Positive-Quattro_QQQ:10eV
FILENAME=hmdb_intermediate.mgf
SEQ=*..*
IONMODE=Positive
ORGANISM=HMDB
NAME=HMDB:HMDB00544-764 5-Hydroxymethyl-4-methyluracil M+H
PI=HMDB
DATACOLLECTOR=HMDB
SMILES=CC1=C(CO)C(=O)NC(=O)N1
INCHI=InChI=1S/C6H8N2O3/c1-3-4(2-9)5(10)8-6(11)7-3/h9H,2H2,1H3,(H2,7,8,10,11)
INCHIAUX=N/A
PUBMED=N/A
SUBMITUSER=mwang87
TAGS=
LIBRARYQUALITY=3
SPECTRUMID=CCMSLIB00000425702
SCANS=674
96.087 18.552 
138.992 100.0 
156.943 1.786 
END IONS

BEGIN IONS
PEPMASS=118.05
CHARGE=1+
MSLEVEL=2
SOURCE_INSTRUMENT=Positive-Quattro_QQQ:40eV
FILENAME=hmdb_intermediate.mgf
SEQ=*..*
IONMODE=Positive
ORGANISM=HMDB
NAME=HMDB:HMDB00532-754 Acetylglycine M+H
PI=HMDB
DATACOLLECTOR=HMDB
SMILES=CC(=O)NCC(O)=O
INCHI=InChI=1S/C4H7NO3/c1-3(6)5-2-4(7)8/h2H2,1H3,(H,5,6)(H,7,8)
INCHIAUX=N/A
PUBMED=N/A
SUBMITUSER=mwang87
TAGS=
LIBRARYQUALITY=3
SPECTRUMID=CCMSLIB00000425703
SCANS=675
43.205 100.0 
73.224 2.955 
75.91 22.283 
117.963 10.326 
END IONS

BEGIN IONS
PEPMASS=115.112
CHARGE=1+
MSLEVEL=2
SOURCE_INSTRUMENT=Positive-Quattro_QQQ:40eV
FILENAME=hmdb_intermediate.mgf
SEQ=*..*
IONMODE=Positive
ORGANISM=HMDB
NAME=HMDB:HMDB04814-2408 4-Heptanone M+H
PI=HMDB
DATACOLLECTOR=HMDB
SMILES=CCCC(=O)CCC
INCHI=InChI=1S/C7H14O/c1-3-5-7(8)6-4-2/h3-6H2,1-2H3
INCHIAUX=N/A
PUBMED=N/A
SUBMITUSER=mwang87
TAGS=
LIBRARYQUALITY=3
SPECTRUMID=CCMSLIB00000425704
SCANS=676
29.4 100.0 
41.31 47.077 
55.15 23.426 
END IONS

BEGIN IONS
PEPMASS=165.076
CHARGE=1+
MSLEVEL=2
SOURCE_INSTRUMENT=Positive-Quattro_QQQ:25eV
FILENAME=hmdb_intermediate.mgf
SEQ=*..*
IONMODE=Positive
ORGANISM=HMDB
NAME=HMDB:HMDB02712-2126 1,5-Anhydrosorbitol M+H
PI=HMDB
DATACOLLECTOR=HMDB
SMILES=OC[C@H]1OC[C@H](O)[C@@H](O)[C@@H]1O
INCHI=InChI=1S/C6H12O5/c7-1-4-6(10)5(9)3(8)2-11-4/h3-10H,1-2H2/t3-,4+,5+,6+/m0/s1
INCHIAUX=N/A
PUBMED=N/A
SUBMITUSER=mwang87
TAGS=
LIBRARYQUALITY=3
SPECTRUMID=CCMSLIB00000425705
SCANS=677
41.0 3.483 
45.0 3.41 
57.0 12.182 
69.0 100.0 
83.0 3.197 
89.0 4.424 
101.0 16.908 
END IONS

BEGIN IONS
PEPMASS=273.185
CHARGE=1+
MSLEVEL=2
SOURCE_INSTRUMENT=Positive-Quattro_QQQ:25eV
FILENAME=hmdb_intermediate.mgf
SEQ=*..*
IONMODE=Positive
ORGANISM=HMDB
NAME=HMDB:HMDB00151-231 Estradiol M+H
PI=HMDB
DATACOLLECTOR=HMDB
SMILES=[H][C@@]12CC[C@H](O)[C@@]1(C)CC[C@]1([H])C3=C(CC[C@@]21[H])C=C(O)C=C3
INCHI=InChI=1S/C18H24O2/c1-18-9-8-14-13-5-3-12(19)10-11(13)2-4-15(14)16(18)6-7-17(18)20/h3,5,10,14-17,19-20H,2,4,6-9H2,1H3/t14-,15-,16+,17+,18+/m1/s1
INCHIAUX=N/A
PUBMED=N/A
SUBMITUSER=mwang87
TAGS=
LIBRARYQUALITY=3
SPECTRUMID=CCMSLIB00000425706
SCANS=678
67.145 6.291 
81.08 9.74 
93.087 12.662 
95.063 7.792 
107.007 100.0 
120.959 5.925 
132.99 13.636 
135.005 25.812 
146.943 8.279 
158.952 21.104 
172.944 4.261 
184.946 2.963 
END IONS

BEGIN IONS
PEPMASS=164.057
CHARGE=1+
MSLEVEL=2
SOURCE_INSTRUMENT=Positive-Quattro_QQQ:10eV
FILENAME=hmdb_intermediate.mgf
SEQ=*..*
IONMODE=Positive
ORGANISM=HMDB
NAME=HMDB:HMDB00802-1141 Pterin M+H
PI=HMDB
DATACOLLECTOR=HMDB
SMILES=NC1=NC2=NC=CN=C2C(=O)N1
INCHI=InChI=1S/C6H5N5O/c7-6-10-4-3(5(12)11-6)8-1-2-9-4/h1-2H,(H3,7,9,10,11,12)
INCHIAUX=N/A
PUBMED=N/A
SUBMITUSER=mwang87
TAGS=
LIBRARYQUALITY=3
SPECTRUMID=CCMSLIB00000425707
SCANS=679
119.017 2.203 
146.954 5.648 
163.968 100.0 
END IONS

BEGIN IONS
PEPMASS=170.093
CHARGE=1+
MSLEVEL=2
SOURCE_INSTRUMENT=Positive-Quattro_QQQ:10eV
FILENAME=hmdb_intermediate.mgf
SEQ=*..*
IONMODE=Positive
ORGANISM=HMDB
NAME=HMDB:HMDB00001-1 1-Methylhistidine M+H
PI=HMDB
DATACOLLECTOR=HMDB
SMILES=CN1C=NC(C[C@H](N)C(O)=O)=C1
INCHI=InChI=1S/C7H11N3O2/c1-10-3-5(9-4-10)2-6(8)7(11)12/h3-4,6H,2,8H2,1H3,(H,11,12)/t6-/m0/s1
INCHIAUX=N/A
PUBMED=N/A
SUBMITUSER=mwang87
TAGS=
LIBRARYQUALITY=3
SPECTRUMID=CCMSLIB00000425708
SCANS=680
109.2 3.4069997949 
124.2 47.4945730526 
124.5 3.0943658252 
170.16 100.0 
END IONS

BEGIN IONS
PEPMASS=153.055
CHARGE=1+
MSLEVEL=2
SOURCE_INSTRUMENT=Positive-Quattro_QQQ:10eV
FILENAME=hmdb_intermediate.mgf
SEQ=*..*
IONMODE=Positive
ORGANISM=HMDB
NAME=HMDB:HMDB04815-2409 4-Hydroxy-3-methylbenzoic acid M+H
PI=HMDB
DATACOLLECTOR=HMDB
SMILES=CC1=CC(=CC=C1O)C(O)=O
INCHI=InChI=1S/C8H8O3/c1-5-4-6(8(10)11)2-3-7(5)9/h2-4,9H,1H3,(H,10,11)
INCHIAUX=N/A
PUBMED=N/A
SUBMITUSER=mwang87
TAGS=
LIBRARYQUALITY=3
SPECTRUMID=CCMSLIB00000425709
SCANS=681
81.0 6.835 
91.0 6.235 
109.0 100.0 
135.0 14.87 
153.0 58.598 
END IONS

BEGIN IONS
PEPMASS=75.0922
CHARGE=1+
MSLEVEL=2
SOURCE_INSTRUMENT=Positive-Quattro_QQQ:25eV
FILENAME=hmdb_intermediate.mgf
SEQ=*..*
IONMODE=Positive
ORGANISM=HMDB
NAME=HMDB:HMDB00002-5 1,3-Diaminopropane M+H
PI=HMDB
DATACOLLECTOR=HMDB
SMILES=NCCCN
INCHI=InChI=1S/C3H10N2/c4-2-1-3-5/h1-5H2
INCHIAUX=N/A
PUBMED=N/A
SUBMITUSER=mwang87
TAGS=
LIBRARYQUALITY=3
SPECTRUMID=CCMSLIB00000425710
SCANS=682
30.381 100.0 
41.312 29.514 
58.122 63.889 
74.885 45.833 
END IONS

BEGIN IONS
PEPMASS=118.062
CHARGE=1+
MSLEVEL=2
SOURCE_INSTRUMENT=Positive-Quattro_QQQ:25eV
FILENAME=hmdb_intermediate.mgf
SEQ=*..*
IONMODE=Positive
ORGANISM=HMDB
NAME=HMDB:HMDB00128-195 Guanidoacetic acid M+H
PI=HMDB
DATACOLLECTOR=HMDB
SMILES=NC(=N)NCC(O)=O
INCHI=InChI=1S/C3H7N3O2/c4-3(5)6-1-2(7)8/h1H2,(H,7,8)(H4,4,5,6)
INCHIAUX=N/A
PUBMED=N/A
SUBMITUSER=mwang87
TAGS=
LIBRARYQUALITY=3
SPECTRUMID=CCMSLIB00000425711
SCANS=683
43.322 100.0 
55.228 41.346 
72.163 91.026 
76.082 12.901 
117.893 28.526 
END IONS

BEGIN IONS
PEPMASS=147.045
CHARGE=1+
MSLEVEL=2
SOURCE_INSTRUMENT=Positive-Quattro_QQQ:25eV
FILENAME=hmdb_intermediate.mgf
SEQ=*..*
IONMODE=Positive
ORGANISM=HMDB
NAME=HMDB:HMDB01218-1470 Coumarin M+H
PI=HMDB
DATACOLLECTOR=HMDB
SMILES=O=C1OC2=CC=CC=C2C=C1
INCHI=InChI=1S/C9H6O2/c10-9-6-5-7-3-1-2-4-8(7)11-9/h1-6H
INCHIAUX=N/A
PUBMED=N/A
SUBMITUSER=mwang87
TAGS=
LIBRARYQUALITY=3
SPECTRUMID=CCMSLIB00000425712
SCANS=684
65.0 16.435 
77.0 30.429 
91.0 100.0 
103.0 22.158 
147.0 5.859 
END IONS

BEGIN IONS
PEPMASS=324.06
CHARGE=1+
MSLEVEL=2
SOURCE_INSTRUMENT=Positive-Quattro_QQQ:40eV
FILENAME=hmdb_intermediate.mgf
SEQ=*..*
IONMODE=Positive
ORGANISM=HMDB
NAME=HMDB:HMDB00095-149 Cytidine monophosphate M+H
PI=HMDB
DATACOLLECTOR=HMDB
SMILES=NC1=NC(=O)N(C=C1)[C@@H]1O[C@H](COP(O)(O)=O)[C@@H](O)[C@H]1O
INCHI=InChI=1S/C9H14N3O8P/c10-5-1-2-12(9(15)11-5)8-7(14)6(13)4(20-8)3-19-21(16,17)18/h1-2,4,6-8,13-14H,3H2,(H2,10,11,15)(H2,16,17,18)/t4-,6-,7-,8-/m1/s1
INCHIAUX=N/A
PUBMED=N/A
SUBMITUSER=mwang87
TAGS=
LIBRARYQUALITY=3
SPECTRUMID=CCMSLIB00000425713
SCANS=685
69.0 3.882 
94.0 4.085 
97.0 8.425 
112.0 100.0 
END IONS

BEGIN IONS
PEPMASS=122.097
CHARGE=1+
MSLEVEL=2
SOURCE_INSTRUMENT=Positive-Quattro_QQQ:25eV
FILENAME=hmdb_intermediate.mgf
SEQ=*..*
IONMODE=Positive
ORGANISM=HMDB
NAME=HMDB:HMDB01020-1391 N,N-Dimethylaniline M+H
PI=HMDB
DATACOLLECTOR=HMDB
SMILES=CN(C)C1=CC=CC=C1
INCHI=InChI=1S/C8H11N/c1-9(2)8-6-4-3-5-7-8/h3-7H,1-2H3
INCHIAUX=N/A
PUBMED=N/A
SUBMITUSER=mwang87
TAGS=
LIBRARYQUALITY=3
SPECTRUMID=CCMSLIB00000425714
SCANS=686
77.0 6.084 
106.0 100.0 
END IONS

BEGIN IONS
PEPMASS=281.248
CHARGE=1+
MSLEVEL=2
SOURCE_INSTRUMENT=Positive-Quattro_QQQ:25eV
FILENAME=hmdb_intermediate.mgf
SEQ=*..*
IONMODE=Positive
ORGANISM=HMDB
NAME=HMDB:HMDB00673-931 Linoleic acid M+H
PI=HMDB
DATACOLLECTOR=HMDB
SMILES=CCCCC\C=C/C\C=C/CCCCCCCC(O)=O
INCHI=InChI=1S/C18H32O2/c1-2-3-4-5-6-7-8-9-10-11-12-13-14-15-16-17-18(19)20/h6-7,9-10H,2-5,8,11-17H2,1H3,(H,19,20)/b7-6-,10-9-
INCHIAUX=N/A
PUBMED=N/A
SUBMITUSER=mwang87
TAGS=
LIBRARYQUALITY=3
SPECTRUMID=CCMSLIB00000425715
SCANS=687
124.0 78.292 
202.0 100.0 
END IONS

BEGIN IONS
PEPMASS=159.066
CHARGE=1+
MSLEVEL=2
SOURCE_INSTRUMENT=Positive-Quattro_QQQ:25eV
FILENAME=hmdb_intermediate.mgf
SEQ=*..*
IONMODE=Positive
ORGANISM=HMDB
NAME=HMDB:HMDB00635-868 Succinylacetone M+H
PI=HMDB
DATACOLLECTOR=HMDB
SMILES=CC(=O)CC(=O)CCC(O)=O
INCHI=InChI=1S/C7H10O4/c1-5(8)4-6(9)2-3-7(10)11/h2-4H2,1H3,(H,10,11)
INCHIAUX=N/A
PUBMED=N/A
SUBMITUSER=mwang87
TAGS=
LIBRARYQUALITY=3
SPECTRUMID=CCMSLIB00000425716
SCANS=688
43.2 58.105 
98.91 49.422 
140.76 42.765 
158.77 100.0 
END IONS

BEGIN IONS
PEPMASS=99.0446
CHARGE=1+
MSLEVEL=2
SOURCE_INSTRUMENT=Negative-Quattro_QQQ:10eV
FILENAME=hmdb_intermediate.mgf
SEQ=*..*
IONMODE=Negative
ORGANISM=HMDB
NAME=HMDB:HMDB00509-728 Senecioic acid M-H
PI=HMDB
DATACOLLECTOR=HMDB
SMILES=CC(C)=CC(O)=O
INCHI=InChI=1S/C5H8O2/c1-4(2)3-5(6)7/h3H,1-2H3,(H,6,7)
INCHIAUX=N/A
PUBMED=N/A
SUBMITUSER=mwang87
TAGS=
LIBRARYQUALITY=3
SPECTRUMID=CCMSLIB00000425717
SCANS=689
55.547 100.0 
99.274 79.032 
END IONS

BEGIN IONS
PEPMASS=283.264
CHARGE=1+
MSLEVEL=2
SOURCE_INSTRUMENT=Positive-Quattro_QQQ:25eV
FILENAME=hmdb_intermediate.mgf
SEQ=*..*
IONMODE=Positive
ORGANISM=HMDB
NAME=HMDB:HMDB03231-2216 Vaccenic acid M+H
PI=HMDB
DATACOLLECTOR=HMDB
SMILES=CCCCCC\C=C/CCCCCCCCCC(O)=O
INCHI=InChI=1S/C18H34O2/c1-2-3-4-5-6-7-8-9-10-11-12-13-14-15-16-17-18(19)20/h7-8H,2-6,9-17H2,1H3,(H,19,20)/b8-7-
INCHIAUX=N/A
PUBMED=N/A
SUBMITUSER=mwang87
TAGS=
LIBRARYQUALITY=3
SPECTRUMID=CCMSLIB00000425718
SCANS=690
54.0 75.016 
55.0 76.587 
82.0 89.868 
94.0 64.245 
95.0 58.97 
119.0 67.891 
146.0 57.242 
170.0 61.814 
226.0 56.142 
240.0 52.19 
283.0 100.0 
END IONS

BEGIN IONS
PEPMASS=193.05
CHARGE=1+
MSLEVEL=2
SOURCE_INSTRUMENT=Negative-Quattro_QQQ:25eV
FILENAME=hmdb_intermediate.mgf
SEQ=*..*
IONMODE=Negative
ORGANISM=HMDB
NAME=HMDB:HMDB00955-1352 Isoferulic acid M-H
PI=HMDB
DATACOLLECTOR=HMDB
SMILES=COC1=C(O)C=C(\C=C\C(O)=O)C=C1
INCHI=InChI=1S/C10H10O4/c1-14-9-4-2-7(6-8(9)11)3-5-10(12)13/h2-6,11H,1H3,(H,12,13)/b5-3+
INCHIAUX=N/A
PUBMED=N/A
SUBMITUSER=mwang87
TAGS=
LIBRARYQUALITY=3
SPECTRUMID=CCMSLIB00000425719
SCANS=691
106.241 9.375 
134.019 100.0 
134.589 3.284 
178.021 14.158 
END IONS

BEGIN IONS
PEPMASS=142.027
CHARGE=1+
MSLEVEL=2
SOURCE_INSTRUMENT=Positive-Quattro_QQQ:25eV
FILENAME=hmdb_intermediate.mgf
SEQ=*..*
IONMODE=Positive
ORGANISM=HMDB
NAME=HMDB:HMDB60152-371 O-Phosphoethanolamine M+H
PI=HMDB
DATACOLLECTOR=HMDB
SMILES=NCCOP(O)(O)=O
INCHI=InChI=1S/C2H8NO4P/c3-1-2-7-8(4,5)6/h1-3H2,(H2,4,5,6)
INCHIAUX=N/A
PUBMED=N/A
SUBMITUSER=mwang87
TAGS=
LIBRARYQUALITY=3
SPECTRUMID=CCMSLIB00000425720
SCANS=692
44.621 100.0 
END IONS

BEGIN IONS
PEPMASS=94.0657
CHARGE=1+
MSLEVEL=2
SOURCE_INSTRUMENT=Positive-Quattro_QQQ:40eV
FILENAME=hmdb_intermediate.mgf
SEQ=*..*
IONMODE=Positive
ORGANISM=HMDB
NAME=HMDB:HMDB03012-2184 Aniline M+H
PI=HMDB
DATACOLLECTOR=HMDB
SMILES=NC1=CC=CC=C1
INCHI=InChI=1S/C6H7N/c7-6-4-2-1-3-5-6/h1-5H,7H2
INCHIAUX=N/A
PUBMED=N/A
SUBMITUSER=mwang87
TAGS=
LIBRARYQUALITY=3
SPECTRUMID=CCMSLIB00000425721
SCANS=693
51.0 100.0 
77.0 27.499 
94.0 3.675 
END IONS

BEGIN IONS
PEPMASS=173.154
CHARGE=1+
MSLEVEL=2
SOURCE_INSTRUMENT=Positive-Quattro_QQQ:25eV
FILENAME=hmdb_intermediate.mgf
SEQ=*..*
IONMODE=Positive
ORGANISM=HMDB
NAME=HMDB:HMDB00511-735 Capric acid M+H
PI=HMDB
DATACOLLECTOR=HMDB
SMILES=CCCCCCCCCC(O)=O
INCHI=InChI=1S/C10H20O2/c1-2-3-4-5-6-7-8-9-10(11)12/h2-9H2,1H3,(H,11,12)
INCHIAUX=N/A
PUBMED=N/A
SUBMITUSER=mwang87
TAGS=
LIBRARYQUALITY=3
SPECTRUMID=CCMSLIB00000425722
SCANS=694
84.06 5.4463304759 
89.1 3.8466234238 
97.08 4.6770055933 
110.04 9.439491916 
124.08 17.2548539969 
125.1 100.0 
171.18 32.8123090517 
END IONS

BEGIN IONS
PEPMASS=132.102
CHARGE=1+
MSLEVEL=2
SOURCE_INSTRUMENT=Positive-Quattro_QQQ:25eV
FILENAME=hmdb_intermediate.mgf
SEQ=*..*
IONMODE=Positive
ORGANISM=HMDB
NAME=HMDB:HMDB01645-1670 L-Norleucine M+H
PI=HMDB
DATACOLLECTOR=HMDB
SMILES=CCCC[C@H](N)C(O)=O
INCHI=InChI=1S/C6H13NO2/c1-2-3-4-5(7)6(8)9/h5H,2-4,7H2,1H3,(H,8,9)/t5-/m0/s1
INCHIAUX=N/A
PUBMED=N/A
SUBMITUSER=mwang87
TAGS=
LIBRARYQUALITY=3
SPECTRUMID=CCMSLIB00000425723
SCANS=695
41.313 38.478 
55.188 5.163 
69.119 53.043 
86.048 100.0 
END IONS

BEGIN IONS
PEPMASS=245.234
CHARGE=1+
MSLEVEL=2
SOURCE_INSTRUMENT=Positive-Quattro_QQQ:25eV
FILENAME=hmdb_intermediate.mgf
SEQ=*..*
IONMODE=Positive
ORGANISM=HMDB
NAME=HMDB:HMDB01186-1455 N1-Acetylspermine M+H
PI=HMDB
DATACOLLECTOR=HMDB
SMILES=CC(=O)NCCCNCCCCNCCCN
INCHI=InChI=1S/C12H28N4O/c1-12(17)16-11-5-10-15-8-3-2-7-14-9-4-6-13/h14-15H,2-11,13H2,1H3,(H,16,17)
INCHIAUX=N/A
PUBMED=N/A
SUBMITUSER=mwang87
TAGS=
LIBRARYQUALITY=3
SPECTRUMID=CCMSLIB00000425724
SCANS=696
57.0 13.122 
71.0 27.22 
83.0 31.42 
99.0 100.0 
111.0 81.891 
128.0 7.247 
END IONS

BEGIN IONS
PEPMASS=162.972
CHARGE=1+
MSLEVEL=2
SOURCE_INSTRUMENT=Positive-Quattro_QQQ:25eV
FILENAME=hmdb_intermediate.mgf
SEQ=*..*
IONMODE=Positive
ORGANISM=HMDB
NAME=HMDB:HMDB04811-2401 2,4-Dichlorophenol M+H
PI=HMDB
DATACOLLECTOR=HMDB
SMILES=OC1=CC=C(Cl)C=C1Cl
INCHI=InChI=1S/C6H4Cl2O/c7-4-1-2-6(9)5(8)3-4/h1-3,9H
INCHIAUX=N/A
PUBMED=N/A
SUBMITUSER=mwang87
TAGS=
LIBRARYQUALITY=3
SPECTRUMID=CCMSLIB00000425725
SCANS=697
62.0 6.839 
77.0 100.0 
104.0 26.098 
105.0 67.02 
END IONS

BEGIN IONS
PEPMASS=343.124
CHARGE=1+
MSLEVEL=2
SOURCE_INSTRUMENT=Positive-Quattro_QQQ:25eV
FILENAME=hmdb_intermediate.mgf
SEQ=*..*
IONMODE=Positive
ORGANISM=HMDB
NAME=HMDB:HMDB02923-2164 Isomaltose M+H
PI=HMDB
DATACOLLECTOR=HMDB
SMILES=OC[C@H]1O[C@H](OC[C@H]2OC(O)[C@H](O)[C@@H](O)[C@@H]2O)[C@H](O)[C@@H](O)[C@@H]1O
INCHI=InChI=1S/C12H22O11/c13-1-3-5(14)8(17)10(19)12(23-3)21-2-4-6(15)7(16)9(18)11(20)22-4/h3-20H,1-2H2/t3-,4-,5-,6-,7+,8+,9-,10-,11?,12+/m1/s1
INCHIAUX=N/A
PUBMED=N/A
SUBMITUSER=mwang87
TAGS=
LIBRARYQUALITY=3
SPECTRUMID=CCMSLIB00000425726
SCANS=698
85.0 100.0 
97.0 23.988 
109.0 25.813 
127.0 26.133 
145.0 21.211 
163.0 20.526 
343.0 30.746 
END IONS

BEGIN IONS
PEPMASS=229.082
CHARGE=1+
MSLEVEL=2
SOURCE_INSTRUMENT=Positive-Quattro_QQQ:25eV
FILENAME=hmdb_intermediate.mgf
SEQ=*..*
IONMODE=Positive
ORGANISM=HMDB
NAME=HMDB:HMDB00012-20 Deoxyuridine M+H
PI=HMDB
DATACOLLECTOR=HMDB
SMILES=OC[C@H]1O[C@H](C[C@@H]1O)N1C=CC(=O)NC1=O
INCHI=InChI=1S/C9H12N2O5/c12-4-6-5(13)3-8(16-6)11-2-1-7(14)10-9(11)15/h1-2,5-6,8,12-13H,3-4H2,(H,10,14,15)/t5-,6+,8+/m0/s1
INCHIAUX=N/A
PUBMED=N/A
SUBMITUSER=mwang87
TAGS=
LIBRARYQUALITY=3
SPECTRUMID=CCMSLIB00000425727
SCANS=699
43.356 16.5 
45.323 10.3 
73.123 23.5 
81.109 11.8 
99.065 17.3 
113.009 100.0 
117.03 14.9 
END IONS

BEGIN IONS
PEPMASS=425.436
CHARGE=1+
MSLEVEL=2
SOURCE_INSTRUMENT=Positive-Quattro_QQQ:40eV
FILENAME=hmdb_intermediate.mgf
SEQ=*..*
IONMODE=Positive
ORGANISM=HMDB
NAME=HMDB:HMDB02348-2072 Octacosanoic acid M+H
PI=HMDB
DATACOLLECTOR=HMDB
SMILES=CCCCCCCCCCCCCCCCCCCCCCCCCCCC(O)=O
INCHI=InChI=1S/C28H56O2/c1-2-3-4-5-6-7-8-9-10-11-12-13-14-15-16-17-18-19-20-21-22-23-24-25-26-27-28(29)30/h2-27H2,1H3,(H,29,30)
INCHIAUX=N/A
PUBMED=N/A
SUBMITUSER=mwang87
TAGS=
LIBRARYQUALITY=3
SPECTRUMID=CCMSLIB00000425728
SCANS=700
23.0 49.526 
57.0 61.677 
71.0 56.099 
85.0 57.16 
117.0 61.78 
130.0 55.046 
147.0 100.0 
END IONS

BEGIN IONS
PEPMASS=275.092
CHARGE=1+
MSLEVEL=2
SOURCE_INSTRUMENT=Positive-Quattro_QQQ:25eV
FILENAME=hmdb_intermediate.mgf
SEQ=*..*
IONMODE=Positive
ORGANISM=HMDB
NAME=HMDB:HMDB03306-2234 Phloretin M+H
PI=HMDB
DATACOLLECTOR=HMDB
SMILES=OC1=CC=C(CCC(=O)C2=C(O)C=C(O)C=C2O)C=C1
INCHI=InChI=1S/C15H14O5/c16-10-4-1-9(2-5-10)3-6-12(18)15-13(19)7-11(17)8-14(15)20/h1-2,4-5,7-8,16-17,19-20H,3,6H2
INCHIAUX=N/A
PUBMED=N/A
SUBMITUSER=mwang87
TAGS=
LIBRARYQUALITY=3
SPECTRUMID=CCMSLIB00000425729
SCANS=701
62.0 30.381 
90.0 34.334 
104.0 10.561 
114.0 15.225 
128.0 7.084 
141.0 8.404 
152.0 56.967 
155.0 19.216 
166.0 100.0 
182.0 8.599 
END IONS

BEGIN IONS
PEPMASS=201.185
CHARGE=1+
MSLEVEL=2
SOURCE_INSTRUMENT=Positive-Quattro_QQQ:10eV
FILENAME=hmdb_intermediate.mgf
SEQ=*..*
IONMODE=Positive
ORGANISM=HMDB
NAME=HMDB:HMDB00638-870 Dodecanoic acid M+H
PI=HMDB
DATACOLLECTOR=HMDB
SMILES=CCCCCCCCCCCC(O)=O
INCHI=InChI=1S/C12H24O2/c1-2-3-4-5-6-7-8-9-10-11-12(13)14/h2-11H2,1H3,(H,13,14)
INCHIAUX=N/A
PUBMED=N/A
SUBMITUSER=mwang87
TAGS=
LIBRARYQUALITY=3
SPECTRUMID=CCMSLIB00000425730
SCANS=702
57.0 9.61 
71.0 8.248 
89.0 8.019 
156.0 8.268 
170.0 8.401 
184.0 16.004 
202.0 100.0 
END IONS

BEGIN IONS
PEPMASS=623.577
CHARGE=1+
MSLEVEL=2
SOURCE_INSTRUMENT=Positive-Quattro_QQQ:40eV
FILENAME=hmdb_intermediate.mgf
SEQ=*..*
IONMODE=Positive
ORGANISM=HMDB
NAME=HMDB:HMDB00658-899 CE(16:1(9Z)) M+H
PI=HMDB
DATACOLLECTOR=HMDB
SMILES=CCCCCC\C=C/CCCCCCCC(=O)OC1CC[C@@]2(C)C(=CCC3C4CC[C@H]([C@H](C)CCCC(C)C)[C@@]4(C)CCC23)C1
INCHI=InChI=1S/C43H74O2/c1-7-8-9-10-11-12-13-14-15-16-17-18-19-23-41(44)45-36-28-30-42(5)35(32-36)24-25-37-39-27-26-38(34(4)22-20-21-33(2)3)43(39,6)31-29-40(37)42/h12-13,24,33-34,36-40H,7-11,14-23,25-32H2,1-6H3/b13-12-/t34-,36?,37?,38-,39?,40?,42+,43-/m1/s1
INCHIAUX=N/A
PUBMED=N/A
SUBMITUSER=mwang87
TAGS=
LIBRARYQUALITY=3
SPECTRUMID=CCMSLIB00000425731
SCANS=703
81.0 95.2 
105.0 100.0 
205.0 80.665 
END IONS

BEGIN IONS
PEPMASS=115.112
CHARGE=1+
MSLEVEL=2
SOURCE_INSTRUMENT=Positive-Quattro_QQQ:40eV
FILENAME=hmdb_intermediate.mgf
SEQ=*..*
IONMODE=Positive
ORGANISM=HMDB
NAME=HMDB:HMDB03671-2342 2-Heptanone M+H
PI=HMDB
DATACOLLECTOR=HMDB
SMILES=CCCCCC(C)=O
INCHI=InChI=1S/C7H14O/c1-3-4-5-6-7(2)8/h3-6H2,1-2H3
INCHIAUX=N/A
PUBMED=N/A
SUBMITUSER=mwang87
TAGS=
LIBRARYQUALITY=3
SPECTRUMID=CCMSLIB00000425732
SCANS=704
29.33 19.714 
53.37 20.082 
65.9 24.09 
91.81 100.0 
END IONS

BEGIN IONS
PEPMASS=107.05
CHARGE=1+
MSLEVEL=2
SOURCE_INSTRUMENT=Positive-Quattro_QQQ:25eV
FILENAME=hmdb_intermediate.mgf
SEQ=*..*
IONMODE=Positive
ORGANISM=HMDB
NAME=HMDB:HMDB06115-2473 Benzaldehyde M+H
PI=HMDB
DATACOLLECTOR=HMDB
SMILES=O=CC1=CC=CC=C1
INCHI=InChI=1S/C7H6O/c8-6-7-4-2-1-3-5-7/h1-6H
INCHIAUX=N/A
PUBMED=N/A
SUBMITUSER=mwang87
TAGS=
LIBRARYQUALITY=3
SPECTRUMID=CCMSLIB00000425733
SCANS=705
45.0 9.543 
65.0 6.71 
77.0 100.0 
89.0 13.578 
107.0 32.91 
END IONS

BEGIN IONS
PEPMASS=141.092
CHARGE=1+
MSLEVEL=2
SOURCE_INSTRUMENT=Negative-Quattro_QQQ:25eV
FILENAME=hmdb_intermediate.mgf
SEQ=*..*
IONMODE=Negative
ORGANISM=HMDB
NAME=HMDB:HMDB01568-1655 trans-2-Octenoic acid M-H
PI=HMDB
DATACOLLECTOR=HMDB
SMILES=CCCCC\C=C\C(O)=O
INCHI=InChI=1S/C8H14O2/c1-2-3-4-5-6-7-8(9)10/h6-7H,2-5H2,1H3,(H,9,10)/b7-6+
INCHIAUX=N/A
PUBMED=N/A
SUBMITUSER=mwang87
TAGS=
LIBRARYQUALITY=3
SPECTRUMID=CCMSLIB00000425734
SCANS=706
41.303 5.167 
84.095 14.833 
97.028 33.667 
141.135 100.0 
END IONS

BEGIN IONS
PEPMASS=131.13
CHARGE=1+
MSLEVEL=2
SOURCE_INSTRUMENT=Positive-Quattro_QQQ:10eV
FILENAME=hmdb_intermediate.mgf
SEQ=*..*
IONMODE=Positive
ORGANISM=HMDB
NAME=HMDB:HMDB60259-1577 Agmatine M+H
PI=HMDB
DATACOLLECTOR=HMDB
SMILES=NCCCCNC(N)=N
INCHI=InChI=1S/C5H14N4/c6-3-1-2-4-9-5(7)8/h1-4,6H2,(H4,7,8,9)
INCHIAUX=N/A
PUBMED=N/A
SUBMITUSER=mwang87
TAGS=
LIBRARYQUALITY=3
SPECTRUMID=CCMSLIB00000425735
SCANS=707
72.0 100.0 
97.0 2.985 
114.0 32.269 
131.0 55.346 
END IONS

BEGIN IONS
PEPMASS=483.992
CHARGE=1+
MSLEVEL=2
SOURCE_INSTRUMENT=Positive-Quattro_QQQ:25eV
FILENAME=hmdb_intermediate.mgf
SEQ=*..*
IONMODE=Positive
ORGANISM=HMDB
NAME=HMDB:HMDB00082-133 Cytidine triphosphate M+H
PI=HMDB
DATACOLLECTOR=HMDB
SMILES=NC1=NC(=O)N(C=C1)[C@@H]1O[C@H](COP(O)(=O)OP(O)(=O)OP(O)(O)=O)[C@@H](O)[C@H]1O
INCHI=InChI=1S/C9H16N3O14P3/c10-5-1-2-12(9(15)11-5)8-7(14)6(13)4(24-8)3-23-28(19,20)26-29(21,22)25-27(16,17)18/h1-2,4,6-8,13-14H,3H2,(H,19,20)(H,21,22)(H2,10,11,15)(H2,16,17,18)/t4-,6-,7-,8-/m1/s1
INCHIAUX=N/A
PUBMED=N/A
SUBMITUSER=mwang87
TAGS=
LIBRARYQUALITY=3
SPECTRUMID=CCMSLIB00000425736
SCANS=708
112.525 34.258 
359.781 100.0 
449.064 24.729 
END IONS

BEGIN IONS
PEPMASS=289.217
CHARGE=1+
MSLEVEL=2
SOURCE_INSTRUMENT=Positive-Quattro_QQQ:25eV
FILENAME=hmdb_intermediate.mgf
SEQ=*..*
IONMODE=Positive
ORGANISM=HMDB
NAME=HMDB:HMDB00899-1275 Androstanedione M+H
PI=HMDB
DATACOLLECTOR=HMDB
SMILES=[H][C@@]12CCC(=O)[C@@]1(C)CC[C@@]1([H])[C@@]2([H])CC[C@@]2([H])CC(=O)CC[C@]12C
INCHI=InChI=1S/C19H28O2/c1-18-9-7-13(20)11-12(18)3-4-14-15-5-6-17(21)19(15,2)10-8-16(14)18/h12,14-16H,3-11H2,1-2H3/t12-,14-,15-,16-,18-,19-/m0/s1
INCHIAUX=N/A
PUBMED=N/A
SUBMITUSER=mwang87
TAGS=
LIBRARYQUALITY=3
SPECTRUMID=CCMSLIB00000425737
SCANS=709
71.132 24.345 
81.116 97.38 
93.1 54.585 
97.066 100.0 
107.059 48.908 
119.051 44.978 
133.026 36.681 
142.981 26.201 
145.011 56.332 
161.017 57.642 
171.035 72.489 
174.962 24.782 
184.973 20.197 
197.029 37.991 
213.037 85.153 
253.092 37.555 
271.101 17.358 
END IONS

BEGIN IONS
PEPMASS=89.1079
CHARGE=1+
MSLEVEL=2
SOURCE_INSTRUMENT=Positive-Quattro_QQQ:10eV
FILENAME=hmdb_intermediate.mgf
SEQ=*..*
IONMODE=Positive
ORGANISM=HMDB
NAME=HMDB:HMDB01414-1568 Putrescine M+H
PI=HMDB
DATACOLLECTOR=HMDB
SMILES=NCCCCN
INCHI=InChI=1S/C4H12N2/c5-3-1-2-4-6/h1-6H2
INCHIAUX=N/A
PUBMED=N/A
SUBMITUSER=mwang87
TAGS=
LIBRARYQUALITY=3
SPECTRUMID=CCMSLIB00000425738
SCANS=710
72.141 100.0 
89.1 4.985 
END IONS

BEGIN IONS
PEPMASS=151.112
CHARGE=1+
MSLEVEL=2
SOURCE_INSTRUMENT=Positive-Quattro_QQQ:40eV
FILENAME=hmdb_intermediate.mgf
SEQ=*..*
IONMODE=Positive
ORGANISM=HMDB
NAME=HMDB:HMDB04487-2396 (+)-(S)-Carvone M+H
PI=HMDB
DATACOLLECTOR=HMDB
SMILES=CC(=C)[C@H]1CC=C(C)C(=O)C1
INCHI=InChI=1S/C10H14O/c1-7(2)9-5-4-8(3)10(11)6-9/h4,9H,1,5-6H2,2-3H3/t9-/m0/s1
INCHIAUX=N/A
PUBMED=N/A
SUBMITUSER=mwang87
TAGS=
LIBRARYQUALITY=3
SPECTRUMID=CCMSLIB00000425739
SCANS=711
81.0 29.399 
94.0 100.0 
95.0 41.354 
109.0 55.397 
123.0 12.171 
151.0 29.246 
END IONS

BEGIN IONS
PEPMASS=190.087
CHARGE=1+
MSLEVEL=2
SOURCE_INSTRUMENT=Positive-Quattro_QQQ:40eV
FILENAME=hmdb_intermediate.mgf
SEQ=*..*
IONMODE=Positive
ORGANISM=HMDB
NAME=HMDB:HMDB02302-2051 3-Indolepropionic acid M+H
PI=HMDB
DATACOLLECTOR=HMDB
SMILES=OC(=O)CCC1=CNC2=CC=CC=C12
INCHI=InChI=1S/C11H11NO2/c13-11(14)6-5-8-7-12-10-4-2-1-3-9(8)10/h1-4,7,12H,5-6H2,(H,13,14)
INCHIAUX=N/A
PUBMED=N/A
SUBMITUSER=mwang87
TAGS=
LIBRARYQUALITY=3
SPECTRUMID=CCMSLIB00000425740
SCANS=712
55.06 12.686 
76.97 100.0 
102.9 21.87 
129.87 97.258 
END IONS

BEGIN IONS
PEPMASS=397.347
CHARGE=1+
MSLEVEL=2
SOURCE_INSTRUMENT=Positive-Quattro_QQQ:10eV
FILENAME=hmdb_intermediate.mgf
SEQ=*..*
IONMODE=Positive
ORGANISM=HMDB
NAME=HMDB:HMDB00878-1238 Ergosterol M+H
PI=HMDB
DATACOLLECTOR=HMDB
SMILES=CC(C)[C@@H](C)\C=C\[C@@H](C)C1CCC2C3=CC=C4C[C@@H](O)CC[C@]4(C)C3CC[C@]12C
INCHI=InChI=1S/C28H44O/c1-18(2)19(3)7-8-20(4)24-11-12-25-23-10-9-21-17-22(29)13-15-27(21,5)26(23)14-16-28(24,25)6/h7-10,18-20,22,24-26,29H,11-17H2,1-6H3/b8-7+/t19-,20+,22-,24?,25?,26?,27-,28+/m0/s1
INCHIAUX=N/A
PUBMED=N/A
SUBMITUSER=mwang87
TAGS=
LIBRARYQUALITY=3
SPECTRUMID=CCMSLIB00000425741
SCANS=713
244.862 2.249 
337.024 2.09 
361.271 2.866 
365.591 3.344 
379.253 16.879 
397.01 100.0 
END IONS

BEGIN IONS
PEPMASS=442.147
CHARGE=1+
MSLEVEL=2
SOURCE_INSTRUMENT=Positive-Quattro_QQQ:10eV
FILENAME=hmdb_intermediate.mgf
SEQ=*..*
IONMODE=Positive
ORGANISM=HMDB
NAME=HMDB:HMDB00121-174 Folic acid M+H
PI=HMDB
DATACOLLECTOR=HMDB
SMILES=NC1=NC(=O)C2=NC(CNC3=CC=C(C=C3)C(=O)N[C@@H](CCC(O)=O)C(O)=O)=CN=C2N1
INCHI=InChI=1S/C19H19N7O6/c20-19-25-15-14(17(30)26-19)23-11(8-22-15)7-21-10-3-1-9(2-4-10)16(29)24-12(18(31)32)5-6-13(27)28/h1-4,8,12,21H,5-7H2,(H,24,29)(H,27,28)(H,31,32)(H3,20,22,25,26,30)/t12-/m0/s1
INCHIAUX=N/A
PUBMED=N/A
SUBMITUSER=mwang87
TAGS=
LIBRARYQUALITY=3
SPECTRUMID=CCMSLIB00000425742
SCANS=714
294.81 6.83 
441.91 100.0 
END IONS

BEGIN IONS
PEPMASS=355.358
CHARGE=1+
MSLEVEL=2
SOURCE_INSTRUMENT=Positive-Quattro_QQQ:40eV
FILENAME=hmdb_intermediate.mgf
SEQ=*..*
IONMODE=Positive
ORGANISM=HMDB
NAME=HMDB:HMDB01160-1441 Tricosanoic acid M+H
PI=HMDB
DATACOLLECTOR=HMDB
SMILES=CCCCCCCCCCCCCCCCCCCCCCC(O)=O
INCHI=InChI=1S/C23H46O2/c1-2-3-4-5-6-7-8-9-10-11-12-13-14-15-16-17-18-19-20-21-22-23(24)25/h2-22H2,1H3,(H,24,25)
INCHIAUX=N/A
PUBMED=N/A
SUBMITUSER=mwang87
TAGS=
LIBRARYQUALITY=3
SPECTRUMID=CCMSLIB00000425743
SCANS=715
72.48 88.794 
84.11 77.962 
90.04 100.0 
112.98 62.409 
119.63 68.009 
130.5 66.68 
142.83 71.755 
147.88 66.801 
182.22 69.358 
186.38 79.324 
206.15 68.169 
242.7 83.664 
253.13 80.964 
265.58 82.307 
END IONS

BEGIN IONS
PEPMASS=260.054
CHARGE=1+
MSLEVEL=2
SOURCE_INSTRUMENT=Positive-Quattro_QQQ:40eV
FILENAME=hmdb_intermediate.mgf
SEQ=*..*
IONMODE=Positive
ORGANISM=HMDB
NAME=HMDB:HMDB01254-1486 Glucosamine 6-phosphate M+H
PI=HMDB
DATACOLLECTOR=HMDB
SMILES=N[C@H]1[C@@H](O)O[C@H](COP(O)(O)=O)[C@@H](O)[C@@H]1O
INCHI=InChI=1S/C6H14NO8P/c7-3-5(9)4(8)2(15-6(3)10)1-14-16(11,12)13/h2-6,8-10H,1,7H2,(H2,11,12,13)/t2-,3-,4-,5-,6+/m1/s1
INCHIAUX=N/A
PUBMED=N/A
SUBMITUSER=mwang87
TAGS=
LIBRARYQUALITY=3
SPECTRUMID=CCMSLIB00000425744
SCANS=716
70.0 48.009 
80.0 100.0 
85.0 16.229 
99.0 53.461 
108.0 27.509 
126.0 18.585 
END IONS

BEGIN IONS
PEPMASS=73.029
CHARGE=1+
MSLEVEL=2
SOURCE_INSTRUMENT=Positive-Quattro_QQQ:25eV
FILENAME=hmdb_intermediate.mgf
SEQ=*..*
IONMODE=Positive
ORGANISM=HMDB
NAME=HMDB:HMDB01167-1443 Pyruvaldehyde M+H
PI=HMDB
DATACOLLECTOR=HMDB
SMILES=CC(=O)C=O
INCHI=InChI=1S/C3H4O2/c1-3(5)2-4/h2H,1H3
INCHIAUX=N/A
PUBMED=N/A
SUBMITUSER=mwang87
TAGS=
LIBRARYQUALITY=3
SPECTRUMID=CCMSLIB00000425745
SCANS=717
43.0 70.842 
45.0 100.0 
55.0 20.522 
73.0 57.254 
END IONS

BEGIN IONS
PEPMASS=173.06
CHARGE=1+
MSLEVEL=2
SOURCE_INSTRUMENT=Positive-Quattro_QQQ:40eV
FILENAME=hmdb_intermediate.mgf
SEQ=*..*
IONMODE=Positive
ORGANISM=HMDB
NAME=HMDB:HMDB01892-1803 Menadione M+H
PI=HMDB
DATACOLLECTOR=HMDB
SMILES=CC1=CC(=O)C2=CC=CC=C2C1=O
INCHI=InChI=1S/C11H8O2/c1-7-6-10(12)8-4-2-3-5-9(8)11(7)13/h2-6H,1H3
INCHIAUX=N/A
PUBMED=N/A
SUBMITUSER=mwang87
TAGS=
LIBRARYQUALITY=3
SPECTRUMID=CCMSLIB00000425746
SCANS=718
51.621 15.612 
65.297 17.66 
77.343 100.0 
91.396 21.922 
105.324 16.321 
114.736 16.568 
END IONS

BEGIN IONS
PEPMASS=91.0759
CHARGE=1+
MSLEVEL=2
SOURCE_INSTRUMENT=Positive-Quattro_QQQ:10eV
FILENAME=hmdb_intermediate.mgf
SEQ=*..*
IONMODE=Positive
ORGANISM=HMDB
NAME=HMDB:HMDB03156-2203 2,3-Butanediol M+H
PI=HMDB
DATACOLLECTOR=HMDB
SMILES=CC(O)C(C)O
INCHI=InChI=1S/C4H10O2/c1-3(5)4(2)6/h3-6H,1-2H3
INCHIAUX=N/A
PUBMED=N/A
SUBMITUSER=mwang87
TAGS=
LIBRARYQUALITY=3
SPECTRUMID=CCMSLIB00000425747
SCANS=719
64.0 5.356 
90.0 100.0 
END IONS

BEGIN IONS
PEPMASS=158.082
CHARGE=1+
MSLEVEL=2
SOURCE_INSTRUMENT=Positive-Quattro_QQQ:25eV
FILENAME=hmdb_intermediate.mgf
SEQ=*..*
IONMODE=Positive
ORGANISM=HMDB
NAME=HMDB:HMDB00959-1364 Tiglylglycine M+H
PI=HMDB
DATACOLLECTOR=HMDB
SMILES=C\C=C(/C)C(=O)NCC(O)=O
INCHI=InChI=1S/C7H11NO3/c1-3-5(2)7(11)8-4-6(9)10/h3H,4H2,1-2H3,(H,8,11)(H,9,10)/b5-3+
INCHIAUX=N/A
PUBMED=N/A
SUBMITUSER=mwang87
TAGS=
LIBRARYQUALITY=3
SPECTRUMID=CCMSLIB00000425748
SCANS=720
54.0 11.303 
63.0 22.469 
79.0 100.0 
END IONS

BEGIN IONS
PEPMASS=103.04
CHARGE=1+
MSLEVEL=2
SOURCE_INSTRUMENT=Positive-Quattro_QQQ:10eV
FILENAME=hmdb_intermediate.mgf
SEQ=*..*
IONMODE=Positive
ORGANISM=HMDB
NAME=HMDB:HMDB01259-1493 Succinic acid semialdehyde M+H
PI=HMDB
DATACOLLECTOR=HMDB
SMILES=OC(=O)CCC=O
INCHI=InChI=1S/C4H6O3/c5-3-1-2-4(6)7/h3H,1-2H2,(H,6,7)
INCHIAUX=N/A
PUBMED=N/A
SUBMITUSER=mwang87
TAGS=
LIBRARYQUALITY=3
SPECTRUMID=CCMSLIB00000425749
SCANS=721
71.0 22.195 
85.0 100.0 
103.0 12.809 
END IONS

BEGIN IONS
PEPMASS=99.0446
CHARGE=1+
MSLEVEL=2
SOURCE_INSTRUMENT=Negative-Quattro_QQQ:10eV
FILENAME=hmdb_intermediate.mgf
SEQ=*..*
IONMODE=Negative
ORGANISM=HMDB
NAME=HMDB:HMDB01470-1592 Tiglic acid M-H
PI=HMDB
DATACOLLECTOR=HMDB
SMILES=C\C=C(/C)C(O)=O
INCHI=InChI=1S/C5H8O2/c1-3-4(2)5(6)7/h3H,1-2H3,(H,6,7)/b4-3+
INCHIAUX=N/A
PUBMED=N/A
SUBMITUSER=mwang87
TAGS=
LIBRARYQUALITY=3
SPECTRUMID=CCMSLIB00000425750
SCANS=722
55.563 100.0 
99.29 90.09 
END IONS

BEGIN IONS
PEPMASS=289.18
CHARGE=1+
MSLEVEL=2
SOURCE_INSTRUMENT=Positive-Quattro_QQQ:10eV
FILENAME=hmdb_intermediate.mgf
SEQ=*..*
IONMODE=Positive
ORGANISM=HMDB
NAME=HMDB:HMDB00153-236 Estriol M+H
PI=HMDB
DATACOLLECTOR=HMDB
SMILES=[H][C@@]12C[C@@H](O)[C@H](O)[C@@]1(C)CC[C@]1([H])C3=C(CC[C@@]21[H])C=C(O)C=C3
INCHI=InChI=1S/C18H24O3/c1-18-7-6-13-12-5-3-11(19)8-10(12)2-4-14(13)15(18)9-16(20)17(18)21/h3,5,8,13-17,19-21H,2,4,6-7,9H2,1H3/t13-,14-,15+,16-,17+,18+/m1/s1
INCHIAUX=N/A
PUBMED=N/A
SUBMITUSER=mwang87
TAGS=
LIBRARYQUALITY=3
SPECTRUMID=CCMSLIB00000425751
SCANS=723
55.481 6.481 
67.39 10.417 
77.329 23.148 
91.268 15.741 
95.291 6.019 
107.199 100.0 
117.158 3.762 
133.132 10.532 
144.131 3.762 
145.13 5.729 
157.098 5.845 
END IONS

BEGIN IONS
PEPMASS=130.05
CHARGE=1+
MSLEVEL=2
SOURCE_INSTRUMENT=Positive-Quattro_QQQ:10eV
FILENAME=hmdb_intermediate.mgf
SEQ=*..*
IONMODE=Positive
ORGANISM=HMDB
NAME=HMDB:HMDB01369-1537 Pyrroline hydroxycarboxylic acid M+H
PI=HMDB
DATACOLLECTOR=HMDB
SMILES=OC1CC(N=C1)C(O)=O
INCHI=InChI=1S/C5H7NO3/c7-3-1-4(5(8)9)6-2-3/h2-4,7H,1H2,(H,8,9)
INCHIAUX=N/A
PUBMED=N/A
SUBMITUSER=mwang87
TAGS=
LIBRARYQUALITY=3
SPECTRUMID=CCMSLIB00000425752
SCANS=724
84.334 100.0 
130.194 66.667 
END IONS

BEGIN IONS
PEPMASS=786.601
CHARGE=1+
MSLEVEL=2
SOURCE_INSTRUMENT=Positive-Quattro_QQQ:40eV
FILENAME=hmdb_intermediate.mgf
SEQ=*..*
IONMODE=Positive
ORGANISM=HMDB
NAME=HMDB:HMDB00593-821 PC(18:1(9Z)/18:1(9Z))  M+H
PI=HMDB
DATACOLLECTOR=HMDB
SMILES=CCCCCCCC\C=C/CCCCCCCC(=O)OCC(COP([O-])(=O)OCC[N+](C)(C)C)OC(=O)CCCCCCC\C=C/CCCCCCCC
INCHI=InChI=1S/C44H84NO8P/c1-6-8-10-12-14-16-18-20-22-24-26-28-30-32-34-36-43(46)50-40-42(41-52-54(48,49)51-39-38-45(3,4)5)53-44(47)37-35-33-31-29-27-25-23-21-19-17-15-13-11-9-7-2/h20-23,42H,6-19,24-41H2,1-5H3/b22-20-,23-21-
INCHIAUX=N/A
PUBMED=N/A
SUBMITUSER=mwang87
TAGS=
LIBRARYQUALITY=3
SPECTRUMID=CCMSLIB00000425753
SCANS=725
85.0 6.641 
124.0 3.013 
183.0 100.0 
185.0 3.438 
END IONS

BEGIN IONS
PEPMASS=157.061
CHARGE=1+
MSLEVEL=2
SOURCE_INSTRUMENT=Positive-Quattro_QQQ:25eV
FILENAME=hmdb_intermediate.mgf
SEQ=*..*
IONMODE=Positive
ORGANISM=HMDB
NAME=HMDB:HMDB00544-765 5-Hydroxymethyl-4-methyluracil M+H
PI=HMDB
DATACOLLECTOR=HMDB
SMILES=CC1=C(CO)C(=O)NC(=O)N1
INCHI=InChI=1S/C6H8N2O3/c1-3-4(2-9)5(10)8-6(11)7-3/h9H,2H2,1H3,(H2,7,8,10,11)
INCHIAUX=N/A
PUBMED=N/A
SUBMITUSER=mwang87
TAGS=
LIBRARYQUALITY=3
SPECTRUMID=CCMSLIB00000425754
SCANS=726
42.342 86.184 
55.216 87.5 
68.16 5.387 
96.056 100.0 
138.867 18.914 
END IONS

BEGIN IONS
PEPMASS=238.094
CHARGE=1+
MSLEVEL=2
SOURCE_INSTRUMENT=Positive-Quattro_QQQ:10eV
FILENAME=hmdb_intermediate.mgf
SEQ=*..*
IONMODE=Positive
ORGANISM=HMDB
NAME=HMDB:HMDB00238-400 Sepiapterin M+H
PI=HMDB
DATACOLLECTOR=HMDB
SMILES=C[C@H](O)C(=O)C1=NC2=C(NC1)NC(N)=NC2=O
INCHI=InChI=1S/C9H11N5O3/c1-3(15)6(16)4-2-11-7-5(12-4)8(17)14-9(10)13-7/h3,15H,2H2,1H3,(H4,10,11,13,14,17)/t3-/m0/s1
INCHIAUX=N/A
PUBMED=N/A
SUBMITUSER=mwang87
TAGS=
LIBRARYQUALITY=3
SPECTRUMID=CCMSLIB00000425755
SCANS=727
71.254 16.921 
86.208 13.025 
121.803 12.265 
133.792 21.766 
139.972 22.716 
149.984 14.735 
165.187 40.34 
177.919 21.957 
192.134 100.0 
194.854 16.018 
209.44 22.382 
219.825 85.518 
238.121 69.984 
END IONS

BEGIN IONS
PEPMASS=131.071
CHARGE=1+
MSLEVEL=2
SOURCE_INSTRUMENT=Negative-Quattro_QQQ:25eV
FILENAME=hmdb_intermediate.mgf
SEQ=*..*
IONMODE=Negative
ORGANISM=HMDB
NAME=HMDB:HMDB01624-1664 2-Hydroxycaproic acid M-H
PI=HMDB
DATACOLLECTOR=HMDB
SMILES=CCCCC(O)C(O)=O
INCHI=InChI=1S/C6H12O3/c1-2-3-4-5(7)6(8)9/h5,7H,2-4H2,1H3,(H,8,9)
INCHIAUX=N/A
PUBMED=N/A
SUBMITUSER=mwang87
TAGS=
LIBRARYQUALITY=3
SPECTRUMID=CCMSLIB00000425756
SCANS=728
45.583 100.0 
55.563 10.445 
83.414 27.74 
85.363 98.63 
131.231 12.329 
END IONS

BEGIN IONS
PEPMASS=109.065
CHARGE=1+
MSLEVEL=2
SOURCE_INSTRUMENT=Positive-Quattro_QQQ:25eV
FILENAME=hmdb_intermediate.mgf
SEQ=*..*
IONMODE=Positive
ORGANISM=HMDB
NAME=HMDB:HMDB02055-1972 o-Cresol M+H
PI=HMDB
DATACOLLECTOR=HMDB
SMILES=CC1=CC=CC=C1O
INCHI=InChI=1S/C7H8O/c1-6-4-2-3-5-7(6)8/h2-5,8H,1H3
INCHIAUX=N/A
PUBMED=N/A
SUBMITUSER=mwang87
TAGS=
LIBRARYQUALITY=3
SPECTRUMID=CCMSLIB00000425757
SCANS=729
40.0 14.092 
64.0 44.228 
65.0 53.127 
78.0 16.62 
93.0 100.0 
108.0 10.261 
END IONS

BEGIN IONS
PEPMASS=155.144
CHARGE=1+
MSLEVEL=2
SOURCE_INSTRUMENT=Positive-Quattro_QQQ:25eV
FILENAME=hmdb_intermediate.mgf
SEQ=*..*
IONMODE=Positive
ORGANISM=HMDB
NAME=HMDB:HMDB04472-2392 Eucalyptol M+H
PI=HMDB
DATACOLLECTOR=HMDB
SMILES=CC12CCC(CC1)C(C)(C)O2
INCHI=InChI=1S/C10H18O/c1-9(2)8-4-6-10(3,11-9)7-5-8/h8H,4-7H2,1-3H3
INCHIAUX=N/A
PUBMED=N/A
SUBMITUSER=mwang87
TAGS=
LIBRARYQUALITY=3
SPECTRUMID=CCMSLIB00000425758
SCANS=730
41.0 6.902 
67.0 9.563 
81.0 100.0 
93.0 4.766 
95.0 15.198 
END IONS

BEGIN IONS
PEPMASS=465.304
CHARGE=1+
MSLEVEL=2
SOURCE_INSTRUMENT=Negative-Quattro_QQQ:10eV
FILENAME=hmdb_intermediate.mgf
SEQ=*..*
IONMODE=Negative
ORGANISM=HMDB
NAME=HMDB:HMDB00653-891 Cholesterol sulfate M-H
PI=HMDB
DATACOLLECTOR=HMDB
SMILES=[H][C@@]12CC[C@H]([C@H](C)CCCC(C)C)[C@@]1(C)CC[C@@]1([H])[C@@]2([H])CC=C2C[C@H](CC[C@]12C)OS(O)(=O)=O
INCHI=InChI=1S/C27H46O4S/c1-18(2)7-6-8-19(3)23-11-12-24-22-10-9-20-17-21(31-32(28,29)30)13-15-26(20,4)25(22)14-16-27(23,24)5/h9,18-19,21-25H,6-8,10-17H2,1-5H3,(H,28,29,30)/t19-,21+,22+,23-,24+,25+,26+,27-/m1/s1
INCHIAUX=N/A
PUBMED=N/A
SUBMITUSER=mwang87
TAGS=
LIBRARYQUALITY=3
SPECTRUMID=CCMSLIB00000425759
SCANS=731
465.72 100.0 
END IONS

BEGIN IONS
PEPMASS=373.159
CHARGE=1+
MSLEVEL=2
SOURCE_INSTRUMENT=Positive-Quattro_QQQ:40eV
FILENAME=hmdb_intermediate.mgf
SEQ=*..*
IONMODE=Positive
ORGANISM=HMDB
NAME=HMDB:HMDB02873-2151 Deacetyldiltiazem M+H
PI=HMDB
DATACOLLECTOR=HMDB
SMILES=COC1=CC=C(C=C1)[C@@H]1SC2=CC=CC=C2N(CCN(C)C)C(=O)[C@@H]1O
INCHI=InChI=1S/C20H24N2O3S/c1-21(2)12-13-22-16-6-4-5-7-17(16)26-19(18(23)20(22)24)14-8-10-15(25-3)11-9-14/h4-11,18-19,23H,12-13H2,1-3H3/t18-,19+/m1/s1
INCHIAUX=N/A
PUBMED=N/A
SUBMITUSER=mwang87
TAGS=
LIBRARYQUALITY=3
SPECTRUMID=CCMSLIB00000425760
SCANS=732
71.0 22.981 
108.0 51.217 
120.0 17.627 
135.0 5.15 
149.0 100.0 
177.0 91.499 
END IONS

BEGIN IONS
PEPMASS=275.092
CHARGE=1+
MSLEVEL=2
SOURCE_INSTRUMENT=Positive-Quattro_QQQ:40eV
FILENAME=hmdb_intermediate.mgf
SEQ=*..*
IONMODE=Positive
ORGANISM=HMDB
NAME=HMDB:HMDB03306-2235 Phloretin M+H
PI=HMDB
DATACOLLECTOR=HMDB
SMILES=OC1=CC=C(CCC(=O)C2=C(O)C=C(O)C=C2O)C=C1
INCHI=InChI=1S/C15H14O5/c16-10-4-1-9(2-5-10)3-6-12(18)15-13(19)7-11(17)8-14(15)20/h1-2,4-5,7-8,16-17,19-20H,3,6H2
INCHIAUX=N/A
PUBMED=N/A
SUBMITUSER=mwang87
TAGS=
LIBRARYQUALITY=3
SPECTRUMID=CCMSLIB00000425761
SCANS=733
62.0 44.384 
90.0 100.0 
114.0 39.877 
127.0 53.496 
140.0 45.374 
151.0 87.365 
165.0 49.738 
END IONS

BEGIN IONS
PEPMASS=271.061
CHARGE=1+
MSLEVEL=2
SOURCE_INSTRUMENT=Negative-Quattro_QQQ:25eV
FILENAME=hmdb_intermediate.mgf
SEQ=*..*
IONMODE=Negative
ORGANISM=HMDB
NAME=HMDB:HMDB02670-2123 Naringenin M-H
PI=HMDB
DATACOLLECTOR=HMDB
SMILES=OC1=CC=C(C=C1)[C@@H]1CC(=O)C2=C(O)C=C(O)C=C2O1
INCHI=InChI=1S/C15H12O5/c16-9-3-1-8(2-4-9)13-7-12(19)15-11(18)5-10(17)6-14(15)20-13/h1-6,13,16-18H,7H2/t13-/m0/s1
INCHIAUX=N/A
PUBMED=N/A
SUBMITUSER=mwang87
TAGS=
LIBRARYQUALITY=3
SPECTRUMID=CCMSLIB00000425762
SCANS=734
64.0 29.928 
65.0 26.846 
82.0 46.82 
92.0 17.793 
95.0 8.812 
106.0 61.733 
118.0 100.0 
144.0 6.651 
150.0 56.049 
164.0 10.98 
184.0 8.178 
186.0 12.491 
270.0 7.175 
END IONS

BEGIN IONS
PEPMASS=238.094
CHARGE=1+
MSLEVEL=2
SOURCE_INSTRUMENT=Positive-Quattro_QQQ:25eV
FILENAME=hmdb_intermediate.mgf
SEQ=*..*
IONMODE=Positive
ORGANISM=HMDB
NAME=HMDB:HMDB00238-401 Sepiapterin M+H
PI=HMDB
DATACOLLECTOR=HMDB
SMILES=C[C@H](O)C(=O)C1=NC2=C(NC1)NC(N)=NC2=O
INCHI=InChI=1S/C9H11N5O3/c1-3(15)6(16)4-2-11-7-5(12-4)8(17)14-9(10)13-7/h3,15H,2H2,1H3,(H4,10,11,13,14,17)/t3-/m0/s1
INCHIAUX=N/A
PUBMED=N/A
SUBMITUSER=mwang87
TAGS=
LIBRARYQUALITY=3
SPECTRUMID=CCMSLIB00000425763
SCANS=735
60.132 46.9 
69.401 65.601 
82.872 25.969 
99.68 20.875 
107.59 26.038 
119.207 34.62 
133.668 49.623 
135.522 29.109 
149.242 66.854 
164.445 37.13 
165.681 60.159 
175.076 66.439 
191.516 100.0 
195.472 24.992 
235.154 16.061 
END IONS

BEGIN IONS
PEPMASS=87.0446
CHARGE=1+
MSLEVEL=2
SOURCE_INSTRUMENT=Positive-Quattro_QQQ:10eV
FILENAME=hmdb_intermediate.mgf
SEQ=*..*
IONMODE=Positive
ORGANISM=HMDB
NAME=HMDB:HMDB03407-2286 Diacetyl M+H
PI=HMDB
DATACOLLECTOR=HMDB
SMILES=CC(=O)C(C)=O
INCHI=InChI=1S/C4H6O2/c1-3(5)4(2)6/h1-2H3
INCHIAUX=N/A
PUBMED=N/A
SUBMITUSER=mwang87
TAGS=
LIBRARYQUALITY=3
SPECTRUMID=CCMSLIB00000425764
SCANS=736
42.0 21.977 
45.0 19.925 
59.0 31.196 
70.0 43.997 
87.0 100.0 
END IONS

BEGIN IONS
PEPMASS=101.024
CHARGE=1+
MSLEVEL=2
SOURCE_INSTRUMENT=Negative-Quattro_QQQ:40eV
FILENAME=hmdb_intermediate.mgf
SEQ=*..*
IONMODE=Negative
ORGANISM=HMDB
NAME=HMDB:HMDB00005-9 2-Ketobutyric acid M-H
PI=HMDB
DATACOLLECTOR=HMDB
SMILES=CCC(=O)C(O)=O
INCHI=InChI=1S/C4H6O3/c1-2-3(5)4(6)7/h2H2,1H3,(H,6,7)
INCHIAUX=N/A
PUBMED=N/A
SUBMITUSER=mwang87
TAGS=
LIBRARYQUALITY=3
SPECTRUMID=CCMSLIB00000425765
SCANS=737
57.462 40.394 
101.26 100.0 
END IONS

BEGIN IONS
PEPMASS=178.087
CHARGE=1+
MSLEVEL=2
SOURCE_INSTRUMENT=Positive-Quattro_QQQ:40eV
FILENAME=hmdb_intermediate.mgf
SEQ=*..*
IONMODE=Positive
ORGANISM=HMDB
NAME=HMDB:HMDB01855-1722 5-Hydroxytryptophol M+H
PI=HMDB
DATACOLLECTOR=HMDB
SMILES=OCCC1=CNC2=CC=C(O)C=C12
INCHI=InChI=1S/C10H11NO2/c12-4-3-7-6-11-10-2-1-8(13)5-9(7)10/h1-2,5-6,11-13H,3-4H2
INCHIAUX=N/A
PUBMED=N/A
SUBMITUSER=mwang87
TAGS=
LIBRARYQUALITY=3
SPECTRUMID=CCMSLIB00000425766
SCANS=738
105.12 29.5949477121 
115.08 88.761469429 
132.12 37.0481274546 
143.16 31.9074856787 
146.1 34.775562523 
160.14 100.0 
END IONS

BEGIN IONS
PEPMASS=121.065
CHARGE=1+
MSLEVEL=2
SOURCE_INSTRUMENT=Positive-Quattro_QQQ:40eV
FILENAME=hmdb_intermediate.mgf
SEQ=*..*
IONMODE=Positive
ORGANISM=HMDB
NAME=HMDB:HMDB06236-2480 Phenylacetaldehyde M+H
PI=HMDB
DATACOLLECTOR=HMDB
SMILES=O=CCC1=CC=CC=C1
INCHI=InChI=1S/C8H8O/c9-7-6-8-4-2-1-3-5-8/h1-5,7H,6H2
INCHIAUX=N/A
PUBMED=N/A
SUBMITUSER=mwang87
TAGS=
LIBRARYQUALITY=3
SPECTRUMID=CCMSLIB00000425767
SCANS=739
51.0 70.02 
65.0 18.618 
77.0 100.0 
91.0 18.817 
END IONS

BEGIN IONS
PEPMASS=78.0377
CHARGE=1+
MSLEVEL=2
SOURCE_INSTRUMENT=Positive-Quattro_QQQ:40eV
FILENAME=hmdb_intermediate.mgf
SEQ=*..*
IONMODE=Positive
ORGANISM=HMDB
NAME=HMDB:HMDB60150-2178 Cysteamine M+H
PI=HMDB
DATACOLLECTOR=HMDB
SMILES=NCCS
INCHI=InChI=1S/C2H7NS/c3-1-2-4/h4H,1-3H2
INCHIAUX=N/A
PUBMED=N/A
SUBMITUSER=mwang87
TAGS=
LIBRARYQUALITY=3
SPECTRUMID=CCMSLIB00000425768
SCANS=740
18.0 32.46 
27.0 100.0 
35.0 54.918 
45.0 22.948 
61.0 71.955 
78.0 34.88 
END IONS

BEGIN IONS
PEPMASS=181.071
CHARGE=1+
MSLEVEL=2
SOURCE_INSTRUMENT=Positive-Quattro_QQQ:10eV
FILENAME=hmdb_intermediate.mgf
SEQ=*..*
IONMODE=Positive
ORGANISM=HMDB
NAME=HMDB:HMDB00169-269 D-Mannose M+H
PI=HMDB
DATACOLLECTOR=HMDB
SMILES=OC[C@H]1OC(O)[C@@H](O)[C@@H](O)[C@@H]1O
INCHI=InChI=1S/C6H12O6/c7-1-2-3(8)4(9)5(10)6(11)12-2/h2-11H,1H2/t2-,3-,4+,5+,6?/m1/s1
INCHIAUX=N/A
PUBMED=N/A
SUBMITUSER=mwang87
TAGS=
LIBRARYQUALITY=3
SPECTRUMID=CCMSLIB00000425769
SCANS=741
61.201 6.079 
69.179 8.134 
85.098 100.0 
99.113 7.106 
109.153 5.287 
126.955 22.945 
144.976 76.37 
162.982 64.041 
180.91 15.24 
END IONS

BEGIN IONS
PEPMASS=201.185
CHARGE=1+
MSLEVEL=2
SOURCE_INSTRUMENT=Positive-Quattro_QQQ:40eV
FILENAME=hmdb_intermediate.mgf
SEQ=*..*
IONMODE=Positive
ORGANISM=HMDB
NAME=HMDB:HMDB00638-872 Dodecanoic acid M+H
PI=HMDB
DATACOLLECTOR=HMDB
SMILES=CCCCCCCCCCCC(O)=O
INCHI=InChI=1S/C12H24O2/c1-2-3-4-5-6-7-8-9-10-11-12(13)14/h2-11H2,1H3,(H,13,14)
INCHIAUX=N/A
PUBMED=N/A
SUBMITUSER=mwang87
TAGS=
LIBRARYQUALITY=3
SPECTRUMID=CCMSLIB00000425770
SCANS=742
29.0 47.051 
43.0 92.964 
55.0 100.0 
69.0 45.825 
77.0 45.035 
128.0 56.502 
END IONS

BEGIN IONS
PEPMASS=73.0653
CHARGE=1+
MSLEVEL=2
SOURCE_INSTRUMENT=Positive-Quattro_QQQ:25eV
FILENAME=hmdb_intermediate.mgf
SEQ=*..*
IONMODE=Positive
ORGANISM=HMDB
NAME=HMDB:HMDB00474-693 Butanone M+H
PI=HMDB
DATACOLLECTOR=HMDB
SMILES=CCC(C)=O
INCHI=InChI=1S/C4H8O/c1-3-4(2)5/h3H2,1-2H3
INCHIAUX=N/A
PUBMED=N/A
SUBMITUSER=mwang87
TAGS=
LIBRARYQUALITY=3
SPECTRUMID=CCMSLIB00000425771
SCANS=743
31.0 24.881 
43.0 58.463 
45.0 34.225 
58.0 43.717 
73.0 100.0 
END IONS

BEGIN IONS
PEPMASS=33.034
CHARGE=1+
MSLEVEL=2
SOURCE_INSTRUMENT=Positive-Quattro_QQQ:40eV
FILENAME=hmdb_intermediate.mgf
SEQ=*..*
IONMODE=Positive
ORGANISM=HMDB
NAME=HMDB:HMDB01875-1770 Methanol M+H
PI=HMDB
DATACOLLECTOR=HMDB
SMILES=CO
INCHI=InChI=1S/CH4O/c1-2/h2H,1H3
INCHIAUX=N/A
PUBMED=N/A
SUBMITUSER=mwang87
TAGS=
LIBRARYQUALITY=3
SPECTRUMID=CCMSLIB00000425772
SCANS=744
19.852 100.0 
END IONS

BEGIN IONS
PEPMASS=143.107
CHARGE=1+
MSLEVEL=2
SOURCE_INSTRUMENT=Negative-Quattro_QQQ:40eV
FILENAME=hmdb_intermediate.mgf
SEQ=*..*
IONMODE=Negative
ORGANISM=HMDB
NAME=HMDB:HMDB00482-700 Caprylic acid M-H
PI=HMDB
DATACOLLECTOR=HMDB
SMILES=CCCCCCCC(O)=O
INCHI=InChI=1S/C8H16O2/c1-2-3-4-5-6-7-8(9)10/h2-7H2,1H3,(H,9,10)
INCHIAUX=N/A
PUBMED=N/A
SUBMITUSER=mwang87
TAGS=
LIBRARYQUALITY=3
SPECTRUMID=CCMSLIB00000425773
SCANS=745
45.594 6.391 
58.48 67.669 
71.353 23.872 
143.286 100.0 
END IONS

BEGIN IONS
PEPMASS=295.129
CHARGE=1+
MSLEVEL=2
SOURCE_INSTRUMENT=Positive-Quattro_QQQ:10eV
FILENAME=hmdb_intermediate.mgf
SEQ=*..*
IONMODE=Positive
ORGANISM=HMDB
NAME=HMDB:HMDB01894-1807 Aspartame M+H
PI=HMDB
DATACOLLECTOR=HMDB
SMILES=COC(=O)[C@H](CC1=CC=CC=C1)NC(=O)[C@@H](N)CC(O)=O
INCHI=InChI=1S/C14H18N2O5/c1-21-14(20)11(7-9-5-3-2-4-6-9)16-13(19)10(15)8-12(17)18/h2-6,10-11H,7-8,15H2,1H3,(H,16,19)(H,17,18)/t10-,11-/m0/s1
INCHIAUX=N/A
PUBMED=N/A
SUBMITUSER=mwang87
TAGS=
LIBRARYQUALITY=3
SPECTRUMID=CCMSLIB00000425774
SCANS=746
110.799 10.755 
151.134 10.218 
162.677 10.218 
168.511 52.972 
177.571 77.021 
190.852 25.719 
207.486 51.368 
217.044 12.089 
233.305 100.0 
235.54 87.173 
248.078 59.92 
258.382 44.423 
272.41 11.288 
276.755 27.319 
295.378 61.791 
END IONS

BEGIN IONS
PEPMASS=109.065
CHARGE=1+
MSLEVEL=2
SOURCE_INSTRUMENT=Positive-Quattro_QQQ:40eV
FILENAME=hmdb_intermediate.mgf
SEQ=*..*
IONMODE=Positive
ORGANISM=HMDB
NAME=HMDB:HMDB02055-1973 o-Cresol M+H
PI=HMDB
DATACOLLECTOR=HMDB
SMILES=CC1=CC=CC=C1O
INCHI=InChI=1S/C7H8O/c1-6-4-2-3-5-7(6)8/h2-5,8H,1H3
INCHIAUX=N/A
PUBMED=N/A
SUBMITUSER=mwang87
TAGS=
LIBRARYQUALITY=3
SPECTRUMID=CCMSLIB00000425775
SCANS=747
39.0 53.565 
54.0 19.712 
64.0 100.0 
65.0 52.504 
76.0 19.82 
93.0 39.578 
108.0 11.589 
END IONS

BEGIN IONS
PEPMASS=60.0562
CHARGE=1+
MSLEVEL=2
SOURCE_INSTRUMENT=Positive-Quattro_QQQ:10eV
FILENAME=hmdb_intermediate.mgf
SEQ=*..*
IONMODE=Positive
ORGANISM=HMDB
NAME=HMDB:HMDB01842-1690 Guanidine M+H
PI=HMDB
DATACOLLECTOR=HMDB
SMILES=NC(N)=N
INCHI=InChI=1S/CH5N3/c2-1(3)4/h(H5,2,3,4)
INCHIAUX=N/A
PUBMED=N/A
SUBMITUSER=mwang87
TAGS=
LIBRARYQUALITY=3
SPECTRUMID=CCMSLIB00000425776
SCANS=748
43.0 21.577 
60.0 100.0 
END IONS

BEGIN IONS
PEPMASS=269.089
CHARGE=1+
MSLEVEL=2
SOURCE_INSTRUMENT=Positive-Quattro_QQQ:25eV
FILENAME=hmdb_intermediate.mgf
SEQ=*..*
IONMODE=Positive
ORGANISM=HMDB
NAME=HMDB:HMDB00195-317 Inosine M+H
PI=HMDB
DATACOLLECTOR=HMDB
SMILES=OC[C@H]1O[C@H]([C@H](O)[C@@H]1O)N1C=NC2=C1N=CNC2=O
INCHI=InChI=1S/C10H12N4O5/c15-1-4-6(16)7(17)10(19-4)14-3-13-5-8(14)11-2-12-9(5)18/h2-4,6-7,10,15-17H,1H2,(H,11,12,18)/t4-,6-,7-,10-/m1/s1
INCHIAUX=N/A
PUBMED=N/A
SUBMITUSER=mwang87
TAGS=
LIBRARYQUALITY=3
SPECTRUMID=CCMSLIB00000425777
SCANS=749
136.987 100.0 
END IONS

BEGIN IONS
PEPMASS=197.067
CHARGE=1+
MSLEVEL=2
SOURCE_INSTRUMENT=Positive-Quattro_QQQ:25eV
FILENAME=hmdb_intermediate.mgf
SEQ=*..*
IONMODE=Positive
ORGANISM=HMDB
NAME=HMDB:HMDB01982-1924 3,7-Dimethyluric acid M+H
PI=HMDB
DATACOLLECTOR=HMDB
SMILES=CN1C(=O)NC2=C1C(=O)NC(=O)N2C
INCHI=InChI=1S/C7H8N4O3/c1-10-3-4(8-6(10)13)11(2)7(14)9-5(3)12/h1-2H3,(H,8,13)(H,9,12,14)
INCHIAUX=N/A
PUBMED=N/A
SUBMITUSER=mwang87
TAGS=
LIBRARYQUALITY=3
SPECTRUMID=CCMSLIB00000425778
SCANS=750
42.0 80.19 
57.0 13.861 
69.0 56.654 
83.0 100.0 
85.0 16.414 
99.0 10.771 
111.0 33.654 
126.0 44.538 
139.0 39.405 
151.0 13.357 
182.0 50.022 
197.0 51.153 
END IONS

BEGIN IONS
PEPMASS=161.045
CHARGE=1+
MSLEVEL=2
SOURCE_INSTRUMENT=Positive-Quattro_QQQ:25eV
FILENAME=hmdb_intermediate.mgf
SEQ=*..*
IONMODE=Positive
ORGANISM=HMDB
NAME=HMDB:HMDB00398-607 3-Oxoadipic acid M+H
PI=HMDB
DATACOLLECTOR=HMDB
SMILES=OC(=O)CCC(=O)CC(O)=O
INCHI=InChI=1S/C6H8O5/c7-4(3-6(10)11)1-2-5(8)9/h1-3H2,(H,8,9)(H,10,11)
INCHIAUX=N/A
PUBMED=N/A
SUBMITUSER=mwang87
TAGS=
LIBRARYQUALITY=3
SPECTRUMID=CCMSLIB00000425779
SCANS=751
114.44 17.592 
114.59 19.743 
125.15 21.948 
142.48 63.021 
160.77 100.0 
END IONS

BEGIN IONS
PEPMASS=176.071
CHARGE=1+
MSLEVEL=2
SOURCE_INSTRUMENT=Positive-Quattro_QQQ:10eV
FILENAME=hmdb_intermediate.mgf
SEQ=*..*
IONMODE=Positive
ORGANISM=HMDB
NAME=HMDB:HMDB00197-319 Indoleacetic acid M+H
PI=HMDB
DATACOLLECTOR=HMDB
SMILES=OC(=O)CC1=CNC2=C1C=CC=C2
INCHI=InChI=1S/C10H9NO2/c12-10(13)5-7-6-11-9-4-2-1-3-8(7)9/h1-4,6,11H,5H2,(H,12,13)
INCHIAUX=N/A
PUBMED=N/A
SUBMITUSER=mwang87
TAGS=
LIBRARYQUALITY=3
SPECTRUMID=CCMSLIB00000425780
SCANS=752
129.923 100.0 
157.898 2.136 
175.864 42.347 
END IONS

BEGIN IONS
PEPMASS=219.123
CHARGE=1+
MSLEVEL=2
SOURCE_INSTRUMENT=Positive-Quattro_QQQ:40eV
FILENAME=hmdb_intermediate.mgf
SEQ=*..*
IONMODE=Positive
ORGANISM=HMDB
NAME=HMDB:HMDB00350-563 3-Hydroxysebacic acid M+H
PI=HMDB
DATACOLLECTOR=HMDB
SMILES=OC(CCCCCCC(O)=O)CC(O)=O
INCHI=InChI=1S/C10H18O5/c11-8(7-10(14)15)5-3-1-2-4-6-9(12)13/h8,11H,1-7H2,(H,12,13)(H,14,15)
INCHIAUX=N/A
PUBMED=N/A
SUBMITUSER=mwang87
TAGS=
LIBRARYQUALITY=3
SPECTRUMID=CCMSLIB00000425781
SCANS=753
67.0 91.954 
77.0 46.407 
91.0 100.0 
95.0 39.215 
105.0 15.315 
119.0 15.533 
END IONS

BEGIN IONS
PEPMASS=169.05
CHARGE=1+
MSLEVEL=2
SOURCE_INSTRUMENT=Positive-Quattro_QQQ:10eV
FILENAME=hmdb_intermediate.mgf
SEQ=*..*
IONMODE=Positive
ORGANISM=HMDB
NAME=HMDB:HMDB01868-1753 5-Methoxysalicylic acid M+H
PI=HMDB
DATACOLLECTOR=HMDB
SMILES=COC1=CC(C(O)=O)=C(O)C=C1
INCHI=InChI=1S/C8H8O4/c1-12-5-2-3-7(9)6(4-5)8(10)11/h2-4,9H,1H3,(H,10,11)
INCHIAUX=N/A
PUBMED=N/A
SUBMITUSER=mwang87
TAGS=
LIBRARYQUALITY=3
SPECTRUMID=CCMSLIB00000425782
SCANS=754
54.103 8.638 
72.648 22.811 
83.926 17.432 
86.557 14.88 
97.96 12.053 
111.62 53.357 
122.773 8.638 
127.911 53.004 
142.197 10.365 
151.597 20.927 
168.641 100.0 
END IONS

BEGIN IONS
PEPMASS=100.022
CHARGE=1+
MSLEVEL=2
SOURCE_INSTRUMENT=Positive-Quattro_QQQ:25eV
FILENAME=hmdb_intermediate.mgf
SEQ=*..*
IONMODE=Positive
ORGANISM=HMDB
NAME=HMDB:HMDB05843-2461 Allyl isothiocyanate M+H
PI=HMDB
DATACOLLECTOR=HMDB
SMILES=C=CCN=C=S
INCHI=InChI=1S/C4H5NS/c1-2-3-5-4-6/h2H,1,3H2
INCHIAUX=N/A
PUBMED=N/A
SUBMITUSER=mwang87
TAGS=
LIBRARYQUALITY=3
SPECTRUMID=CCMSLIB00000425783
SCANS=755
41.28 100.0 
45.11 36.09 
58.74 33.814 
66.92 88.253 
100.05 37.764 
END IONS

BEGIN IONS
PEPMASS=191.019
CHARGE=1+
MSLEVEL=2
SOURCE_INSTRUMENT=Negative-Quattro_QQQ:40eV
FILENAME=hmdb_intermediate.mgf
SEQ=*..*
IONMODE=Negative
ORGANISM=HMDB
NAME=HMDB:HMDB01874-1767 D-threo-Isocitric acid M-H
PI=HMDB
DATACOLLECTOR=HMDB
SMILES=O[C@H]([C@H](CC(O)=O)C(O)=O)C(O)=O
INCHI=InChI=1S/C6H8O7/c7-3(8)1-2(5(10)11)4(9)6(12)13/h2,4,9H,1H2,(H,7,8)(H,10,11)(H,12,13)/t2-,4+/m0/s1
INCHIAUX=N/A
PUBMED=N/A
SUBMITUSER=mwang87
TAGS=
LIBRARYQUALITY=3
SPECTRUMID=CCMSLIB00000425784
SCANS=756
43.376 27.088 
64.436 23.926 
65.433 100.0 
77.272 18.108 
92.601 33.583 
110.671 44.313 
151.551 10.427 
END IONS

BEGIN IONS
PEPMASS=154.05
CHARGE=1+
MSLEVEL=2
SOURCE_INSTRUMENT=Positive-Quattro_QQQ:25eV
FILENAME=hmdb_intermediate.mgf
SEQ=*..*
IONMODE=Positive
ORGANISM=HMDB
NAME=HMDB:HMDB01972-1915 3-Aminosalicylic acid M+H
PI=HMDB
DATACOLLECTOR=HMDB
SMILES=NC1=CC=CC(C(O)=O)=C1O
INCHI=InChI=1S/C7H7NO3/c8-5-3-1-2-4(6(5)9)7(10)11/h1-3,9H,8H2,(H,10,11)
INCHIAUX=N/A
PUBMED=N/A
SUBMITUSER=mwang87
TAGS=
LIBRARYQUALITY=3
SPECTRUMID=CCMSLIB00000425785
SCANS=757
63.0 15.522 
80.0 100.0 
90.0 50.245 
108.0 65.052 
136.0 20.252 
END IONS

BEGIN IONS
PEPMASS=651.608
CHARGE=1+
MSLEVEL=2
SOURCE_INSTRUMENT=Positive-Quattro_QQQ:40eV
FILENAME=hmdb_intermediate.mgf
SEQ=*..*
IONMODE=Positive
ORGANISM=HMDB
NAME=HMDB:HMDB00918-1305 CE(18:1(9Z)) M+H
PI=HMDB
DATACOLLECTOR=HMDB
SMILES=CCCCCCCC\C=C/CCCCCCCC(=O)O[C@H]1CC[C@@]2(C)C(=CC[C@@]3([H])[C@]4([H])CC[C@]([H])([C@H](C)CCCC(C)C)[C@@]4(C)CC[C@]23[H])C1
INCHI=InChI=1S/C45H78O2/c1-7-8-9-10-11-12-13-14-15-16-17-18-19-20-21-25-43(46)47-38-30-32-44(5)37(34-38)26-27-39-41-29-28-40(36(4)24-22-23-35(2)3)45(41,6)33-31-42(39)44/h14-15,26,35-36,38-42H,7-13,16-25,27-34H2,1-6H3/b15-14-/t36-,38+,39+,40-,41+,42+,44+,45-/m1/s1
INCHIAUX=N/A
PUBMED=N/A
SUBMITUSER=mwang87
TAGS=
LIBRARYQUALITY=3
SPECTRUMID=CCMSLIB00000425786
SCANS=758
175.0 95.961 
440.0 100.0 
586.0 96.667 
END IONS

BEGIN IONS
PEPMASS=163.061
CHARGE=1+
MSLEVEL=2
SOURCE_INSTRUMENT=Positive-Quattro_QQQ:40eV
FILENAME=hmdb_intermediate.mgf
SEQ=*..*
IONMODE=Positive
ORGANISM=HMDB
NAME=HMDB:HMDB00355-569 3-Hydroxymethylglutaric acid M+H
PI=HMDB
DATACOLLECTOR=HMDB
SMILES=CC(O)(CC(O)=O)CC(O)=O
INCHI=InChI=1S/C6H10O5/c1-6(11,2-4(7)8)3-5(9)10/h11H,2-3H2,1H3,(H,7,8)(H,9,10)
INCHIAUX=N/A
PUBMED=N/A
SUBMITUSER=mwang87
TAGS=
LIBRARYQUALITY=3
SPECTRUMID=CCMSLIB00000425787
SCANS=759
50.891 25.123 
55.378 78.484 
67.341 26.377 
76.937 83.501 
92.888 24.182 
104.478 100.0 
105.849 28.465 
121.179 27.629 
END IONS

BEGIN IONS
PEPMASS=138.055
CHARGE=1+
MSLEVEL=2
SOURCE_INSTRUMENT=Positive-Quattro_QQQ:25eV
FILENAME=hmdb_intermediate.mgf
SEQ=*..*
IONMODE=Positive
ORGANISM=HMDB
NAME=HMDB:HMDB01392-1551 p-Aminobenzoic acid M+H
PI=HMDB
DATACOLLECTOR=HMDB
SMILES=NC1=CC=C(C=C1)C(O)=O
INCHI=InChI=1S/C7H7NO2/c8-6-3-1-5(2-4-6)7(9)10/h1-4H,8H2,(H,9,10)
INCHIAUX=N/A
PUBMED=N/A
SUBMITUSER=mwang87
TAGS=
LIBRARYQUALITY=3
SPECTRUMID=CCMSLIB00000425788
SCANS=760
65.157 61.24 
77.055 87.597 
92.077 100.0 
119.911 41.473 
137.729 6.153 
END IONS

BEGIN IONS
PEPMASS=153.076
CHARGE=1+
MSLEVEL=2
SOURCE_INSTRUMENT=Positive-Quattro_QQQ:25eV
FILENAME=hmdb_intermediate.mgf
SEQ=*..*
IONMODE=Positive
ORGANISM=HMDB
NAME=HMDB:HMDB01851-1715 L-Arabitol M+H
PI=HMDB
DATACOLLECTOR=HMDB
SMILES=OC[C@H](O)C(O)[C@@H](O)CO
INCHI=InChI=1S/C5H12O5/c6-1-3(8)5(10)4(9)2-7/h3-10H,1-2H2/t3-,4-/m0/s1
INCHIAUX=N/A
PUBMED=N/A
SUBMITUSER=mwang87
TAGS=
LIBRARYQUALITY=3
SPECTRUMID=CCMSLIB00000425789
SCANS=761
42.0 57.385 
45.0 39.775 
58.0 82.19 
68.0 87.66 
76.0 32.134 
88.0 100.0 
102.0 32.769 
END IONS

BEGIN IONS
PEPMASS=176.056
CHARGE=1+
MSLEVEL=2
SOURCE_INSTRUMENT=Positive-Quattro_QQQ:10eV
FILENAME=hmdb_intermediate.mgf
SEQ=*..*
IONMODE=Positive
ORGANISM=HMDB
NAME=HMDB:HMDB00812-1161 N-Acetyl-L-aspartic acid M+H
PI=HMDB
DATACOLLECTOR=HMDB
SMILES=CC(=O)N[C@@H](CC(O)=O)C(O)=O
INCHI=InChI=1S/C6H9NO5/c1-3(8)7-4(6(11)12)2-5(9)10/h4H,2H2,1H3,(H,7,8)(H,9,10)(H,11,12)/t4-/m0/s1
INCHIAUX=N/A
PUBMED=N/A
SUBMITUSER=mwang87
TAGS=
LIBRARYQUALITY=3
SPECTRUMID=CCMSLIB00000425790
SCANS=762
70.148 5.659 
88.097 30.118 
116.025 13.583 
133.999 100.0 
157.977 27.756 
175.96 11.811 
END IONS

BEGIN IONS
PEPMASS=112.087
CHARGE=1+
MSLEVEL=2
SOURCE_INSTRUMENT=Positive-Quattro_QQQ:25eV
FILENAME=hmdb_intermediate.mgf
SEQ=*..*
IONMODE=Positive
ORGANISM=HMDB
NAME=HMDB:HMDB00870-1224 Histamine M+H
PI=HMDB
DATACOLLECTOR=HMDB
SMILES=NCCC1=CNC=N1
INCHI=InChI=1S/C5H9N3/c6-2-1-5-3-7-4-8-5/h3-4H,1-2,6H2,(H,7,8)
INCHIAUX=N/A
PUBMED=N/A
SUBMITUSER=mwang87
TAGS=
LIBRARYQUALITY=3
SPECTRUMID=CCMSLIB00000425791
SCANS=763
41.332 57.872 
68.041 97.872 
81.853 27.66 
94.993 100.0 
111.881 12.128 
END IONS

BEGIN IONS
PEPMASS=159.066
CHARGE=1+
MSLEVEL=2
SOURCE_INSTRUMENT=Negative-Quattro_QQQ:10eV
FILENAME=hmdb_intermediate.mgf
SEQ=*..*
IONMODE=Negative
ORGANISM=HMDB
NAME=HMDB:HMDB00857-1205 Pimelic acid M-H
PI=HMDB
DATACOLLECTOR=HMDB
SMILES=OC(=O)CCCCCC(O)=O
INCHI=InChI=1S/C7H12O4/c8-6(9)4-2-1-3-5-7(10)11/h1-5H2,(H,8,9)(H,10,11)
INCHIAUX=N/A
PUBMED=N/A
SUBMITUSER=mwang87
TAGS=
LIBRARYQUALITY=3
SPECTRUMID=CCMSLIB00000425792
SCANS=764
97.086 100.0 
115.048 22.656 
140.989 22.656 
END IONS

BEGIN IONS
PEPMASS=44.9851
CHARGE=1+
MSLEVEL=2
SOURCE_INSTRUMENT=Negative-Quattro_QQQ:10eV
FILENAME=hmdb_intermediate.mgf
SEQ=*..*
IONMODE=Negative
ORGANISM=HMDB
NAME=HMDB:HMDB02786-2131 Nitrite M-H
PI=HMDB
DATACOLLECTOR=HMDB
SMILES=[O-]N=O
INCHI=InChI=1S/HNO2/c2-1-3/h(H,2,3)/p-1
INCHIAUX=N/A
PUBMED=N/A
SUBMITUSER=mwang87
TAGS=
LIBRARYQUALITY=3
SPECTRUMID=CCMSLIB00000425793
SCANS=765
44.0 100.0 
45.0 42.785 
END IONS

BEGIN IONS
PEPMASS=343.124
CHARGE=1+
MSLEVEL=2
SOURCE_INSTRUMENT=Positive-Quattro_QQQ:10eV
FILENAME=hmdb_intermediate.mgf
SEQ=*..*
IONMODE=Positive
ORGANISM=HMDB
NAME=HMDB:HMDB11740-2496 Turanose M+H
PI=HMDB
DATACOLLECTOR=HMDB
SMILES=OC[C@@H](O)[C@@H](O)[C@H](O[C@H]1O[C@H](CO)[C@@H](O)[C@H](O)[C@H]1O)C(=O)CO
INCHI=InChI=1S/C12H22O11/c13-1-4(16)7(18)11(5(17)2-14)23-12-10(21)9(20)8(19)6(3-15)22-12/h4,6-16,18-21H,1-3H2/t4-,6-,7-,8-,9+,10-,11-,12-/m1/s1
INCHIAUX=N/A
PUBMED=N/A
SUBMITUSER=mwang87
TAGS=
LIBRARYQUALITY=3
SPECTRUMID=CCMSLIB00000425794
SCANS=766
85.02 80.4945026128 
96.96 14.0109886548 
127.02 60.439559792 
135.72 6.8681318358 
145.08 100.0 
163.08 30.4945048793 
211.14 5.494505106 
240.3 17.0329670977 
253.14 8.2417576589 
259.08 35.7142840954 
271.08 13.7362627649 
289.08 77.1978046262 
302.16 49.7252727502 
307.14 7.6923076923 
325.14 76.9230732967 
343.2 62.6373623783 
END IONS

BEGIN IONS
PEPMASS=159.041
CHARGE=1+
MSLEVEL=2
SOURCE_INSTRUMENT=Positive-Quattro_QQQ:40eV
FILENAME=hmdb_intermediate.mgf
SEQ=*..*
IONMODE=Positive
ORGANISM=HMDB
NAME=HMDB:HMDB03349-2258 L-Dihydroorotic acid M+H
PI=HMDB
DATACOLLECTOR=HMDB
SMILES=OC(=O)[C@@H]1CC(=O)NC(=O)N1
INCHI=InChI=1S/C5H6N2O4/c8-3-1-2(4(9)10)6-5(11)7-3/h2H,1H2,(H,9,10)(H2,6,7,8,11)/t2-/m0/s1
INCHIAUX=N/A
PUBMED=N/A
SUBMITUSER=mwang87
TAGS=
LIBRARYQUALITY=3
SPECTRUMID=CCMSLIB00000425795
SCANS=767
28.0 82.524 
43.0 100.0 
53.0 64.848 
61.0 14.721 
70.0 67.244 
85.0 38.64 
99.0 31.425 
113.0 14.499 
END IONS

BEGIN IONS
PEPMASS=140.995
CHARGE=1+
MSLEVEL=2
SOURCE_INSTRUMENT=Positive-Quattro_QQQ:10eV
FILENAME=hmdb_intermediate.mgf
SEQ=*..*
IONMODE=Positive
ORGANISM=HMDB
NAME=HMDB:HMDB04110-2364 Phosphonoacetate M+H
PI=HMDB
DATACOLLECTOR=HMDB
SMILES=OC(=O)CP(O)(O)=O
INCHI=InChI=1S/C2H5O5P/c3-2(4)1-8(5,6)7/h1H2,(H,3,4)(H2,5,6,7)
INCHIAUX=N/A
PUBMED=N/A
SUBMITUSER=mwang87
TAGS=
LIBRARYQUALITY=3
SPECTRUMID=CCMSLIB00000425796
SCANS=768
95.0 1.793 
105.0 6.081 
123.0 100.0 
141.0 10.793 
END IONS

BEGIN IONS
PEPMASS=219.123
CHARGE=1+
MSLEVEL=2
SOURCE_INSTRUMENT=Positive-Quattro_QQQ:10eV
FILENAME=hmdb_intermediate.mgf
SEQ=*..*
IONMODE=Positive
ORGANISM=HMDB
NAME=HMDB:HMDB00350-561 3-Hydroxysebacic acid M+H
PI=HMDB
DATACOLLECTOR=HMDB
SMILES=OC(CCCCCCC(O)=O)CC(O)=O
INCHI=InChI=1S/C10H18O5/c11-8(7-10(14)15)5-3-1-2-4-6-9(12)13/h8,11H,1-7H2,(H,12,13)(H,14,15)
INCHIAUX=N/A
PUBMED=N/A
SUBMITUSER=mwang87
TAGS=
LIBRARYQUALITY=3
SPECTRUMID=CCMSLIB00000425797
SCANS=769
119.0 13.843 
137.0 34.79 
155.0 10.98 
165.0 34.137 
183.0 100.0 
201.0 17.146 
219.0 82.477 
END IONS

BEGIN IONS
PEPMASS=409.295
CHARGE=1+
MSLEVEL=2
SOURCE_INSTRUMENT=Positive-Quattro_QQQ:40eV
FILENAME=hmdb_intermediate.mgf
SEQ=*..*
IONMODE=Positive
ORGANISM=HMDB
NAME=HMDB:HMDB00364-581 3a,6a,7b-Trihydroxy-5b-cholanoic acid M+H
PI=HMDB
DATACOLLECTOR=HMDB
SMILES=[H][C@@]12CC[C@H]([C@H](C)CCC(O)=O)[C@@]1(C)CC[C@@]1([H])[C@@]2([H])[C@@H](O)[C@H](O)[C@]2([H])C[C@H](O)CC[C@]12C
INCHI=InChI=1S/C24H40O5/c1-13(4-7-19(26)27)15-5-6-16-20-17(9-11-23(15,16)2)24(3)10-8-14(25)12-18(24)21(28)22(20)29/h13-18,20-22,25,28-29H,4-12H2,1-3H3,(H,26,27)/t13-,14-,15-,16+,17+,18+,20+,21-,22-,23-,24-/m1/s1
INCHIAUX=N/A
PUBMED=N/A
SUBMITUSER=mwang87
TAGS=
LIBRARYQUALITY=3
SPECTRUMID=CCMSLIB00000425798
SCANS=770
23.7 75.658 
43.47 33.601 
55.16 38.489 
69.6 57.063 
81.27 78.816 
85.74 83.236 
94.92 100.0 
104.77 53.179 
119.11 72.383 
133.55 58.273 
142.78 58.426 
146.32 68.27 
161.2 92.515 
172.22 44.844 
182.63 42.479 
191.64 46.488 
194.92 65.058 
207.94 33.53 
221.53 46.35 
232.67 32.423 
243.07 30.389 
249.96 35.083 
261.3 45.87 
273.06 27.982 
278.48 28.829 
295.08 36.623 
350.71 30.961 
354.61 26.882 
END IONS

BEGIN IONS
PEPMASS=343.124
CHARGE=1+
MSLEVEL=2
SOURCE_INSTRUMENT=Positive-Quattro_QQQ:40eV
FILENAME=hmdb_intermediate.mgf
SEQ=*..*
IONMODE=Positive
ORGANISM=HMDB
NAME=HMDB:HMDB00163-259 D-Maltose M+H
PI=HMDB
DATACOLLECTOR=HMDB
SMILES=OC[C@H]1O[C@H](O[C@H]2[C@H](O)[C@H](O)[C@@H](O)O[C@@H]2CO)[C@H](O)[C@@H](O)[C@@H]1O
INCHI=InChI=1S/C12H22O11/c13-1-3-5(15)6(16)9(19)12(22-3)23-10-4(2-14)21-11(20)8(18)7(10)17/h3-20H,1-2H2/t3-,4-,5-,6+,7-,8+,9-,10-,11+,12-/m1/s1
INCHIAUX=N/A
PUBMED=N/A
SUBMITUSER=mwang87
TAGS=
LIBRARYQUALITY=3
SPECTRUMID=CCMSLIB00000425799
SCANS=771
56.1 84.843 
68.72 91.581 
84.48 72.669 
93.86 90.551 
97.99 74.059 
110.24 71.26 
117.64 73.846 
143.59 100.0 
149.42 79.767 
244.33 98.48 
END IONS

BEGIN IONS
PEPMASS=241.032
CHARGE=1+
MSLEVEL=2
SOURCE_INSTRUMENT=Positive-Quattro_QQQ:10eV
FILENAME=hmdb_intermediate.mgf
SEQ=*..*
IONMODE=Positive
ORGANISM=HMDB
NAME=HMDB:HMDB00192-307 L-Cystine M+H
PI=HMDB
DATACOLLECTOR=HMDB
SMILES=N[C@@H](CSSC[C@H](N)C(O)=O)C(O)=O
INCHI=InChI=1S/C6H12N2O4S2/c7-3(5(9)10)1-13-14-2-4(8)6(11)12/h3-4H,1-2,7-8H2,(H,9,10)(H,11,12)/t3-,4-/m0/s1
INCHIAUX=N/A
PUBMED=N/A
SUBMITUSER=mwang87
TAGS=
LIBRARYQUALITY=3
SPECTRUMID=CCMSLIB00000425800
SCANS=772
74.045 3.477 
119.927 9.633 
151.869 51.128 
177.856 3.242 
194.872 10.15 
240.871 100.0 
END IONS

BEGIN IONS
PEPMASS=301.217
CHARGE=1+
MSLEVEL=2
SOURCE_INSTRUMENT=Positive-Quattro_QQQ:40eV
FILENAME=hmdb_intermediate.mgf
SEQ=*..*
IONMODE=Positive
ORGANISM=HMDB
NAME=HMDB:HMDB06219-2477 13-cis-Retinoic acid M+H
PI=HMDB
DATACOLLECTOR=HMDB
SMILES=C\C(\C=C\C1=C(C)CCCC1(C)C)=C/C=C/C(/C)=C\C(O)=O
INCHI=InChI=1S/C20H28O2/c1-15(8-6-9-16(2)14-19(21)22)11-12-18-17(3)10-7-13-20(18,4)5/h6,8-9,11-12,14H,7,10,13H2,1-5H3,(H,21,22)/b9-6+,12-11+,15-8+,16-14-
INCHIAUX=N/A
PUBMED=N/A
SUBMITUSER=mwang87
TAGS=
LIBRARYQUALITY=3
SPECTRUMID=CCMSLIB00000425801
SCANS=773
69.04 48.545 
80.99 95.676 
90.97 47.347 
104.95 100.0 
118.72 23.159 
130.56 30.019 
144.54 26.514 
END IONS

BEGIN IONS
PEPMASS=165.076
CHARGE=1+
MSLEVEL=2
SOURCE_INSTRUMENT=Positive-Quattro_QQQ:25eV
FILENAME=hmdb_intermediate.mgf
SEQ=*..*
IONMODE=Positive
ORGANISM=HMDB
NAME=HMDB:HMDB00849-1200 Rhamnose M+H
PI=HMDB
DATACOLLECTOR=HMDB
SMILES=C[C@@H]1OC(O)[C@H](O)[C@H](O)[C@H]1O
INCHI=InChI=1S/C6H12O5/c1-2-3(7)4(8)5(9)6(10)11-2/h2-10H,1H3/t2-,3-,4+,5+,6?/m0/s1
INCHIAUX=N/A
PUBMED=N/A
SUBMITUSER=mwang87
TAGS=
LIBRARYQUALITY=3
SPECTRUMID=CCMSLIB00000425802
SCANS=774
69.0 89.597 
89.0 41.564 
101.0 100.0 
133.0 9.358 
END IONS

BEGIN IONS
PEPMASS=103.04
CHARGE=1+
MSLEVEL=2
SOURCE_INSTRUMENT=Negative-Quattro_QQQ:25eV
FILENAME=hmdb_intermediate.mgf
SEQ=*..*
IONMODE=Negative
ORGANISM=HMDB
NAME=HMDB:HMDB00729-1024 Alpha-Hydroxyisobutyric acid M-H
PI=HMDB
DATACOLLECTOR=HMDB
SMILES=CC(C)(O)C(O)=O
INCHI=InChI=1S/C4H8O3/c1-4(2,7)3(5)6/h7H,1-2H3,(H,5,6)
INCHIAUX=N/A
PUBMED=N/A
SUBMITUSER=mwang87
TAGS=
LIBRARYQUALITY=3
SPECTRUMID=CCMSLIB00000425803
SCANS=775
41.625 31.944 
45.52 49.167 
57.469 100.0 
103.1 31.389 
END IONS

BEGIN IONS
PEPMASS=185.154
CHARGE=1+
MSLEVEL=2
SOURCE_INSTRUMENT=Negative-Quattro_QQQ:25eV
FILENAME=hmdb_intermediate.mgf
SEQ=*..*
IONMODE=Negative
ORGANISM=HMDB
NAME=HMDB:HMDB00947-1343 Undecanoic acid M-H
PI=HMDB
DATACOLLECTOR=HMDB
SMILES=CCCCCCCCCCC(O)=O
INCHI=InChI=1S/C11H22O2/c1-2-3-4-5-6-7-8-9-10-11(12)13/h2-10H2,1H3,(H,12,13)
INCHIAUX=N/A
PUBMED=N/A
SUBMITUSER=mwang87
TAGS=
LIBRARYQUALITY=3
SPECTRUMID=CCMSLIB00000425804
SCANS=776
45.234 8.41 
59.165 3.053 
71.076 2.851 
80.068 6.74 
167.007 8.986 
183.515 11.29 
184.686 100.0 
END IONS

BEGIN IONS
PEPMASS=149.045
CHARGE=1+
MSLEVEL=2
SOURCE_INSTRUMENT=Positive-Quattro_QQQ:25eV
FILENAME=hmdb_intermediate.mgf
SEQ=*..*
IONMODE=Positive
ORGANISM=HMDB
NAME=HMDB:HMDB00694-965 L-2-Hydroxyglutaric acid M+H
PI=HMDB
DATACOLLECTOR=HMDB
SMILES=O[C@@H](CCC(O)=O)C(O)=O
INCHI=InChI=1S/C5H8O5/c6-3(5(9)10)1-2-4(7)8/h3,6H,1-2H2,(H,7,8)(H,9,10)/t3-/m0/s1
INCHIAUX=N/A
PUBMED=N/A
SUBMITUSER=mwang87
TAGS=
LIBRARYQUALITY=3
SPECTRUMID=CCMSLIB00000425805
SCANS=777
73.0 23.148 
84.0 6.166 
85.0 100.0 
105.0 3.708 
117.0 6.763 
END IONS

BEGIN IONS
PEPMASS=119.071
CHARGE=1+
MSLEVEL=2
SOURCE_INSTRUMENT=Positive-Quattro_QQQ:40eV
FILENAME=hmdb_intermediate.mgf
SEQ=*..*
IONMODE=Positive
ORGANISM=HMDB
NAME=HMDB:HMDB00754-1082 3-Hydroxyisovaleric acid M+H
PI=HMDB
DATACOLLECTOR=HMDB
SMILES=CC(C)(O)CC(O)=O
INCHI=InChI=1S/C5H10O3/c1-5(2,8)3-4(6)7/h8H,3H2,1-2H3,(H,6,7)
INCHIAUX=N/A
PUBMED=N/A
SUBMITUSER=mwang87
TAGS=
LIBRARYQUALITY=3
SPECTRUMID=CCMSLIB00000425806
SCANS=778
58.452 79.349 
73.029 100.0 
108.342 32.265 
116.888 37.074 
142.024 35.156 
148.685 33.223 
END IONS

BEGIN IONS
PEPMASS=127.051
CHARGE=1+
MSLEVEL=2
SOURCE_INSTRUMENT=Positive-Quattro_QQQ:10eV
FILENAME=hmdb_intermediate.mgf
SEQ=*..*
IONMODE=Positive
ORGANISM=HMDB
NAME=HMDB:HMDB00262-454 Thymine M+H
PI=HMDB
DATACOLLECTOR=HMDB
SMILES=CC1=CNC(=O)NC1=O
INCHI=InChI=1S/C5H6N2O2/c1-3-2-6-5(9)7-4(3)8/h2H,1H3,(H2,6,7,8,9)
INCHIAUX=N/A
PUBMED=N/A
SUBMITUSER=mwang87
TAGS=
LIBRARYQUALITY=3
SPECTRUMID=CCMSLIB00000425807
SCANS=779
84.076 4.938 
109.772 15.25 
126.961 100.0 
END IONS

BEGIN IONS
PEPMASS=195.088
CHARGE=1+
MSLEVEL=2
SOURCE_INSTRUMENT=Positive-Quattro_QQQ:40eV
FILENAME=hmdb_intermediate.mgf
SEQ=*..*
IONMODE=Positive
ORGANISM=HMDB
NAME=HMDB:HMDB01847-1704 Caffeine M+H
PI=HMDB
DATACOLLECTOR=HMDB
SMILES=CN1C=NC2=C1C(=O)N(C)C(=O)N2C
INCHI=InChI=1S/C8H10N4O2/c1-10-4-9-6-5(10)7(13)12(3)8(14)11(6)2/h4H,1-3H3
INCHIAUX=N/A
PUBMED=N/A
SUBMITUSER=mwang87
TAGS=
LIBRARYQUALITY=3
SPECTRUMID=CCMSLIB00000425808
SCANS=780
42.485 100.0 
54.311 6.351 
56.45 12.276 
68.527 23.727 
83.247 20.588 
123.006 15.843 
137.853 7.054 
END IONS

BEGIN IONS
PEPMASS=106.05
CHARGE=1+
MSLEVEL=2
SOURCE_INSTRUMENT=Positive-Quattro_QQQ:10eV
FILENAME=hmdb_intermediate.mgf
SEQ=*..*
IONMODE=Positive
ORGANISM=HMDB
NAME=HMDB:HMDB03406-2283 D-Serine M+H
PI=HMDB
DATACOLLECTOR=HMDB
SMILES=N[C@H](CO)C(O)=O
INCHI=InChI=1S/C3H7NO3/c4-2(1-5)3(6)7/h2,5H,1,4H2,(H,6,7)/t2-/m1/s1
INCHIAUX=N/A
PUBMED=N/A
SUBMITUSER=mwang87
TAGS=
LIBRARYQUALITY=3
SPECTRUMID=CCMSLIB00000425809
SCANS=781
60.01 100.0 
69.93 2.761 
87.9 5.965 
105.84 6.843 
END IONS

BEGIN IONS
PEPMASS=45.034
CHARGE=1+
MSLEVEL=2
SOURCE_INSTRUMENT=Positive-Quattro_QQQ:40eV
FILENAME=hmdb_intermediate.mgf
SEQ=*..*
IONMODE=Positive
ORGANISM=HMDB
NAME=HMDB:HMDB00990-1380 Acetaldehyde M+H
PI=HMDB
DATACOLLECTOR=HMDB
SMILES=CC=O
INCHI=InChI=1S/C2H4O/c1-2-3/h2H,1H3
INCHIAUX=N/A
PUBMED=N/A
SUBMITUSER=mwang87
TAGS=
LIBRARYQUALITY=3
SPECTRUMID=CCMSLIB00000425810
SCANS=782
30.285 100.0 
44.071 40.669 
45.074 82.582 
END IONS

BEGIN IONS
PEPMASS=206.082
CHARGE=1+
MSLEVEL=2
SOURCE_INSTRUMENT=Positive-Quattro_QQQ:40eV
FILENAME=hmdb_intermediate.mgf
SEQ=*..*
IONMODE=Positive
ORGANISM=HMDB
NAME=HMDB:HMDB00671-926 Indolelactic acid M+H
PI=HMDB
DATACOLLECTOR=HMDB
SMILES=OC(CC1=CNC2=C1C=CC=C2)C(O)=O
INCHI=InChI=1S/C11H11NO3/c13-10(11(14)15)5-7-6-12-9-4-2-1-3-8(7)9/h1-4,6,10,12-13H,5H2,(H,14,15)
INCHIAUX=N/A
PUBMED=N/A
SUBMITUSER=mwang87
TAGS=
LIBRARYQUALITY=3
SPECTRUMID=CCMSLIB00000425811
SCANS=783
77.123 20.765 
90.927 55.738 
103.02 19.672 
115.051 46.995 
130.034 100.0 
142.09 12.978 
END IONS

BEGIN IONS
PEPMASS=189.124
CHARGE=1+
MSLEVEL=2
SOURCE_INSTRUMENT=Positive-Quattro_QQQ:25eV
FILENAME=hmdb_intermediate.mgf
SEQ=*..*
IONMODE=Positive
ORGANISM=HMDB
NAME=HMDB:HMDB00759-1090 Glycyl-L-leucine M+H
PI=HMDB
DATACOLLECTOR=HMDB
SMILES=CC(C)C[C@H](NC(=O)CN)C(O)=O
INCHI=InChI=1S/C8H16N2O3/c1-5(2)3-6(8(12)13)10-7(11)4-9/h5-6H,3-4,9H2,1-2H3,(H,10,11)(H,12,13)/t6-/m0/s1
INCHIAUX=N/A
PUBMED=N/A
SUBMITUSER=mwang87
TAGS=
LIBRARYQUALITY=3
SPECTRUMID=CCMSLIB00000425812
SCANS=784
44.391 3.571 
86.112 100.0 
131.942 4.893 
END IONS

BEGIN IONS
PEPMASS=145.05
CHARGE=1+
MSLEVEL=2
SOURCE_INSTRUMENT=Positive-Quattro_QQQ:25eV
FILENAME=hmdb_intermediate.mgf
SEQ=*..*
IONMODE=Positive
ORGANISM=HMDB
NAME=HMDB:HMDB00393-601 3-Hexenedioic acid M+H
PI=HMDB
DATACOLLECTOR=HMDB
SMILES=OC(=O)C\C=C\CC(O)=O
INCHI=InChI=1S/C6H8O4/c7-5(8)3-1-2-4-6(9)10/h1-2H,3-4H2,(H,7,8)(H,9,10)/b2-1+
INCHIAUX=N/A
PUBMED=N/A
SUBMITUSER=mwang87
TAGS=
LIBRARYQUALITY=3
SPECTRUMID=CCMSLIB00000425813
SCANS=785
57.0 14.4533530623 
71.0 4.826217357 
81.1 5.2018056642 
99.1 100.0 
END IONS

BEGIN IONS
PEPMASS=133.05
CHARGE=1+
MSLEVEL=2
SOURCE_INSTRUMENT=Positive-Quattro_QQQ:10eV
FILENAME=hmdb_intermediate.mgf
SEQ=*..*
IONMODE=Positive
ORGANISM=HMDB
NAME=HMDB:HMDB02001-1935 Dimethylmalonic acid M+H
PI=HMDB
DATACOLLECTOR=HMDB
SMILES=CC(C)(C(O)=O)C(O)=O
INCHI=InChI=1S/C5H8O4/c1-5(2,3(6)7)4(8)9/h1-2H3,(H,6,7)(H,8,9)
INCHIAUX=N/A
PUBMED=N/A
SUBMITUSER=mwang87
TAGS=
LIBRARYQUALITY=3
SPECTRUMID=CCMSLIB00000425814
SCANS=786
63.0 3.616 
69.0 3.035 
87.0 100.0 
115.0 32.598 
END IONS

BEGIN IONS
PEPMASS=118.087
CHARGE=1+
MSLEVEL=2
SOURCE_INSTRUMENT=Positive-Quattro_QQQ:40eV
FILENAME=hmdb_intermediate.mgf
SEQ=*..*
IONMODE=Positive
ORGANISM=HMDB
NAME=HMDB:HMDB00043-74 Betaine M+H
PI=HMDB
DATACOLLECTOR=HMDB
SMILES=C[N+](C)(C)CC([O-])=O
INCHI=InChI=1S/C5H11NO2/c1-6(2,3)4-5(7)8/h4H2,1-3H3
INCHIAUX=N/A
PUBMED=N/A
SUBMITUSER=mwang87
TAGS=
LIBRARYQUALITY=3
SPECTRUMID=CCMSLIB00000425815
SCANS=787
43.402 6.399 
58.237 100.0 
118.102 4.074 
END IONS

BEGIN IONS
PEPMASS=337.131
CHARGE=1+
MSLEVEL=2
SOURCE_INSTRUMENT=Positive-Quattro_QQQ:25eV
FILENAME=hmdb_intermediate.mgf
SEQ=*..*
IONMODE=Positive
ORGANISM=HMDB
NAME=HMDB:HMDB03409-2290 Berberine M+H
PI=HMDB
DATACOLLECTOR=HMDB
SMILES=COC1=C(OC)C2=C[N+]3=C(C=C2C=C1)C1=CC2=C(OCO2)C=C1CC3
INCHI=InChI=1S/C20H18NO4/c1-22-17-4-3-12-7-16-14-9-19-18(24-11-25-19)8-13(14)5-6-21(16)10-15(12)20(17)23-2/h3-4,7-10H,5-6,11H2,1-2H3/q+1
INCHIAUX=N/A
PUBMED=N/A
SUBMITUSER=mwang87
TAGS=
LIBRARYQUALITY=3
SPECTRUMID=CCMSLIB00000425816
SCANS=788
292.789 23.879 
321.253 100.0 
END IONS

BEGIN IONS
PEPMASS=151.112
CHARGE=1+
MSLEVEL=2
SOURCE_INSTRUMENT=Positive-Quattro_QQQ:40eV
FILENAME=hmdb_intermediate.mgf
SEQ=*..*
IONMODE=Positive
ORGANISM=HMDB
NAME=HMDB:HMDB01878-1776 Thymol M+H
PI=HMDB
DATACOLLECTOR=HMDB
SMILES=CC(C)C1=C(O)C=C(C)C=C1
INCHI=InChI=1S/C10H14O/c1-7(2)9-5-4-8(3)6-10(9)11/h4-7,11H,1-3H3
INCHIAUX=N/A
PUBMED=N/A
SUBMITUSER=mwang87
TAGS=
LIBRARYQUALITY=3
SPECTRUMID=CCMSLIB00000425817
SCANS=789
52.531 62.255 
54.903 37.97 
67.883 69.189 
80.863 100.0 
94.217 61.847 
99.459 12.878 
109.694 51.437 
120.678 40.219 
142.147 13.078 
157.5 15.934 
169.484 15.527 
END IONS

BEGIN IONS
PEPMASS=142.027
CHARGE=1+
MSLEVEL=2
SOURCE_INSTRUMENT=Positive-Quattro_QQQ:25eV
FILENAME=hmdb_intermediate.mgf
SEQ=*..*
IONMODE=Positive
ORGANISM=HMDB
NAME=HMDB:HMDB60151-371 O-Phosphoethanolamine M+H
PI=HMDB
DATACOLLECTOR=HMDB
SMILES=NCCOP(O)(O)=O
INCHI=InChI=1S/C2H8NO4P/c3-1-2-7-8(4,5)6/h1-3H2,(H2,4,5,6)
INCHIAUX=N/A
PUBMED=N/A
SUBMITUSER=mwang87
TAGS=
LIBRARYQUALITY=3
SPECTRUMID=CCMSLIB00000425818
SCANS=790
44.621 100.0 
END IONS

BEGIN IONS
PEPMASS=177.062
CHARGE=1+
MSLEVEL=2
SOURCE_INSTRUMENT=Positive-Quattro_QQQ:40eV
FILENAME=hmdb_intermediate.mgf
SEQ=*..*
IONMODE=Positive
ORGANISM=HMDB
NAME=HMDB:HMDB01209-1468 Allantoic acid M+H
PI=HMDB
DATACOLLECTOR=HMDB
SMILES=NC(=O)NC(NC(N)=O)C(O)=O
INCHI=InChI=1S/C4H8N4O4/c5-3(11)7-1(2(9)10)8-4(6)12/h1H,(H,9,10)(H3,5,7,11)(H3,6,8,12)
INCHIAUX=N/A
PUBMED=N/A
SUBMITUSER=mwang87
TAGS=
LIBRARYQUALITY=3
SPECTRUMID=CCMSLIB00000425819
SCANS=791
61.0 100.0 
74.0 43.799 
END IONS

BEGIN IONS
PEPMASS=90.0555
CHARGE=1+
MSLEVEL=2
SOURCE_INSTRUMENT=Positive-Quattro_QQQ:25eV
FILENAME=hmdb_intermediate.mgf
SEQ=*..*
IONMODE=Positive
ORGANISM=HMDB
NAME=HMDB:HMDB00161-252 L-Alanine M+H
PI=HMDB
DATACOLLECTOR=HMDB
SMILES=C[C@H](N)C(O)=O
INCHI=InChI=1S/C3H7NO2/c1-2(4)3(5)6/h2H,4H2,1H3,(H,5,6)/t2-/m0/s1
INCHIAUX=N/A
PUBMED=N/A
SUBMITUSER=mwang87
TAGS=
LIBRARYQUALITY=3
SPECTRUMID=CCMSLIB00000425820
SCANS=792
44.294 100.0 
45.441 5.61 
89.838 17.52 
END IONS

BEGIN IONS
PEPMASS=211.082
CHARGE=1+
MSLEVEL=2
SOURCE_INSTRUMENT=Positive-Quattro_QQQ:40eV
FILENAME=hmdb_intermediate.mgf
SEQ=*..*
IONMODE=Positive
ORGANISM=HMDB
NAME=HMDB:HMDB03219-2214 Sedoheptulose M+H
PI=HMDB
DATACOLLECTOR=HMDB
SMILES=OCC(O)C(O)C(O)C(O)C(=O)CO
INCHI=InChI=1S/C7H14O7/c8-1-3(10)5(12)7(14)6(13)4(11)2-9/h3,5-10,12-14H,1-2H2
INCHIAUX=N/A
PUBMED=N/A
SUBMITUSER=mwang87
TAGS=
LIBRARYQUALITY=3
SPECTRUMID=CCMSLIB00000425821
SCANS=793
56.0 100.0 
68.0 78.597 
76.0 75.461 
110.0 75.977 
END IONS

BEGIN IONS
PEPMASS=117.055
CHARGE=1+
MSLEVEL=2
SOURCE_INSTRUMENT=Positive-Quattro_QQQ:25eV
FILENAME=hmdb_intermediate.mgf
SEQ=*..*
IONMODE=Positive
ORGANISM=HMDB
NAME=HMDB:HMDB00019-32 Alpha-ketoisovaleric acid M+H
PI=HMDB
DATACOLLECTOR=HMDB
SMILES=CC(C)C(=O)C(O)=O
INCHI=InChI=1S/C5H8O3/c1-3(2)4(6)5(7)8/h3H,1-2H3,(H,7,8)
INCHIAUX=N/A
PUBMED=N/A
SUBMITUSER=mwang87
TAGS=
LIBRARYQUALITY=3
SPECTRUMID=CCMSLIB00000425822
SCANS=794
61.0 4.794 
72.0 11.369 
85.0 100.0 
117.0 14.676 
END IONS

BEGIN IONS
PEPMASS=89.0239
CHARGE=1+
MSLEVEL=2
SOURCE_INSTRUMENT=Negative-Quattro_QQQ:10eV
FILENAME=hmdb_intermediate.mgf
SEQ=*..*
IONMODE=Negative
ORGANISM=HMDB
NAME=HMDB:HMDB00190-301 L-Lactic acid M-H
PI=HMDB
DATACOLLECTOR=HMDB
SMILES=C[C@H](O)C(O)=O
INCHI=InChI=1S/C3H6O3/c1-2(4)3(5)6/h2,4H,1H3,(H,5,6)/t2-/m0/s1
INCHIAUX=N/A
PUBMED=N/A
SUBMITUSER=mwang87
TAGS=
LIBRARYQUALITY=3
SPECTRUMID=CCMSLIB00000425823
SCANS=795
43.642 44.755 
45.597 41.084 
89.277 100.0 
END IONS

BEGIN IONS
PEPMASS=132.066
CHARGE=1+
MSLEVEL=2
SOURCE_INSTRUMENT=Positive-Quattro_QQQ:40eV
FILENAME=hmdb_intermediate.mgf
SEQ=*..*
IONMODE=Positive
ORGANISM=HMDB
NAME=HMDB:HMDB00766-1106 N-Acetyl-L-alanine M+H
PI=HMDB
DATACOLLECTOR=HMDB
SMILES=C[C@H](NC(C)=O)C(O)=O
INCHI=InChI=1S/C5H9NO3/c1-3(5(8)9)6-4(2)7/h3H,1-2H3,(H,6,7)(H,8,9)/t3-/m0/s1
INCHIAUX=N/A
PUBMED=N/A
SUBMITUSER=mwang87
TAGS=
LIBRARYQUALITY=3
SPECTRUMID=CCMSLIB00000425824
SCANS=796
43.195 100.0 
45.443 5.185 
89.897 14.773 
132.003 5.587 
END IONS

BEGIN IONS
PEPMASS=131.13
CHARGE=1+
MSLEVEL=2
SOURCE_INSTRUMENT=Positive-Quattro_QQQ:10eV
FILENAME=hmdb_intermediate.mgf
SEQ=*..*
IONMODE=Positive
ORGANISM=HMDB
NAME=HMDB:HMDB01432-1577 Agmatine M+H
PI=HMDB
DATACOLLECTOR=HMDB
SMILES=NCCCCNC(N)=N
INCHI=InChI=1S/C5H14N4/c6-3-1-2-4-9-5(7)8/h1-4,6H2,(H4,7,8,9)
INCHIAUX=N/A
PUBMED=N/A
SUBMITUSER=mwang87
TAGS=
LIBRARYQUALITY=3
SPECTRUMID=CCMSLIB00000425825
SCANS=797
72.0 100.0 
97.0 2.985 
114.0 32.269 
131.0 55.346 
END IONS

BEGIN IONS
PEPMASS=154.05
CHARGE=1+
MSLEVEL=2
SOURCE_INSTRUMENT=Positive-Quattro_QQQ:10eV
FILENAME=hmdb_intermediate.mgf
SEQ=*..*
IONMODE=Positive
ORGANISM=HMDB
NAME=HMDB:HMDB01972-1914 3-Aminosalicylic acid M+H
PI=HMDB
DATACOLLECTOR=HMDB
SMILES=NC1=CC=CC(C(O)=O)=C1O
INCHI=InChI=1S/C7H7NO3/c8-5-3-1-2-4(6(5)9)7(10)11/h1-3,9H,8H2,(H,10,11)
INCHIAUX=N/A
PUBMED=N/A
SUBMITUSER=mwang87
TAGS=
LIBRARYQUALITY=3
SPECTRUMID=CCMSLIB00000425826
SCANS=798
80.0 1.647 
108.0 4.538 
136.0 100.0 
154.0 3.771 
END IONS

BEGIN IONS
PEPMASS=184.097
CHARGE=1+
MSLEVEL=2
SOURCE_INSTRUMENT=Positive-Quattro_QQQ:10eV
FILENAME=hmdb_intermediate.mgf
SEQ=*..*
IONMODE=Positive
ORGANISM=HMDB
NAME=HMDB:HMDB00819-1164 Normetanephrine M+H
PI=HMDB
DATACOLLECTOR=HMDB
SMILES=COC1=CC(=CC=C1O)C(O)CN
INCHI=InChI=1S/C9H13NO3/c1-13-9-4-6(8(12)5-10)2-3-7(9)11/h2-4,8,11-12H,5,10H2,1H3
INCHIAUX=N/A
PUBMED=N/A
SUBMITUSER=mwang87
TAGS=
LIBRARYQUALITY=3
SPECTRUMID=CCMSLIB00000425827
SCANS=799
106.084 2.989 
121.02 3.623 
134.004 7.971 
148.965 11.594 
165.995 100.0 
END IONS

BEGIN IONS
PEPMASS=219.113
CHARGE=1+
MSLEVEL=2
SOURCE_INSTRUMENT=Positive-Quattro_QQQ:10eV
FILENAME=hmdb_intermediate.mgf
SEQ=*..*
IONMODE=Positive
ORGANISM=HMDB
NAME=HMDB:HMDB01238-1478 N-Acetylserotonin M+H
PI=HMDB
DATACOLLECTOR=HMDB
SMILES=CC(=O)NCCC1=CNC2=C1C=C(O)C=C2
INCHI=InChI=1S/C12H14N2O2/c1-8(15)13-5-4-9-7-14-12-3-2-10(16)6-11(9)12/h2-3,6-7,14,16H,4-5H2,1H3,(H,13,15)
INCHIAUX=N/A
PUBMED=N/A
SUBMITUSER=mwang87
TAGS=
LIBRARYQUALITY=3
SPECTRUMID=CCMSLIB00000425828
SCANS=800
160.0 100.0 
177.0 1.887 
202.0 7.706 
219.0 19.996 
END IONS

BEGIN IONS
PEPMASS=162.092
CHARGE=1+
MSLEVEL=2
SOURCE_INSTRUMENT=Positive-Quattro_QQQ:10eV
FILENAME=hmdb_intermediate.mgf
SEQ=*..*
IONMODE=Positive
ORGANISM=HMDB
NAME=HMDB:HMDB03447-2313 Tryptophanol M+H
PI=HMDB
DATACOLLECTOR=HMDB
SMILES=OCCC1=CNC2=CC=CC=C12
INCHI=InChI=1S/C10H11NO/c12-6-5-8-7-11-10-4-2-1-3-9(8)10/h1-4,7,11-12H,5-6H2
INCHIAUX=N/A
PUBMED=N/A
SUBMITUSER=mwang87
TAGS=
LIBRARYQUALITY=3
SPECTRUMID=CCMSLIB00000425829
SCANS=801
144.0 100.0 
162.0 69.869 
END IONS

BEGIN IONS
PEPMASS=777.695
CHARGE=1+
MSLEVEL=2
SOURCE_INSTRUMENT=Positive-Quattro_QQQ:10eV
FILENAME=hmdb_intermediate.mgf
SEQ=*..*
IONMODE=Positive
ORGANISM=HMDB
NAME=HMDB:HMDB00248-424 Thyroxine M+H
PI=HMDB
DATACOLLECTOR=HMDB
SMILES=N[C@@H](CC1=CC(I)=C(OC2=CC(I)=C(O)C(I)=C2)C(I)=C1)C(O)=O
INCHI=InChI=1S/C15H11I4NO4/c16-8-4-7(5-9(17)13(8)21)24-14-10(18)1-6(2-11(14)19)3-12(20)15(22)23/h1-2,4-5,12,21H,3,20H2,(H,22,23)/t12-/m0/s1
INCHIAUX=N/A
PUBMED=N/A
SUBMITUSER=mwang87
TAGS=
LIBRARYQUALITY=3
SPECTRUMID=CCMSLIB00000425830
SCANS=802
58.468 49.043 
112.435 46.49 
133.445 61.785 
138.225 46.49 
144.516 41.395 
199.623 51.596 
207.047 51.596 
243.285 74.527 
258.007 97.458 
270.088 61.785 
280.532 41.395 
293.116 43.948 
353.143 46.49 
389.011 54.137 
403.987 41.395 
412.923 49.043 
421.481 61.785 
444.765 41.395 
463.014 43.948 
470.189 41.395 
531.106 41.395 
571.636 54.137 
575.789 74.527 
585.355 100.0 
630.542 56.69 
657.478 61.785 
686.302 41.395 
698.134 51.596 
716.889 46.49 
734.51 46.49 
760.817 61.785 
784.606 43.948 
803.36 41.395 
807.136 49.043 
END IONS

BEGIN IONS
PEPMASS=198.077
CHARGE=1+
MSLEVEL=2
SOURCE_INSTRUMENT=Positive-Quattro_QQQ:10eV
FILENAME=hmdb_intermediate.mgf
SEQ=*..*
IONMODE=Positive
ORGANISM=HMDB
NAME=HMDB:HMDB00181-286 L-Dopa M+H
PI=HMDB
DATACOLLECTOR=HMDB
SMILES=N[C@@H](CC1=CC(O)=C(O)C=C1)C(O)=O
INCHI=InChI=1S/C9H11NO4/c10-6(9(13)14)3-5-1-2-7(11)8(12)4-5/h1-2,4,6,11-12H,3,10H2,(H,13,14)/t6-/m0/s1
INCHIAUX=N/A
PUBMED=N/A
SUBMITUSER=mwang87
TAGS=
LIBRARYQUALITY=3
SPECTRUMID=CCMSLIB00000425831
SCANS=803
138.982 18.932 
151.998 100.0 
162.961 5.37 
180.96 81.553 
197.967 71.845 
END IONS

BEGIN IONS
PEPMASS=301.217
CHARGE=1+
MSLEVEL=2
SOURCE_INSTRUMENT=Positive-Quattro_QQQ:25eV
FILENAME=hmdb_intermediate.mgf
SEQ=*..*
IONMODE=Positive
ORGANISM=HMDB
NAME=HMDB:HMDB01852-1718 All-trans-retinoic acid M+H
PI=HMDB
DATACOLLECTOR=HMDB
SMILES=C\C(\C=C\C1=C(C)CCCC1(C)C)=C/C=C/C(/C)=C/C(O)=O
INCHI=InChI=1S/C20H28O2/c1-15(8-6-9-16(2)14-19(21)22)11-12-18-17(3)10-7-13-20(18,4)5/h6,8-9,11-12,14H,7,10,13H2,1-5H3,(H,21,22)/b9-6+,12-11+,15-8+,16-14+
INCHIAUX=N/A
PUBMED=N/A
SUBMITUSER=mwang87
TAGS=
LIBRARYQUALITY=3
SPECTRUMID=CCMSLIB00000425832
SCANS=804
55.454 41.436 
71.111 31.215 
80.928 24.723 
94.473 24.446 
95.219 26.242 
106.279 12.153 
132.501 23.341 
147.042 77.624 
160.962 20.442 
171.9 31.63 
181.967 72.788 
190.419 23.341 
198.498 14.641 
218.883 100.0 
229.574 71.819 
243.62 78.316 
254.808 61.046 
283.401 99.17 
289.493 26.657 
END IONS

BEGIN IONS
PEPMASS=109.065
CHARGE=1+
MSLEVEL=2
SOURCE_INSTRUMENT=Positive-Quattro_QQQ:10eV
FILENAME=hmdb_intermediate.mgf
SEQ=*..*
IONMODE=Positive
ORGANISM=HMDB
NAME=HMDB:HMDB01858-1729 p-Cresol M+H
PI=HMDB
DATACOLLECTOR=HMDB
SMILES=CC1=CC=C(O)C=C1
INCHI=InChI=1S/C7H8O/c1-6-2-4-7(8)5-3-6/h2-5,8H,1H3
INCHIAUX=N/A
PUBMED=N/A
SUBMITUSER=mwang87
TAGS=
LIBRARYQUALITY=3
SPECTRUMID=CCMSLIB00000425833
SCANS=805
60.0 6.366 
66.0 7.507 
80.0 20.982 
93.0 13.39 
108.0 100.0 
END IONS

BEGIN IONS
PEPMASS=147.077
CHARGE=1+
MSLEVEL=2
SOURCE_INSTRUMENT=Positive-Quattro_QQQ:40eV
FILENAME=hmdb_intermediate.mgf
SEQ=*..*
IONMODE=Positive
ORGANISM=HMDB
NAME=HMDB:HMDB03423-2303 D-Glutamine M+H
PI=HMDB
DATACOLLECTOR=HMDB
SMILES=N[C@H](CCC(N)=O)C(O)=O
INCHI=InChI=1S/C5H10N2O3/c6-3(5(9)10)1-2-4(7)8/h3H,1-2,6H2,(H2,7,8)(H,9,10)/t3-/m1/s1
INCHIAUX=N/A
PUBMED=N/A
SUBMITUSER=mwang87
TAGS=
LIBRARYQUALITY=3
SPECTRUMID=CCMSLIB00000425834
SCANS=806
41.22 40.752 
56.06 100.0 
64.9 14.461 
83.94 47.096 
END IONS

BEGIN IONS
PEPMASS=415.394
CHARGE=1+
MSLEVEL=2
SOURCE_INSTRUMENT=Positive-Quattro_QQQ:25eV
FILENAME=hmdb_intermediate.mgf
SEQ=*..*
IONMODE=Positive
ORGANISM=HMDB
NAME=HMDB:HMDB00852-1203 Beta-Sitosterol M+H
PI=HMDB
DATACOLLECTOR=HMDB
SMILES=[H][C@@]1(CC[C@@]2([H])[C@]3([H])CC=C4C[C@@H](O)CC[C@]4(C)[C@@]3([H])CC[C@]12C)[C@H](C)CC[C@@H](CC)C(C)C
INCHI=InChI=1S/C29H50O/c1-7-21(19(2)3)9-8-20(4)25-12-13-26-24-11-10-22-18-23(30)14-16-28(22,5)27(24)15-17-29(25,26)6/h10,19-21,23-27,30H,7-9,11-18H2,1-6H3/t20-,21-,23+,24+,25-,26+,27+,28+,29-/m1/s1
INCHIAUX=N/A
PUBMED=N/A
SUBMITUSER=mwang87
TAGS=
LIBRARYQUALITY=3
SPECTRUMID=CCMSLIB00000425835
SCANS=807
43.351 21.134 
57.135 53.351 
69.148 42.268 
81.106 75.258 
85.048 34.536 
95.118 67.01 
108.99 68.041 
123.081 45.876 
133.027 53.351 
134.909 38.66 
147.104 46.649 
159.01 61.082 
172.955 60.309 
175.056 52.835 
186.986 39.948 
199.004 35.052 
212.833 50.258 
214.832 31.701 
226.951 36.082 
239.056 25.258 
252.956 31.186 
254.675 21.392 
270.856 34.536 
285.063 26.546 
379.171 38.66 
397.138 64.433 
415.153 100.0 
END IONS

BEGIN IONS
PEPMASS=262.14
CHARGE=1+
MSLEVEL=2
SOURCE_INSTRUMENT=Positive-Quattro_QQQ:25eV
FILENAME=hmdb_intermediate.mgf
SEQ=*..*
IONMODE=Positive
ORGANISM=HMDB
NAME=HMDB:HMDB04987-2425 Alpha-Aspartyl-lysine M+H
PI=HMDB
DATACOLLECTOR=HMDB
SMILES=NCCCC[C@H](NC(=O)[C@@H](N)CC(O)=O)C(O)=O
INCHI=InChI=1S/C10H19N3O5/c11-4-2-1-3-7(10(17)18)13-9(16)6(12)5-8(14)15/h6-7H,1-5,11-12H2,(H,13,16)(H,14,15)(H,17,18)/t6-,7-/m0/s1
INCHIAUX=N/A
PUBMED=N/A
SUBMITUSER=mwang87
TAGS=
LIBRARYQUALITY=3
SPECTRUMID=CCMSLIB00000425836
SCANS=808
70.0 7.748 
84.0 100.0 
88.0 13.556 
111.0 2.76 
129.0 23.135 
147.0 2.709 
END IONS

BEGIN IONS
PEPMASS=104.071
CHARGE=1+
MSLEVEL=2
SOURCE_INSTRUMENT=Positive-Quattro_QQQ:10eV
FILENAME=hmdb_intermediate.mgf
SEQ=*..*
IONMODE=Positive
ORGANISM=HMDB
NAME=HMDB:HMDB00112-162 Gamma-Aminobutyric acid M+H
PI=HMDB
DATACOLLECTOR=HMDB
SMILES=NCCCC(O)=O
INCHI=InChI=1S/C4H9NO2/c5-3-1-2-4(6)7/h1-3,5H2,(H,6,7)
INCHIAUX=N/A
PUBMED=N/A
SUBMITUSER=mwang87
TAGS=
LIBRARYQUALITY=3
SPECTRUMID=CCMSLIB00000425837
SCANS=809
43.291 22.817 
45.281 17.031 
69.012 50.655 
103.962 100.0 
END IONS

BEGIN IONS
PEPMASS=415.394
CHARGE=1+
MSLEVEL=2
SOURCE_INSTRUMENT=Positive-Quattro_QQQ:10eV
FILENAME=hmdb_intermediate.mgf
SEQ=*..*
IONMODE=Positive
ORGANISM=HMDB
NAME=HMDB:HMDB00852-1202 Beta-Sitosterol M+H
PI=HMDB
DATACOLLECTOR=HMDB
SMILES=[H][C@@]1(CC[C@@]2([H])[C@]3([H])CC=C4C[C@@H](O)CC[C@]4(C)[C@@]3([H])CC[C@]12C)[C@H](C)CC[C@@H](CC)C(C)C
INCHI=InChI=1S/C29H50O/c1-7-21(19(2)3)9-8-20(4)25-12-13-26-24-11-10-22-18-23(30)14-16-28(22,5)27(24)15-17-29(25,26)6/h10,19-21,23-27,30H,7-9,11-18H2,1-6H3/t20-,21-,23+,24+,25-,26+,27+,28+,29-/m1/s1
INCHIAUX=N/A
PUBMED=N/A
SUBMITUSER=mwang87
TAGS=
LIBRARYQUALITY=3
SPECTRUMID=CCMSLIB00000425838
SCANS=810
113.159 1.315 
143.036 1.764 
271.02 1.918 
287.062 2.336 
361.165 1.3 
369.171 1.655 
379.139 6.436 
397.076 18.812 
415.106 100.0 
END IONS

BEGIN IONS
PEPMASS=313.311
CHARGE=1+
MSLEVEL=2
SOURCE_INSTRUMENT=Positive-Quattro_QQQ:40eV
FILENAME=hmdb_intermediate.mgf
SEQ=*..*
IONMODE=Positive
ORGANISM=HMDB
NAME=HMDB:HMDB00801-1140 Phytanic acid M+H
PI=HMDB
DATACOLLECTOR=HMDB
SMILES=CC(C)CCCC(C)CCCC(C)CCCC(C)CC(O)=O
INCHI=InChI=1S/C20H40O2/c1-16(2)9-6-10-17(3)11-7-12-18(4)13-8-14-19(5)15-20(21)22/h16-19H,6-15H2,1-5H3,(H,21,22)
INCHIAUX=N/A
PUBMED=N/A
SUBMITUSER=mwang87
TAGS=
LIBRARYQUALITY=3
SPECTRUMID=CCMSLIB00000425839
SCANS=811
71.15 100.0 
81.27 53.435 
95.29 30.808 
END IONS

BEGIN IONS
PEPMASS=137.046
CHARGE=1+
MSLEVEL=2
SOURCE_INSTRUMENT=Positive-Quattro_QQQ:40eV
FILENAME=hmdb_intermediate.mgf
SEQ=*..*
IONMODE=Positive
ORGANISM=HMDB
NAME=HMDB:HMDB00157-244 Hypoxanthine M+H
PI=HMDB
DATACOLLECTOR=HMDB
SMILES=OC1=NC=NC2=C1NC=N2
INCHI=InChI=1S/C5H4N4O/c10-5-3-4(7-1-6-3)8-2-9-5/h1-2H,(H2,6,7,8,9,10)
INCHIAUX=N/A
PUBMED=N/A
SUBMITUSER=mwang87
TAGS=
LIBRARYQUALITY=3
SPECTRUMID=CCMSLIB00000425840
SCANS=812
40.337 11.986 
55.204 100.0 
65.123 30.479 
82.067 27.74 
92.026 17.123 
109.855 15.325 
118.981 10.531 
136.835 26.712 
END IONS

BEGIN IONS
PEPMASS=136.043
CHARGE=1+
MSLEVEL=2
SOURCE_INSTRUMENT=Positive-Quattro_QQQ:10eV
FILENAME=hmdb_intermediate.mgf
SEQ=*..*
IONMODE=Positive
ORGANISM=HMDB
NAME=HMDB:HMDB02108-2007 Methylcysteine M+H
PI=HMDB
DATACOLLECTOR=HMDB
SMILES=CSC[C@H](N)C(O)=O
INCHI=InChI=1S/C4H9NO2S/c1-8-2-3(5)4(6)7/h3H,2,5H2,1H3,(H,6,7)/t3-/m0/s1
INCHIAUX=N/A
PUBMED=N/A
SUBMITUSER=mwang87
TAGS=
LIBRARYQUALITY=3
SPECTRUMID=CCMSLIB00000425841
SCANS=813
73.0 12.584 
77.0 2.497 
90.0 3.769 
119.0 100.0 
136.0 4.155 
END IONS

BEGIN IONS
PEPMASS=137.133
CHARGE=1+
MSLEVEL=2
SOURCE_INSTRUMENT=Positive-Quattro_QQQ:10eV
FILENAME=hmdb_intermediate.mgf
SEQ=*..*
IONMODE=Positive
ORGANISM=HMDB
NAME=HMDB:HMDB04321-2382 (+)-Limonene M+H
PI=HMDB
DATACOLLECTOR=HMDB
SMILES=CC(=C)[C@@H]1CCC(C)=CC1
INCHI=InChI=1S/C10H16/c1-8(2)10-6-4-9(3)5-7-10/h4,10H,1,5-7H2,2-3H3/t10-/m0/s1
INCHIAUX=N/A
PUBMED=N/A
SUBMITUSER=mwang87
TAGS=
LIBRARYQUALITY=3
SPECTRUMID=CCMSLIB00000425842
SCANS=814
67.0 10.082 
80.0 21.761 
94.0 35.448 
95.0 23.349 
108.0 15.67 
118.0 13.775 
136.0 100.0 
END IONS

BEGIN IONS
PEPMASS=308.111
CHARGE=1+
MSLEVEL=2
SOURCE_INSTRUMENT=Positive-Quattro_QQQ:10eV
FILENAME=hmdb_intermediate.mgf
SEQ=*..*
IONMODE=Positive
ORGANISM=HMDB
NAME=HMDB:HMDB05005-2436 Tolnaftate M+H
PI=HMDB
DATACOLLECTOR=HMDB
SMILES=CN(C(=S)OC1=CC2=CC=CC=C2C=C1)C1=CC=CC(C)=C1
INCHI=InChI=1S/C19H17NOS/c1-14-6-5-9-17(12-14)20(2)19(22)21-18-11-10-15-7-3-4-8-16(15)13-18/h3-13H,1-2H3
INCHIAUX=N/A
PUBMED=N/A
SUBMITUSER=mwang87
TAGS=
LIBRARYQUALITY=3
SPECTRUMID=CCMSLIB00000425843
SCANS=815
119.0 4.778 
147.0 100.0 
163.0 8.056 
179.0 34.006 
307.0 75.217 
END IONS

BEGIN IONS
PEPMASS=289.217
CHARGE=1+
MSLEVEL=2
SOURCE_INSTRUMENT=Positive-Quattro_QQQ:40eV
FILENAME=hmdb_intermediate.mgf
SEQ=*..*
IONMODE=Positive
ORGANISM=HMDB
NAME=HMDB:HMDB00628-857 Epitestosterone M+H
PI=HMDB
DATACOLLECTOR=HMDB
SMILES=[H][C@@]12CC[C@@H](O)[C@@]1(C)CC[C@@]1([H])[C@@]2([H])CCC2=CC(=O)CC[C@]12C
INCHI=InChI=1S/C19H28O2/c1-18-9-7-13(20)11-12(18)3-4-14-15-5-6-17(21)19(15,2)10-8-16(14)18/h11,14-17,21H,3-10H2,1-2H3/t14-,15-,16-,17+,18-,19-/m0/s1
INCHIAUX=N/A
PUBMED=N/A
SUBMITUSER=mwang87
TAGS=
LIBRARYQUALITY=3
SPECTRUMID=CCMSLIB00000425844
SCANS=816
43.566 10.5 
55.449 12.167 
67.351 15.25 
79.293 50.333 
91.26 21.667 
97.225 100.0 
109.172 88.0 
123.148 12.333 
END IONS

BEGIN IONS
PEPMASS=143.009
CHARGE=1+
MSLEVEL=2
SOURCE_INSTRUMENT=Positive-Quattro_QQQ:10eV
FILENAME=hmdb_intermediate.mgf
SEQ=*..*
IONMODE=Positive
ORGANISM=HMDB
NAME=HMDB:HMDB02818-2137 Alloxan M+H
PI=HMDB
DATACOLLECTOR=HMDB
SMILES=O=C1NC(=O)C(=O)C(=O)N1
INCHI=InChI=1S/C4H2N2O4/c7-1-2(8)5-4(10)6-3(1)9/h(H2,5,6,8,9,10)
INCHIAUX=N/A
PUBMED=N/A
SUBMITUSER=mwang87
TAGS=
LIBRARYQUALITY=3
SPECTRUMID=CCMSLIB00000425845
SCANS=817
55.0 16.6 
73.0 29.387 
77.0 100.0 
97.0 6.699 
111.0 23.642 
115.0 42.361 
125.0 9.239 
143.0 31.851 
END IONS

BEGIN IONS
PEPMASS=373.159
CHARGE=1+
MSLEVEL=2
SOURCE_INSTRUMENT=Positive-Quattro_QQQ:10eV
FILENAME=hmdb_intermediate.mgf
SEQ=*..*
IONMODE=Positive
ORGANISM=HMDB
NAME=HMDB:HMDB02873-2149 Deacetyldiltiazem M+H
PI=HMDB
DATACOLLECTOR=HMDB
SMILES=COC1=CC=C(C=C1)[C@@H]1SC2=CC=CC=C2N(CCN(C)C)C(=O)[C@@H]1O
INCHI=InChI=1S/C20H24N2O3S/c1-21(2)12-13-22-16-6-4-5-7-17(16)26-19(18(23)20(22)24)14-8-10-15(25-3)11-9-14/h4-11,18-19,23H,12-13H2,1-3H3/t18-,19+/m1/s1
INCHIAUX=N/A
PUBMED=N/A
SUBMITUSER=mwang87
TAGS=
LIBRARYQUALITY=3
SPECTRUMID=CCMSLIB00000425846
SCANS=818
71.0 6.393 
149.0 1.635 
177.0 31.173 
223.0 2.755 
312.0 3.251 
328.0 6.398 
354.0 1.939 
355.0 2.597 
372.0 100.0 
END IONS

BEGIN IONS
PEPMASS=166.087
CHARGE=1+
MSLEVEL=2
SOURCE_INSTRUMENT=Positive-Quattro_QQQ:40eV
FILENAME=hmdb_intermediate.mgf
SEQ=*..*
IONMODE=Positive
ORGANISM=HMDB
NAME=HMDB:HMDB04992-2429 Benzocaine M+H
PI=HMDB
DATACOLLECTOR=HMDB
SMILES=CCOC(=O)C1=CC=C(N)C=C1
INCHI=InChI=1S/C9H11NO2/c1-2-12-9(11)7-3-5-8(10)6-4-7/h3-6H,2,10H2,1H3
INCHIAUX=N/A
PUBMED=N/A
SUBMITUSER=mwang87
TAGS=
LIBRARYQUALITY=3
SPECTRUMID=CCMSLIB00000425847
SCANS=819
64.871 100.0 
91.73 52.372 
119.638 26.65 
END IONS

BEGIN IONS
PEPMASS=59.0497
CHARGE=1+
MSLEVEL=2
SOURCE_INSTRUMENT=Positive-Quattro_QQQ:40eV
FILENAME=hmdb_intermediate.mgf
SEQ=*..*
IONMODE=Positive
ORGANISM=HMDB
NAME=HMDB:HMDB01659-1674 Acetone M+H
PI=HMDB
DATACOLLECTOR=HMDB
SMILES=CC(C)=O
INCHI=InChI=1S/C3H6O/c1-3(2)4/h1-2H3
INCHIAUX=N/A
PUBMED=N/A
SUBMITUSER=mwang87
TAGS=
LIBRARYQUALITY=3
SPECTRUMID=CCMSLIB00000425848
SCANS=820
31.0 38.719 
42.0 74.115 
58.0 100.0 
END IONS

BEGIN IONS
PEPMASS=181.071
CHARGE=1+
MSLEVEL=2
SOURCE_INSTRUMENT=Positive-Quattro_QQQ:10eV
FILENAME=hmdb_intermediate.mgf
SEQ=*..*
IONMODE=Positive
ORGANISM=HMDB
NAME=HMDB:HMDB03449-2316 Beta-D-Galactose M+H
PI=HMDB
DATACOLLECTOR=HMDB
SMILES=OC[C@H]1O[C@@H](O)[C@H](O)[C@@H](O)[C@H]1O
INCHI=InChI=1S/C6H12O6/c7-1-2-3(8)4(9)5(10)6(11)12-2/h2-11H,1H2/t2-,3+,4+,5-,6-/m1/s1
INCHIAUX=N/A
PUBMED=N/A
SUBMITUSER=mwang87
TAGS=
LIBRARYQUALITY=3
SPECTRUMID=CCMSLIB00000425849
SCANS=821
40.0 30.6748466258 
56.0 42.3312883436 
104.0 17.7840490798 
122.0 4.3490797546 
139.0 100.0 
148.0 4.1429447853 
163.0 5.9503067485 
181.0 61.3496932515 
END IONS

BEGIN IONS
PEPMASS=283.264
CHARGE=1+
MSLEVEL=2
SOURCE_INSTRUMENT=Positive-Quattro_QQQ:10eV
FILENAME=hmdb_intermediate.mgf
SEQ=*..*
IONMODE=Positive
ORGANISM=HMDB
NAME=HMDB:HMDB00207-334 Oleic acid M+H
PI=HMDB
DATACOLLECTOR=HMDB
SMILES=CCCCCCCC\C=C/CCCCCCCC(O)=O
INCHI=InChI=1S/C18H34O2/c1-2-3-4-5-6-7-8-9-10-11-12-13-14-15-16-17-18(19)20/h9-10H,2-8,11-17H2,1H3,(H,19,20)/b10-9-
INCHIAUX=N/A
PUBMED=N/A
SUBMITUSER=mwang87
TAGS=
LIBRARYQUALITY=3
SPECTRUMID=CCMSLIB00000425850
SCANS=822
57.0 22.76 
71.0 39.452 
81.0 15.94 
85.0 33.258 
97.0 18.868 
111.0 19.435 
115.0 12.171 
125.0 16.501 
135.0 20.516 
149.0 24.822 
163.0 21.783 
167.0 19.899 
177.0 19.535 
185.0 15.672 
199.0 17.028 
213.0 13.464 
247.0 92.741 
265.0 96.679 
283.0 100.0 
END IONS

BEGIN IONS
PEPMASS=130.998
CHARGE=1+
MSLEVEL=2
SOURCE_INSTRUMENT=Negative-Quattro_QQQ:25eV
FILENAME=hmdb_intermediate.mgf
SEQ=*..*
IONMODE=Negative
ORGANISM=HMDB
NAME=HMDB:HMDB00223-368 Oxalacetic acid M-H
PI=HMDB
DATACOLLECTOR=HMDB
SMILES=OC(=O)CC(=O)C(O)=O
INCHI=InChI=1S/C4H4O5/c5-2(4(8)9)1-3(6)7/h1H2,(H,6,7)(H,8,9)
INCHIAUX=N/A
PUBMED=N/A
SUBMITUSER=mwang87
TAGS=
LIBRARYQUALITY=3
SPECTRUMID=CCMSLIB00000425851
SCANS=823
43.613 100.0 
59.451 26.122 
87.264 74.694 
131.317 10.51 
END IONS

BEGIN IONS
PEPMASS=391.285
CHARGE=1+
MSLEVEL=2
SOURCE_INSTRUMENT=Positive-Quattro_QQQ:10eV
FILENAME=hmdb_intermediate.mgf
SEQ=*..*
IONMODE=Positive
ORGANISM=HMDB
NAME=HMDB:HMDB00467-677 Nutriacholic acid M+H
PI=HMDB
DATACOLLECTOR=HMDB
SMILES=[H][C@@]12CCC([C@@H](C)CCC(O)=O)[C@@]1(C)CC[C@@]1([H])[C@@]2([H])C(=O)C[C@]2([H])C[C@H](O)CC[C@]12C
INCHI=InChI=1S/C24H38O4/c1-14(4-7-21(27)28)17-5-6-18-22-19(9-11-24(17,18)3)23(2)10-8-16(25)12-15(23)13-20(22)26/h14-19,22,25H,4-13H2,1-3H3,(H,27,28)/t14-,15-,16+,17?,18-,19-,22-,23-,24+/m0/s1
INCHIAUX=N/A
PUBMED=N/A
SUBMITUSER=mwang87
TAGS=
LIBRARYQUALITY=3
SPECTRUMID=CCMSLIB00000425852
SCANS=824
68.006 10.309 
109.121 17.837 
115.749 11.946 
171.843 13.582 
207.565 10.964 
215.053 100.0 
243.658 11.946 
261.092 29.949 
275.703 10.309 
307.872 13.582 
END IONS

BEGIN IONS
PEPMASS=158.082
CHARGE=1+
MSLEVEL=2
SOURCE_INSTRUMENT=Positive-Quattro_QQQ:10eV
FILENAME=hmdb_intermediate.mgf
SEQ=*..*
IONMODE=Positive
ORGANISM=HMDB
NAME=HMDB:HMDB00959-1363 Tiglylglycine M+H
PI=HMDB
DATACOLLECTOR=HMDB
SMILES=C\C=C(/C)C(=O)NCC(O)=O
INCHI=InChI=1S/C7H11NO3/c1-3-5(2)7(11)8-4-6(9)10/h3H,4H2,1-2H3,(H,8,11)(H,9,10)/b5-3+
INCHIAUX=N/A
PUBMED=N/A
SUBMITUSER=mwang87
TAGS=
LIBRARYQUALITY=3
SPECTRUMID=CCMSLIB00000425853
SCANS=825
79.0 100.0 
98.0 14.462 
137.0 7.347 
END IONS

BEGIN IONS
PEPMASS=133.061
CHARGE=1+
MSLEVEL=2
SOURCE_INSTRUMENT=Positive-Quattro_QQQ:10eV
FILENAME=hmdb_intermediate.mgf
SEQ=*..*
IONMODE=Positive
ORGANISM=HMDB
NAME=HMDB:HMDB00168-266 L-Asparagine M+H
PI=HMDB
DATACOLLECTOR=HMDB
SMILES=N[C@@H](CC(N)=O)C(O)=O
INCHI=InChI=1S/C4H8N2O3/c5-2(4(8)9)1-3(6)7/h2H,1,5H2,(H2,6,7)(H,8,9)/t2-/m0/s1
INCHIAUX=N/A
PUBMED=N/A
SUBMITUSER=mwang87
TAGS=
LIBRARYQUALITY=3
SPECTRUMID=CCMSLIB00000425854
SCANS=826
74.043 78.049 
87.101 100.0 
115.897 25.305 
132.9 62.805 
END IONS

BEGIN IONS
PEPMASS=74.0718
CHARGE=1+
MSLEVEL=2
SOURCE_INSTRUMENT=Positive-Quattro_QQQ:25eV
FILENAME=hmdb_intermediate.mgf
SEQ=*..*
IONMODE=Positive
ORGANISM=HMDB
NAME=HMDB:HMDB01522-1623 Methylguanidine M+H
PI=HMDB
DATACOLLECTOR=HMDB
SMILES=CNC(N)=N
INCHI=InChI=1S/C2H7N3/c1-5-2(3)4/h1H3,(H4,3,4,5)
INCHIAUX=N/A
PUBMED=N/A
SUBMITUSER=mwang87
TAGS=
LIBRARYQUALITY=3
SPECTRUMID=CCMSLIB00000425855
SCANS=827
30.436 9.414 
43.248 35.146 
57.146 100.0 
73.893 43.515 
END IONS

BEGIN IONS
PEPMASS=182.082
CHARGE=1+
MSLEVEL=2
SOURCE_INSTRUMENT=Positive-Quattro_QQQ:10eV
FILENAME=hmdb_intermediate.mgf
SEQ=*..*
IONMODE=Positive
ORGANISM=HMDB
NAME=HMDB:HMDB06050-2466 o-Tyrosine M+H
PI=HMDB
DATACOLLECTOR=HMDB
SMILES=NC(CC1=CC=CC=C1O)C(O)=O
INCHI=InChI=1S/C9H11NO3/c10-7(9(12)13)5-6-3-1-2-4-8(6)11/h1-4,7,11H,5,10H2,(H,12,13)
INCHIAUX=N/A
PUBMED=N/A
SUBMITUSER=mwang87
TAGS=
LIBRARYQUALITY=3
SPECTRUMID=CCMSLIB00000425856
SCANS=828
119.1 4.356525457 
136.2 42.9960243359 
147.18 3.6169147729 
164.22 20.9983844575 
165.18 12.3330187925 
182.1 100.0 
END IONS

BEGIN IONS
PEPMASS=151.112
CHARGE=1+
MSLEVEL=2
SOURCE_INSTRUMENT=Positive-Quattro_QQQ:10eV
FILENAME=hmdb_intermediate.mgf
SEQ=*..*
IONMODE=Positive
ORGANISM=HMDB
NAME=HMDB:HMDB04487-2394 (+)-(S)-Carvone M+H
PI=HMDB
DATACOLLECTOR=HMDB
SMILES=CC(=C)[C@H]1CC=C(C)C(=O)C1
INCHI=InChI=1S/C10H14O/c1-7(2)9-5-4-8(3)10(11)6-9/h4,9H,1,5-6H2,2-3H3/t9-/m0/s1
INCHIAUX=N/A
PUBMED=N/A
SUBMITUSER=mwang87
TAGS=
LIBRARYQUALITY=3
SPECTRUMID=CCMSLIB00000425857
SCANS=829
109.0 100.0 
123.0 31.061 
151.0 57.807 
END IONS

BEGIN IONS
PEPMASS=153.076
CHARGE=1+
MSLEVEL=2
SOURCE_INSTRUMENT=Positive-Quattro_QQQ:40eV
FILENAME=hmdb_intermediate.mgf
SEQ=*..*
IONMODE=Positive
ORGANISM=HMDB
NAME=HMDB:HMDB01851-1716 L-Arabitol M+H
PI=HMDB
DATACOLLECTOR=HMDB
SMILES=OC[C@H](O)C(O)[C@@H](O)CO
INCHI=InChI=1S/C5H12O5/c6-1-3(8)5(10)4(9)2-7/h3-10H,1-2H2/t3-,4-/m0/s1
INCHIAUX=N/A
PUBMED=N/A
SUBMITUSER=mwang87
TAGS=
LIBRARYQUALITY=3
SPECTRUMID=CCMSLIB00000425858
SCANS=830
58.0 100.0 
END IONS

BEGIN IONS
PEPMASS=315.149
CHARGE=1+
MSLEVEL=2
SOURCE_INSTRUMENT=Positive-Quattro_QQQ:25eV
FILENAME=hmdb_intermediate.mgf
SEQ=*..*
IONMODE=Positive
ORGANISM=HMDB
NAME=HMDB:HMDB01930-1870 Ranitidine M+H
PI=HMDB
DATACOLLECTOR=HMDB
SMILES=CN\C(NCCSCC1=CC=C(CN(C)C)O1)=C/[N+]([O-])=O
INCHI=InChI=1S/C13H22N4O3S/c1-14-13(9-17(18)19)15-6-7-21-10-12-5-4-11(20-12)8-16(2)3/h4-5,9,14-15H,6-8,10H2,1-3H3/b13-9+
INCHIAUX=N/A
PUBMED=N/A
SUBMITUSER=mwang87
TAGS=
LIBRARYQUALITY=3
SPECTRUMID=CCMSLIB00000425859
SCANS=831
81.154 11.623 
88.295 28.421 
98.317 100.0 
113.6 14.77 
123.748 21.33 
129.762 76.243 
138.532 25.096 
153.566 20.088 
164.342 24.033 
164.968 29.707 
175.869 58.028 
191.532 21.728 
223.861 21.108 
END IONS

BEGIN IONS
PEPMASS=178.087
CHARGE=1+
MSLEVEL=2
SOURCE_INSTRUMENT=Positive-Quattro_QQQ:10eV
FILENAME=hmdb_intermediate.mgf
SEQ=*..*
IONMODE=Positive
ORGANISM=HMDB
NAME=HMDB:HMDB01855-1720 5-Hydroxytryptophol M+H
PI=HMDB
DATACOLLECTOR=HMDB
SMILES=OCCC1=CNC2=CC=C(O)C=C12
INCHI=InChI=1S/C10H11NO2/c12-4-3-7-6-11-10-2-1-8(13)5-9(7)10/h1-2,5-6,11-13H,3-4H2
INCHIAUX=N/A
PUBMED=N/A
SUBMITUSER=mwang87
TAGS=
LIBRARYQUALITY=3
SPECTRUMID=CCMSLIB00000425860
SCANS=832
160.14 90.5751035081 
178.14 100.0 
END IONS

BEGIN IONS
PEPMASS=87.0446
CHARGE=1+
MSLEVEL=2
SOURCE_INSTRUMENT=Positive-Quattro_QQQ:25eV
FILENAME=hmdb_intermediate.mgf
SEQ=*..*
IONMODE=Positive
ORGANISM=HMDB
NAME=HMDB:HMDB03407-2287 Diacetyl M+H
PI=HMDB
DATACOLLECTOR=HMDB
SMILES=CC(=O)C(C)=O
INCHI=InChI=1S/C4H6O2/c1-3(5)4(2)6/h1-2H3
INCHIAUX=N/A
PUBMED=N/A
SUBMITUSER=mwang87
TAGS=
LIBRARYQUALITY=3
SPECTRUMID=CCMSLIB00000425861
SCANS=833
43.0 100.0 
49.0 78.639 
73.0 68.206 
END IONS

BEGIN IONS
PEPMASS=154.087
CHARGE=1+
MSLEVEL=2
SOURCE_INSTRUMENT=Positive-Quattro_QQQ:25eV
FILENAME=hmdb_intermediate.mgf
SEQ=*..*
IONMODE=Positive
ORGANISM=HMDB
NAME=HMDB:HMDB00073-121 Dopamine M+H
PI=HMDB
DATACOLLECTOR=HMDB
SMILES=NCCC1=CC=C(O)C(O)=C1
INCHI=InChI=1S/C8H11NO2/c9-4-3-6-1-2-7(10)8(11)5-6/h1-2,5,10-11H,3-4,9H2
INCHIAUX=N/A
PUBMED=N/A
SUBMITUSER=mwang87
TAGS=
LIBRARYQUALITY=3
SPECTRUMID=CCMSLIB00000425862
SCANS=834
65.193 14.108 
91.091 100.0 
118.995 17.842 
136.891 7.676 
END IONS

BEGIN IONS
PEPMASS=139.051
CHARGE=1+
MSLEVEL=2
SOURCE_INSTRUMENT=Positive-Quattro_QQQ:25eV
FILENAME=hmdb_intermediate.mgf
SEQ=*..*
IONMODE=Positive
ORGANISM=HMDB
NAME=HMDB:HMDB00301-514 Urocanic acid M+H
PI=HMDB
DATACOLLECTOR=HMDB
SMILES=OC(=O)\C=C\C1=CNC=N1
INCHI=InChI=1S/C6H6N2O2/c9-6(10)2-1-5-3-7-4-8-5/h1-4H,(H,7,8)(H,9,10)/b2-1+
INCHIAUX=N/A
PUBMED=N/A
SUBMITUSER=mwang87
TAGS=
LIBRARYQUALITY=3
SPECTRUMID=CCMSLIB00000425863
SCANS=835
41.328 6.12 
66.098 49.741 
92.994 100.0 
94.907 12.047 
120.877 18.005 
END IONS

BEGIN IONS
PEPMASS=131.118
CHARGE=1+
MSLEVEL=2
SOURCE_INSTRUMENT=Positive-Quattro_QQQ:10eV
FILENAME=hmdb_intermediate.mgf
SEQ=*..*
IONMODE=Positive
ORGANISM=HMDB
NAME=HMDB:HMDB02064-1975 N-Acetylputrescine M+H
PI=HMDB
DATACOLLECTOR=HMDB
SMILES=CC(=O)NCCCCN
INCHI=InChI=1S/C6H14N2O/c1-6(9)8-5-3-2-4-7/h2-5,7H2,1H3,(H,8,9)
INCHIAUX=N/A
PUBMED=N/A
SUBMITUSER=mwang87
TAGS=
LIBRARYQUALITY=3
SPECTRUMID=CCMSLIB00000425864
SCANS=836
72.0 59.069 
114.0 100.0 
131.0 43.851 
END IONS

BEGIN IONS
PEPMASS=143.107
CHARGE=1+
MSLEVEL=2
SOURCE_INSTRUMENT=Positive-Quattro_QQQ:10eV
FILENAME=hmdb_intermediate.mgf
SEQ=*..*
IONMODE=Positive
ORGANISM=HMDB
NAME=HMDB:HMDB00392-597 2-Octenoic acid M+H
PI=HMDB
DATACOLLECTOR=HMDB
SMILES=CCCCC\C=C/C(O)=O
INCHI=InChI=1S/C8H14O2/c1-2-3-4-5-6-7-8(9)10/h6-7H,2-5H2,1H3,(H,9,10)/b7-6-
INCHIAUX=N/A
PUBMED=N/A
SUBMITUSER=mwang87
TAGS=
LIBRARYQUALITY=3
SPECTRUMID=CCMSLIB00000425865
SCANS=837
72.0 100.0 
142.0 26.772 
END IONS

BEGIN IONS
PEPMASS=164.038
CHARGE=1+
MSLEVEL=2
SOURCE_INSTRUMENT=Positive-Quattro_QQQ:10eV
FILENAME=hmdb_intermediate.mgf
SEQ=*..*
IONMODE=Positive
ORGANISM=HMDB
NAME=HMDB:HMDB01890-1795 Acetylcysteine M+H
PI=HMDB
DATACOLLECTOR=HMDB
SMILES=CC(=O)N[C@@H](CS)C(O)=O
INCHI=InChI=1S/C5H9NO3S/c1-3(7)6-4(2-10)5(8)9/h4,10H,2H2,1H3,(H,6,7)(H,8,9)/t4-/m0/s1
INCHIAUX=N/A
PUBMED=N/A
SUBMITUSER=mwang87
TAGS=
LIBRARYQUALITY=3
SPECTRUMID=CCMSLIB00000425866
SCANS=838
76.107 13.158 
105.002 3.399 
121.992 100.0 
145.986 4.898 
163.929 8.735 
END IONS

BEGIN IONS
PEPMASS=208.097
CHARGE=1+
MSLEVEL=2
SOURCE_INSTRUMENT=Positive-Quattro_QQQ:25eV
FILENAME=hmdb_intermediate.mgf
SEQ=*..*
IONMODE=Positive
ORGANISM=HMDB
NAME=HMDB:HMDB00860-1215 Phenylpropionylglycine M+H
PI=HMDB
DATACOLLECTOR=HMDB
SMILES=OC(=O)CNC(=O)CCC1=CC=CC=C1
INCHI=InChI=1S/C11H13NO3/c13-10(12-8-11(14)15)7-6-9-4-2-1-3-5-9/h1-5H,6-8H2,(H,12,13)(H,14,15)
INCHIAUX=N/A
PUBMED=N/A
SUBMITUSER=mwang87
TAGS=
LIBRARYQUALITY=3
SPECTRUMID=CCMSLIB00000425867
SCANS=839
76.4 15.122 
91.273 22.439 
103.272 4.146 
105.237 100.0 
END IONS

BEGIN IONS
PEPMASS=377.146
CHARGE=1+
MSLEVEL=2
SOURCE_INSTRUMENT=Positive-Quattro_QQQ:10eV
FILENAME=hmdb_intermediate.mgf
SEQ=*..*
IONMODE=Positive
ORGANISM=HMDB
NAME=HMDB:HMDB00244-412 Riboflavin M+H
PI=HMDB
DATACOLLECTOR=HMDB
SMILES=CC1=C(C)C=C2N(C[C@H](O)[C@H](O)[C@H](O)CO)C3=NC(=O)NC(=O)C3=NC2=C1
INCHI=InChI=1S/C17H20N4O6/c1-7-3-9-10(4-8(7)2)21(5-11(23)14(25)12(24)6-22)15-13(18-9)16(26)20-17(27)19-15/h3-4,11-12,14,22-25H,5-6H2,1-2H3,(H,20,26,27)/t11-,12+,14-/m0/s1
INCHIAUX=N/A
PUBMED=N/A
SUBMITUSER=mwang87
TAGS=
LIBRARYQUALITY=3
SPECTRUMID=CCMSLIB00000425868
SCANS=840
98.0 5.567 
243.0 21.779 
377.0 100.0 
END IONS

BEGIN IONS
PEPMASS=184.097
CHARGE=1+
MSLEVEL=2
SOURCE_INSTRUMENT=Positive-Quattro_QQQ:25eV
FILENAME=hmdb_intermediate.mgf
SEQ=*..*
IONMODE=Positive
ORGANISM=HMDB
NAME=HMDB:HMDB00819-1165 Normetanephrine M+H
PI=HMDB
DATACOLLECTOR=HMDB
SMILES=COC1=CC(=CC=C1O)C(O)CN
INCHI=InChI=1S/C9H13NO3/c1-13-9-4-6(8(12)5-10)2-3-7(9)11/h2-4,8,11-12H,5,10H2,1H3
INCHIAUX=N/A
PUBMED=N/A
SUBMITUSER=mwang87
TAGS=
LIBRARYQUALITY=3
SPECTRUMID=CCMSLIB00000425869
SCANS=841
79.094 78.873 
91.086 31.925 
106.061 85.915 
121.004 68.075 
133.997 100.0 
148.973 7.512 
165.924 6.367 
END IONS

BEGIN IONS
PEPMASS=153.041
CHARGE=1+
MSLEVEL=2
SOURCE_INSTRUMENT=Positive-Quattro_QQQ:25eV
FILENAME=hmdb_intermediate.mgf
SEQ=*..*
IONMODE=Positive
ORGANISM=HMDB
NAME=HMDB:HMDB00292-496 Xanthine M+H
PI=HMDB
DATACOLLECTOR=HMDB
SMILES=O=C1NC2=C(NC=N2)C(=O)N1
INCHI=InChI=1S/C5H4N4O2/c10-4-2-3(7-1-6-2)8-5(11)9-4/h1H,(H3,6,7,8,9,10,11)
INCHIAUX=N/A
PUBMED=N/A
SUBMITUSER=mwang87
TAGS=
LIBRARYQUALITY=3
SPECTRUMID=CCMSLIB00000425870
SCANS=842
55.18 44.944 
81.912 53.933 
92.98 5.723 
109.927 100.0 
135.799 40.449 
152.616 10.253 
END IONS

BEGIN IONS
PEPMASS=276.11
CHARGE=1+
MSLEVEL=2
SOURCE_INSTRUMENT=Positive-Quattro_QQQ:40eV
FILENAME=hmdb_intermediate.mgf
SEQ=*..*
IONMODE=Positive
ORGANISM=HMDB
NAME=HMDB:HMDB01786-1683 Ethenodeoxyadenosine M+H
PI=HMDB
DATACOLLECTOR=HMDB
SMILES=OC[C@H]1O[C@H](C[C@@H]1O)N1C=NC2=C1N=CN1C=CN=C21
INCHI=InChI=1S/C12H13N5O3/c18-4-8-7(19)3-9(20-8)17-6-14-10-11-13-1-2-16(11)5-15-12(10)17/h1-2,5-9,18-19H,3-4H2/t7-,8+,9+/m0/s1
INCHIAUX=N/A
PUBMED=N/A
SUBMITUSER=mwang87
TAGS=
LIBRARYQUALITY=3
SPECTRUMID=CCMSLIB00000425871
SCANS=843
42.554 4.954 
45.554 3.148 
73.299 3.472 
81.273 5.741 
106.161 8.241 
119.083 5.556 
133.092 7.824 
160.038 100.0 
END IONS

BEGIN IONS
PEPMASS=167.034
CHARGE=1+
MSLEVEL=2
SOURCE_INSTRUMENT=Negative-Quattro_QQQ:10eV
FILENAME=hmdb_intermediate.mgf
SEQ=*..*
IONMODE=Negative
ORGANISM=HMDB
NAME=HMDB:HMDB00484-701 Vanillic acid M-H
PI=HMDB
DATACOLLECTOR=HMDB
SMILES=COC1=CC(=CC=C1O)C(O)=O
INCHI=InChI=1S/C8H8O4/c1-12-7-4-5(8(10)11)2-3-6(7)9/h2-4,9H,1H3,(H,10,11)
INCHIAUX=N/A
PUBMED=N/A
SUBMITUSER=mwang87
TAGS=
LIBRARYQUALITY=3
SPECTRUMID=CCMSLIB00000425872
SCANS=844
107.992 46.538 
151.929 70.0 
166.924 100.0 
END IONS

BEGIN IONS
PEPMASS=444.032
CHARGE=1+
MSLEVEL=2
SOURCE_INSTRUMENT=Positive-Quattro_QQQ:40eV
FILENAME=hmdb_intermediate.mgf
SEQ=*..*
IONMODE=Positive
ORGANISM=HMDB
NAME=HMDB:HMDB01201-1462 Guanosine diphosphate M+H
PI=HMDB
DATACOLLECTOR=HMDB
SMILES=NC1=NC2=C(N=CN2[C@@H]2O[C@H](COP(O)(=O)OP(O)(O)=O)[C@@H](O)[C@H]2O)C(=O)N1
INCHI=InChI=1S/C10H15N5O11P2/c11-10-13-7-4(8(18)14-10)12-2-15(7)9-6(17)5(16)3(25-9)1-24-28(22,23)26-27(19,20)21/h2-3,5-6,9,16-17H,1H2,(H,22,23)(H2,19,20,21)(H3,11,13,14,18)/t3-,5-,6-,9-/m1/s1
INCHIAUX=N/A
PUBMED=N/A
SUBMITUSER=mwang87
TAGS=
LIBRARYQUALITY=3
SPECTRUMID=CCMSLIB00000425873
SCANS=845
97.0 11.201 
110.0 4.431 
135.0 18.401 
152.0 100.0 
END IONS

BEGIN IONS
PEPMASS=85.0653
CHARGE=1+
MSLEVEL=2
SOURCE_INSTRUMENT=Positive-Quattro_QQQ:10eV
FILENAME=hmdb_intermediate.mgf
SEQ=*..*
IONMODE=Positive
ORGANISM=HMDB
NAME=HMDB:HMDB01184-1451 Methyl propenyl ketone M+H
PI=HMDB
DATACOLLECTOR=HMDB
SMILES=C\C=C\C(C)=O
INCHI=InChI=1S/C5H8O/c1-3-4-5(2)6/h3-4H,1-2H3/b4-3+
INCHIAUX=N/A
PUBMED=N/A
SUBMITUSER=mwang87
TAGS=
LIBRARYQUALITY=3
SPECTRUMID=CCMSLIB00000425874
SCANS=846
43.162 25.197 
67.027 100.0 
84.97 79.59 
END IONS

BEGIN IONS
PEPMASS=209.03
CHARGE=1+
MSLEVEL=2
SOURCE_INSTRUMENT=Negative-Quattro_QQQ:25eV
FILENAME=hmdb_intermediate.mgf
SEQ=*..*
IONMODE=Negative
ORGANISM=HMDB
NAME=HMDB:HMDB00663-907 Glucaric acid M-H
PI=HMDB
DATACOLLECTOR=HMDB
SMILES=O[C@@H]([C@H](O)[C@@H](O)C(O)=O)[C@H](O)C(O)=O
INCHI=InChI=1S/C6H10O8/c7-1(3(9)5(11)12)2(8)4(10)6(13)14/h1-4,7-10H,(H,11,12)(H,13,14)/t1-,2-,3-,4+/m0/s1
INCHIAUX=N/A
PUBMED=N/A
SUBMITUSER=mwang87
TAGS=
LIBRARYQUALITY=3
SPECTRUMID=CCMSLIB00000425875
SCANS=847
43.648 14.5734770521 
57.509 73.140516022 
71.381 94.2837633517 
75.332 20.2848363654 
85.318 100.0 
133.149 4.8919670292 
END IONS

BEGIN IONS
PEPMASS=60.0562
CHARGE=1+
MSLEVEL=2
SOURCE_INSTRUMENT=Positive-Quattro_QQQ:40eV
FILENAME=hmdb_intermediate.mgf
SEQ=*..*
IONMODE=Positive
ORGANISM=HMDB
NAME=HMDB:HMDB01842-1692 Guanidine M+H
PI=HMDB
DATACOLLECTOR=HMDB
SMILES=NC(N)=N
INCHI=InChI=1S/CH5N3/c2-1(3)4/h(H5,2,3,4)
INCHIAUX=N/A
PUBMED=N/A
SUBMITUSER=mwang87
TAGS=
LIBRARYQUALITY=3
SPECTRUMID=CCMSLIB00000425876
SCANS=848
28.0 7.093 
43.0 100.0 
60.0 42.918 
END IONS

BEGIN IONS
PEPMASS=127.051
CHARGE=1+
MSLEVEL=2
SOURCE_INSTRUMENT=Positive-Quattro_QQQ:10eV
FILENAME=hmdb_intermediate.mgf
SEQ=*..*
IONMODE=Positive
ORGANISM=HMDB
NAME=HMDB:HMDB02024-1950 Imidazoleacetic acid M+H
PI=HMDB
DATACOLLECTOR=HMDB
SMILES=OC(=O)CC1=CN=CN1
INCHI=InChI=1S/C5H6N2O2/c8-5(9)1-4-2-6-3-7-4/h2-3H,1H2,(H,6,7)(H,8,9)
INCHIAUX=N/A
PUBMED=N/A
SUBMITUSER=mwang87
TAGS=
LIBRARYQUALITY=3
SPECTRUMID=CCMSLIB00000425877
SCANS=849
81.0 100.0 
109.0 17.6 
127.0 53.55 
END IONS

BEGIN IONS
PEPMASS=240.11
CHARGE=1+
MSLEVEL=2
SOURCE_INSTRUMENT=Positive-Quattro_QQQ:10eV
FILENAME=hmdb_intermediate.mgf
SEQ=*..*
IONMODE=Positive
ORGANISM=HMDB
NAME=HMDB:HMDB00038-63 Dihydrobiopterin M+H
PI=HMDB
DATACOLLECTOR=HMDB
SMILES=CC(O)C(O)C1=NC2=C(NC1)N=C(N)NC2=O
INCHI=InChI=1S/C9H13N5O3/c1-3(15)6(16)4-2-11-7-5(12-4)8(17)14-9(10)13-7/h3,6,15-16H,2H2,1H3,(H4,10,11,13,14,17)
INCHIAUX=N/A
PUBMED=N/A
SUBMITUSER=mwang87
TAGS=
LIBRARYQUALITY=3
SPECTRUMID=CCMSLIB00000425878
SCANS=850
78.0 6.048 
92.0 7.387 
120.0 8.93 
144.0 7.995 
145.0 3.531 
168.0 3.62 
194.0 5.34 
195.0 3.818 
210.0 5.214 
220.0 6.93 
238.0 100.0 
END IONS

BEGIN IONS
PEPMASS=143.046
CHARGE=1+
MSLEVEL=2
SOURCE_INSTRUMENT=Positive-Quattro_QQQ:40eV
FILENAME=hmdb_intermediate.mgf
SEQ=*..*
IONMODE=Positive
ORGANISM=HMDB
NAME=HMDB:HMDB00469-685 5-Hydroxymethyluracil M+H
PI=HMDB
DATACOLLECTOR=HMDB
SMILES=OCC1=CNC(=O)NC1=O
INCHI=InChI=1S/C5H6N2O3/c8-2-3-1-6-5(10)7-4(3)9/h1,8H,2H2,(H2,6,7,9,10)
INCHIAUX=N/A
PUBMED=N/A
SUBMITUSER=mwang87
TAGS=
LIBRARYQUALITY=3
SPECTRUMID=CCMSLIB00000425879
SCANS=851
54.265 69.767 
55.264 100.0 
70.113 34.109 
82.074 57.364 
124.205 6.395 
125.079 14.147 
143.015 5.233 
END IONS

BEGIN IONS
PEPMASS=87.081
CHARGE=1+
MSLEVEL=2
SOURCE_INSTRUMENT=Positive-Quattro_QQQ:25eV
FILENAME=hmdb_intermediate.mgf
SEQ=*..*
IONMODE=Positive
ORGANISM=HMDB
NAME=HMDB:HMDB06478-2485 Iso-Valeraldehyde M+H
PI=HMDB
DATACOLLECTOR=HMDB
SMILES=CC(C)CC=O
INCHI=InChI=1S/C5H10O/c1-5(2)3-4-6/h4-5H,3H2,1-2H3
INCHIAUX=N/A
PUBMED=N/A
SUBMITUSER=mwang87
TAGS=
LIBRARYQUALITY=3
SPECTRUMID=CCMSLIB00000425880
SCANS=852
86.91 100.0 
END IONS

BEGIN IONS
PEPMASS=181.05
CHARGE=1+
MSLEVEL=2
SOURCE_INSTRUMENT=Positive-Quattro_QQQ:40eV
FILENAME=hmdb_intermediate.mgf
SEQ=*..*
IONMODE=Positive
ORGANISM=HMDB
NAME=HMDB:HMDB01964-1913 Caffeic acid M+H
PI=HMDB
DATACOLLECTOR=HMDB
SMILES=OC(=O)\C=C/C1=CC=C(O)C(O)=C1
INCHI=InChI=1S/C9H8O4/c10-7-3-1-6(5-8(7)11)2-4-9(12)13/h1-5,10-11H,(H,12,13)/b4-2-
INCHIAUX=N/A
PUBMED=N/A
SUBMITUSER=mwang87
TAGS=
LIBRARYQUALITY=3
SPECTRUMID=CCMSLIB00000425881
SCANS=853
62.0 23.877 
76.0 23.017 
88.0 100.0 
116.0 8.261 
164.0 5.231 
END IONS

BEGIN IONS
PEPMASS=232.155
CHARGE=1+
MSLEVEL=2
SOURCE_INSTRUMENT=Positive-Quattro_QQQ:25eV
FILENAME=hmdb_intermediate.mgf
SEQ=*..*
IONMODE=Positive
ORGANISM=HMDB
NAME=HMDB:HMDB00736-1045 Isobutyryl-L-carnitine M+H
PI=HMDB
DATACOLLECTOR=HMDB
SMILES=CC(C)C(=O)OC(CC([O-])=O)C[N+](C)(C)C
INCHI=InChI=1S/C11H21NO4/c1-8(2)11(15)16-9(6-10(13)14)7-12(3,4)5/h8-9H,6-7H2,1-5H3
INCHIAUX=N/A
PUBMED=N/A
SUBMITUSER=mwang87
TAGS=
LIBRARYQUALITY=3
SPECTRUMID=CCMSLIB00000425882
SCANS=854
59.0 7.751 
84.0 100.0 
END IONS

BEGIN IONS
PEPMASS=141.066
CHARGE=1+
MSLEVEL=2
SOURCE_INSTRUMENT=Positive-Quattro_QQQ:40eV
FILENAME=hmdb_intermediate.mgf
SEQ=*..*
IONMODE=Positive
ORGANISM=HMDB
NAME=HMDB:HMDB02820-2142 Methylimidazoleacetic acid M+H
PI=HMDB
DATACOLLECTOR=HMDB
SMILES=CN1C=NC(CC(O)=O)=C1
INCHI=InChI=1S/C6H8N2O2/c1-8-3-5(7-4-8)2-6(9)10/h3-4H,2H2,1H3,(H,9,10)
INCHIAUX=N/A
PUBMED=N/A
SUBMITUSER=mwang87
TAGS=
LIBRARYQUALITY=3
SPECTRUMID=CCMSLIB00000425883
SCANS=855
42.0 100.0 
54.0 34.678 
68.0 52.853 
81.0 64.771 
95.0 56.403 
END IONS

BEGIN IONS
PEPMASS=138.092
CHARGE=1+
MSLEVEL=2
SOURCE_INSTRUMENT=Positive-Quattro_QQQ:25eV
FILENAME=hmdb_intermediate.mgf
SEQ=*..*
IONMODE=Positive
ORGANISM=HMDB
NAME=HMDB:HMDB00306-523 Tyramine M+H
PI=HMDB
DATACOLLECTOR=HMDB
SMILES=NCCC1=CC=C(O)C=C1
INCHI=InChI=1S/C8H11NO/c9-6-5-7-1-3-8(10)4-2-7/h1-4,10H,5-6,9H2
INCHIAUX=N/A
PUBMED=N/A
SUBMITUSER=mwang87
TAGS=
LIBRARYQUALITY=3
SPECTRUMID=CCMSLIB00000425884
SCANS=856
77.087 100.0 
91.051 34.954 
102.954 35.648 
120.924 18.287 
END IONS

BEGIN IONS
PEPMASS=291.232
CHARGE=1+
MSLEVEL=2
SOURCE_INSTRUMENT=Positive-Quattro_QQQ:40eV
FILENAME=hmdb_intermediate.mgf
SEQ=*..*
IONMODE=Positive
ORGANISM=HMDB
NAME=HMDB:HMDB00546-769 Epietiocholanolone M+H
PI=HMDB
DATACOLLECTOR=HMDB
SMILES=[H][C@@]12CCC(=O)[C@@]1(C)CC[C@@]1([H])[C@@]2([H])CC[C@]2([H])C[C@@H](O)CC[C@]12C
INCHI=InChI=1S/C19H30O2/c1-18-9-7-13(20)11-12(18)3-4-14-15-5-6-17(21)19(15,2)10-8-16(14)18/h12-16,20H,3-11H2,1-2H3/t12-,13+,14+,15+,16+,18+,19+/m1/s1
INCHIAUX=N/A
PUBMED=N/A
SUBMITUSER=mwang87
TAGS=
LIBRARYQUALITY=3
SPECTRUMID=CCMSLIB00000425885
SCANS=857
59.927 62.607 
69.377 100.0 
90.487 73.823 
133.814 55.137 
163.764 56.999 
193.839 58.883 
201.941 96.254 
254.732 96.254 
267.133 79.43 
293.654 55.137 
303.477 62.607 
END IONS

BEGIN IONS
PEPMASS=202.144
CHARGE=1+
MSLEVEL=2
SOURCE_INSTRUMENT=Positive-Quattro_QQQ:25eV
FILENAME=hmdb_intermediate.mgf
SEQ=*..*
IONMODE=Positive
ORGANISM=HMDB
NAME=HMDB:HMDB00832-1182 Capryloylglycine M+H
PI=HMDB
DATACOLLECTOR=HMDB
SMILES=CCCCCCCC(=O)NCC(O)=O
INCHI=InChI=1S/C10H19NO3/c1-2-3-4-5-6-7-9(12)11-8-10(13)14/h2-8H2,1H3,(H,11,12)(H,13,14)
INCHIAUX=N/A
PUBMED=N/A
SUBMITUSER=mwang87
TAGS=
LIBRARYQUALITY=3
SPECTRUMID=CCMSLIB00000425886
SCANS=858
56.892 100.0 
67.431 8.184 
76.088 25.123 
END IONS

BEGIN IONS
PEPMASS=147.066
CHARGE=1+
MSLEVEL=2
SOURCE_INSTRUMENT=Positive-Quattro_QQQ:10eV
FILENAME=hmdb_intermediate.mgf
SEQ=*..*
IONMODE=Positive
ORGANISM=HMDB
NAME=HMDB:HMDB00752-1074 Methylglutaric acid M+H
PI=HMDB
DATACOLLECTOR=HMDB
SMILES=CC(CC(O)=O)CC(O)=O
INCHI=InChI=1S/C6H10O4/c1-4(2-5(7)8)3-6(9)10/h4H,2-3H2,1H3,(H,7,8)(H,9,10)
INCHIAUX=N/A
PUBMED=N/A
SUBMITUSER=mwang87
TAGS=
LIBRARYQUALITY=3
SPECTRUMID=CCMSLIB00000425887
SCANS=859
82.794 10.336 
101.487 100.0 
128.906 34.269 
147.476 6.262 
END IONS

BEGIN IONS
PEPMASS=101.097
CHARGE=1+
MSLEVEL=2
SOURCE_INSTRUMENT=Positive-Quattro_QQQ:10eV
FILENAME=hmdb_intermediate.mgf
SEQ=*..*
IONMODE=Positive
ORGANISM=HMDB
NAME=HMDB:HMDB00753-1077 3-Hexanone M+H
PI=HMDB
DATACOLLECTOR=HMDB
SMILES=CCCC(=O)CC
INCHI=InChI=1S/C6H12O/c1-3-5-6(7)4-2/h3-5H2,1-2H3
INCHIAUX=N/A
PUBMED=N/A
SUBMITUSER=mwang87
TAGS=
LIBRARYQUALITY=3
SPECTRUMID=CCMSLIB00000425888
SCANS=860
59.04 15.9265148264 
83.1 32.1640010055 
101.04 100.0 
END IONS

BEGIN IONS
PEPMASS=285.083
CHARGE=1+
MSLEVEL=2
SOURCE_INSTRUMENT=Positive-Quattro_QQQ:40eV
FILENAME=hmdb_intermediate.mgf
SEQ=*..*
IONMODE=Positive
ORGANISM=HMDB
NAME=HMDB:HMDB00299-509 Xanthosine M+H
PI=HMDB
DATACOLLECTOR=HMDB
SMILES=OC[C@H]1O[C@H]([C@H](O)[C@@H]1O)N1C=NC2=C1N=C(O)N=C2O
INCHI=InChI=1S/C10H12N4O6/c15-1-3-5(16)6(17)9(20-3)14-2-11-4-7(14)12-10(19)13-8(4)18/h2-3,5-6,9,15-17H,1H2,(H2,12,13,18,19)/t3-,5-,6-,9-/m1/s1
INCHIAUX=N/A
PUBMED=N/A
SUBMITUSER=mwang87
TAGS=
LIBRARYQUALITY=3
SPECTRUMID=CCMSLIB00000425889
SCANS=861
43.327 21.375 
45.31 17.625 
57.199 54.0 
69.127 29.75 
85.068 24.125 
97.036 6.781 
109.988 41.5 
135.901 100.0 
152.875 36.5 
END IONS

BEGIN IONS
PEPMASS=161.045
CHARGE=1+
MSLEVEL=2
SOURCE_INSTRUMENT=Negative-Quattro_QQQ:40eV
FILENAME=hmdb_intermediate.mgf
SEQ=*..*
IONMODE=Negative
ORGANISM=HMDB
NAME=HMDB:HMDB00321-536 2-Hydroxyadipic acid M-H
PI=HMDB
DATACOLLECTOR=HMDB
SMILES=OC(CCCC(O)=O)C(O)=O
INCHI=InChI=1S/C6H10O5/c7-4(6(10)11)2-1-3-5(8)9/h4,7H,1-3H2,(H,8,9)(H,10,11)
INCHIAUX=N/A
PUBMED=N/A
SUBMITUSER=mwang87
TAGS=
LIBRARYQUALITY=3
SPECTRUMID=CCMSLIB00000425890
SCANS=862
43.63 100.0 
45.562 53.333 
59.422 92.0 
71.392 47.667 
161.176 15.75 
END IONS

BEGIN IONS
PEPMASS=115.112
CHARGE=1+
MSLEVEL=2
SOURCE_INSTRUMENT=Positive-Quattro_QQQ:25eV
FILENAME=hmdb_intermediate.mgf
SEQ=*..*
IONMODE=Positive
ORGANISM=HMDB
NAME=HMDB:HMDB03671-2341 2-Heptanone M+H
PI=HMDB
DATACOLLECTOR=HMDB
SMILES=CCCCCC(C)=O
INCHI=InChI=1S/C7H14O/c1-3-4-5-6-7(2)8/h3-6H2,1-2H3
INCHIAUX=N/A
PUBMED=N/A
SUBMITUSER=mwang87
TAGS=
LIBRARYQUALITY=3
SPECTRUMID=CCMSLIB00000425891
SCANS=863
55.13 14.59 
73.94 100.0 
92.16 15.247 
END IONS

BEGIN IONS
PEPMASS=523.998
CHARGE=1+
MSLEVEL=2
SOURCE_INSTRUMENT=Positive-Quattro_QQQ:40eV
FILENAME=hmdb_intermediate.mgf
SEQ=*..*
IONMODE=Positive
ORGANISM=HMDB
NAME=HMDB:HMDB01273-1503 Guanosine triphosphate M+H
PI=HMDB
DATACOLLECTOR=HMDB
SMILES=NC1=NC2=C(N=CN2[C@@H]2O[C@H](COP(O)(=O)OP(O)(=O)OP(O)(O)=O)[C@@H](O)[C@H]2O)C(=O)N1
INCHI=InChI=1S/C10H16N5O14P3/c11-10-13-7-4(8(18)14-10)12-2-15(7)9-6(17)5(16)3(27-9)1-26-31(22,23)29-32(24,25)28-30(19,20)21/h2-3,5-6,9,16-17H,1H2,(H,22,23)(H,24,25)(H2,19,20,21)(H3,11,13,14,18)/t3-,5-,6-,9-/m1/s1
INCHIAUX=N/A
PUBMED=N/A
SUBMITUSER=mwang87
TAGS=
LIBRARYQUALITY=3
SPECTRUMID=CCMSLIB00000425892
SCANS=864
190.0 100.0 
END IONS

BEGIN IONS
PEPMASS=262.14
CHARGE=1+
MSLEVEL=2
SOURCE_INSTRUMENT=Positive-Quattro_QQQ:10eV
FILENAME=hmdb_intermediate.mgf
SEQ=*..*
IONMODE=Positive
ORGANISM=HMDB
NAME=HMDB:HMDB04987-2424 Alpha-Aspartyl-lysine M+H
PI=HMDB
DATACOLLECTOR=HMDB
SMILES=NCCCC[C@H](NC(=O)[C@@H](N)CC(O)=O)C(O)=O
INCHI=InChI=1S/C10H19N3O5/c11-4-2-1-3-7(10(17)18)13-9(16)6(12)5-8(14)15/h6-7H,1-5,11-12H2,(H,13,16)(H,14,15)(H,17,18)/t6-,7-/m0/s1
INCHIAUX=N/A
PUBMED=N/A
SUBMITUSER=mwang87
TAGS=
LIBRARYQUALITY=3
SPECTRUMID=CCMSLIB00000425893
SCANS=865
84.0 11.693 
101.0 3.113 
129.0 16.461 
147.0 18.844 
209.0 3.341 
226.0 5.901 
244.0 5.154 
245.0 8.27 
262.0 100.0 
END IONS

BEGIN IONS
PEPMASS=273.185
CHARGE=1+
MSLEVEL=2
SOURCE_INSTRUMENT=Positive-Quattro_QQQ:10eV
FILENAME=hmdb_intermediate.mgf
SEQ=*..*
IONMODE=Positive
ORGANISM=HMDB
NAME=HMDB:HMDB00151-230 Estradiol M+H
PI=HMDB
DATACOLLECTOR=HMDB
SMILES=[H][C@@]12CC[C@H](O)[C@@]1(C)CC[C@]1([H])C3=C(CC[C@@]21[H])C=C(O)C=C3
INCHI=InChI=1S/C18H24O2/c1-18-9-8-14-13-5-3-12(19)10-11(13)2-4-15(14)16(18)6-7-17(18)20/h3,5,10,14-17,19-20H,2,4,6-9H2,1H3/t14-,15-,16+,17+,18+/m1/s1
INCHIAUX=N/A
PUBMED=N/A
SUBMITUSER=mwang87
TAGS=
LIBRARYQUALITY=3
SPECTRUMID=CCMSLIB00000425894
SCANS=866
95.063 1.734 
107.007 14.298 
121.029 1.734 
132.983 4.795 
135.028 22.26 
148.934 3.232 
158.975 18.75 
172.921 5.18 
178.995 1.734 
184.914 2.162 
255.025 20.719 
273.09 100.0 
END IONS

BEGIN IONS
PEPMASS=343.124
CHARGE=1+
MSLEVEL=2
SOURCE_INSTRUMENT=Positive-Quattro_QQQ:25eV
FILENAME=hmdb_intermediate.mgf
SEQ=*..*
IONMODE=Positive
ORGANISM=HMDB
NAME=HMDB:HMDB00055-88 Cellobiose M+H
PI=HMDB
DATACOLLECTOR=HMDB
SMILES=OC[C@H]1O[C@@H](O[C@H]2[C@H](O)[C@@H](O)[C@H](O)O[C@@H]2CO)[C@H](O)[C@@H](O)[C@@H]1O
INCHI=InChI=1S/C12H22O11/c13-1-3-5(15)6(16)9(19)12(22-3)23-10-4(2-14)21-11(20)8(18)7(10)17/h3-20H,1-2H2/t3-,4-,5-,6+,7-,8-,9-,10-,11-,12+/m1/s1
INCHIAUX=N/A
PUBMED=N/A
SUBMITUSER=mwang87
TAGS=
LIBRARYQUALITY=3
SPECTRUMID=CCMSLIB00000425895
SCANS=867
61.382 7.705 
69.31 8.134 
81.261 4.003 
85.253 100.0 
97.183 12.928 
109.115 7.363 
115.12 3.981 
127.117 19.349 
145.098 23.63 
163.021 12.928 
END IONS

BEGIN IONS
PEPMASS=284.099
CHARGE=1+
MSLEVEL=2
SOURCE_INSTRUMENT=Positive-Quattro_QQQ:10eV
FILENAME=hmdb_intermediate.mgf
SEQ=*..*
IONMODE=Positive
ORGANISM=HMDB
NAME=HMDB:HMDB00133-203 Guanosine M+H
PI=HMDB
DATACOLLECTOR=HMDB
SMILES=NC1=NC2=C(N=CN2[C@@H]2O[C@H](CO)[C@@H](O)[C@H]2O)C(=O)N1
INCHI=InChI=1S/C10H13N5O5/c11-10-13-7-4(8(19)14-10)12-2-15(7)9-6(18)5(17)3(1-16)20-9/h2-3,5-6,9,16-18H,1H2,(H3,11,13,14,19)/t3-,5-,6-,9-/m1/s1
INCHIAUX=N/A
PUBMED=N/A
SUBMITUSER=mwang87
TAGS=
LIBRARYQUALITY=3
SPECTRUMID=CCMSLIB00000425896
SCANS=868
151.953 100.0 
284.002 6.635 
END IONS

BEGIN IONS
PEPMASS=215.128
CHARGE=1+
MSLEVEL=2
SOURCE_INSTRUMENT=Negative-Quattro_QQQ:40eV
FILENAME=hmdb_intermediate.mgf
SEQ=*..*
IONMODE=Negative
ORGANISM=HMDB
NAME=HMDB:HMDB00888-1252 Undecanedioic acid M-H
PI=HMDB
DATACOLLECTOR=HMDB
SMILES=OC(=O)CCCCCCCCCC(O)=O
INCHI=InChI=1S/C11H20O4/c12-10(13)8-6-4-2-1-3-5-7-9-11(14)15/h1-9H2,(H,12,13)(H,14,15)
INCHIAUX=N/A
PUBMED=N/A
SUBMITUSER=mwang87
TAGS=
LIBRARYQUALITY=3
SPECTRUMID=CCMSLIB00000425897
SCANS=869
41.609 40.417 
54.464 100.0 
57.464 60.833 
71.328 19.792 
80.253 36.042 
197.333 90.0 
214.364 39.583 
215.285 98.333 
END IONS

BEGIN IONS
PEPMASS=267.171
CHARGE=1+
MSLEVEL=2
SOURCE_INSTRUMENT=Positive-Quattro_QQQ:25eV
FILENAME=hmdb_intermediate.mgf
SEQ=*..*
IONMODE=Positive
ORGANISM=HMDB
NAME=HMDB:HMDB01924-1853 Atenolol M+H
PI=HMDB
DATACOLLECTOR=HMDB
SMILES=CC(C)NCC(O)COC1=CC=C(CC(N)=O)C=C1
INCHI=InChI=1S/C14H22N2O3/c1-10(2)16-8-12(17)9-19-13-5-3-11(4-6-13)7-14(15)18/h3-6,10,12,16-17H,7-9H2,1-2H3,(H2,15,18)
INCHIAUX=N/A
PUBMED=N/A
SUBMITUSER=mwang87
TAGS=
LIBRARYQUALITY=3
SPECTRUMID=CCMSLIB00000425898
SCANS=870
58.235 41.435 
74.212 59.416 
74.846 22.969 
90.57 15.454 
98.305 33.357 
115.679 27.371 
133.434 15.372 
144.468 53.138 
144.595 100.0 
162.224 33.625 
172.751 14.568 
178.206 64.331 
189.875 66.502 
207.76 23.614 
224.251 27.532 
224.885 27.264 
267.13 55.659 
END IONS

BEGIN IONS
PEPMASS=146.082
CHARGE=1+
MSLEVEL=2
SOURCE_INSTRUMENT=Positive-Quattro_QQQ:25eV
FILENAME=hmdb_intermediate.mgf
SEQ=*..*
IONMODE=Positive
ORGANISM=HMDB
NAME=HMDB:HMDB00808-1156 N-Butyrylglycine M+H
PI=HMDB
DATACOLLECTOR=HMDB
SMILES=CCCC(=O)NCC(O)=O
INCHI=InChI=1S/C6H11NO3/c1-2-3-5(8)7-4-6(9)10/h2-4H2,1H3,(H,7,8)(H,9,10)
INCHIAUX=N/A
PUBMED=N/A
SUBMITUSER=mwang87
TAGS=
LIBRARYQUALITY=3
SPECTRUMID=CCMSLIB00000425899
SCANS=871
43.662 100.0 
71.377 23.037 
76.341 10.995 
END IONS

BEGIN IONS
PEPMASS=385.347
CHARGE=1+
MSLEVEL=2
SOURCE_INSTRUMENT=Positive-Quattro_QQQ:40eV
FILENAME=hmdb_intermediate.mgf
SEQ=*..*
IONMODE=Positive
ORGANISM=HMDB
NAME=HMDB:HMDB00921-1311 Cholestenone M+H
PI=HMDB
DATACOLLECTOR=HMDB
SMILES=[H][C@@]12CC[C@H]([C@H](C)CCCC(C)C)[C@@]1(C)CC[C@@]1([H])[C@@]2([H])CCC2=CC(=O)CC[C@]12C
INCHI=InChI=1S/C27H44O/c1-18(2)7-6-8-19(3)23-11-12-24-22-10-9-20-17-21(28)13-15-26(20,4)25(22)14-16-27(23,24)5/h17-19,22-25H,6-16H2,1-5H3/t19-,22+,23-,24+,25+,26+,27-/m1/s1
INCHIAUX=N/A
PUBMED=N/A
SUBMITUSER=mwang87
TAGS=
LIBRARYQUALITY=3
SPECTRUMID=CCMSLIB00000425900
SCANS=872
55.0 39.286 
69.0 60.647 
81.0 94.854 
93.0 51.101 
96.0 100.0 
108.0 95.264 
122.0 44.439 
161.0 33.606 
END IONS

BEGIN IONS
PEPMASS=187.097
CHARGE=1+
MSLEVEL=2
SOURCE_INSTRUMENT=Negative-Quattro_QQQ:40eV
FILENAME=hmdb_intermediate.mgf
SEQ=*..*
IONMODE=Negative
ORGANISM=HMDB
NAME=HMDB:HMDB00784-1121 Azelaic acid M-H
PI=HMDB
DATACOLLECTOR=HMDB
SMILES=OC(=O)CCCCCCCC(O)=O
INCHI=InChI=1S/C9H16O4/c10-8(11)6-4-2-1-3-5-7-9(12)13/h1-7H2,(H,10,11)(H,12,13)
INCHIAUX=N/A
PUBMED=N/A
SUBMITUSER=mwang87
TAGS=
LIBRARYQUALITY=3
SPECTRUMID=CCMSLIB00000425901
SCANS=873
41.277 33.908 
54.116 47.701 
57.183 78.161 
69.125 36.063 
80.029 30.46 
95.024 100.0 
122.995 19.828 
124.775 26.006 
168.936 23.42 
184.303 7.651 
187.06 87.356 
END IONS

BEGIN IONS
PEPMASS=126.103
CHARGE=1+
MSLEVEL=2
SOURCE_INSTRUMENT=Positive-Quattro_QQQ:10eV
FILENAME=hmdb_intermediate.mgf
SEQ=*..*
IONMODE=Positive
ORGANISM=HMDB
NAME=HMDB:HMDB00898-1271 1-Methylhistamine M+H
PI=HMDB
DATACOLLECTOR=HMDB
SMILES=CN1C=NC(CCN)=C1
INCHI=InChI=1S/C6H11N3/c1-9-4-6(2-3-7)8-5-9/h4-5H,2-3,7H2,1H3
INCHIAUX=N/A
PUBMED=N/A
SUBMITUSER=mwang87
TAGS=
LIBRARYQUALITY=3
SPECTRUMID=CCMSLIB00000425902
SCANS=874
109.367 100.0 
126.249 20.93 
END IONS

BEGIN IONS
PEPMASS=195.077
CHARGE=1+
MSLEVEL=2
SOURCE_INSTRUMENT=Positive-Quattro_QQQ:25eV
FILENAME=hmdb_intermediate.mgf
SEQ=*..*
IONMODE=Positive
ORGANISM=HMDB
NAME=HMDB:HMDB01867-1751 4-Aminohippuric acid M+H
PI=HMDB
DATACOLLECTOR=HMDB
SMILES=NC1=CC=C(C=C1)C(=O)NCC(O)=O
INCHI=InChI=1S/C9H10N2O3/c10-7-3-1-6(2-4-7)9(14)11-5-8(12)13/h1-4H,5,10H2,(H,11,14)(H,12,13)
INCHIAUX=N/A
PUBMED=N/A
SUBMITUSER=mwang87
TAGS=
LIBRARYQUALITY=3
SPECTRUMID=CCMSLIB00000425903
SCANS=875
92.051 41.135 
120.158 100.0 
148.393 14.121 
END IONS

BEGIN IONS
PEPMASS=209.03
CHARGE=1+
MSLEVEL=2
SOURCE_INSTRUMENT=Negative-Quattro_QQQ:40eV
FILENAME=hmdb_intermediate.mgf
SEQ=*..*
IONMODE=Negative
ORGANISM=HMDB
NAME=HMDB:HMDB00639-875 Galactaric acid M-H
PI=HMDB
DATACOLLECTOR=HMDB
SMILES=O[C@@H]([C@@H](O)[C@H](O)C(O)=O)[C@@H](O)C(O)=O
INCHI=InChI=1S/C6H10O8/c7-1(3(9)5(11)12)2(8)4(10)6(13)14/h1-4,7-10H,(H,11,12)(H,13,14)/t1-,2+,3+,4-
INCHIAUX=N/A
PUBMED=N/A
SUBMITUSER=mwang87
TAGS=
LIBRARYQUALITY=3
SPECTRUMID=CCMSLIB00000425904
SCANS=876
43.624 71.765 
45.564 20.588 
59.441 72.941 
71.357 100.0 
75.293 15.147 
85.169 18.971 
END IONS

BEGIN IONS
PEPMASS=165.055
CHARGE=1+
MSLEVEL=2
SOURCE_INSTRUMENT=Positive-Quattro_QQQ:10eV
FILENAME=hmdb_intermediate.mgf
SEQ=*..*
IONMODE=Positive
ORGANISM=HMDB
NAME=HMDB:HMDB00205-328 Phenylpyruvic acid M+H
PI=HMDB
DATACOLLECTOR=HMDB
SMILES=OC(=O)C(=O)CC1=CC=CC=C1
INCHI=InChI=1S/C9H8O3/c10-8(9(11)12)6-7-4-2-1-3-5-7/h1-5H,6H2,(H,11,12)
INCHIAUX=N/A
PUBMED=N/A
SUBMITUSER=mwang87
TAGS=
LIBRARYQUALITY=3
SPECTRUMID=CCMSLIB00000425905
SCANS=877
105.0 70.424 
137.0 13.312 
165.0 100.0 
END IONS

BEGIN IONS
PEPMASS=228.098
CHARGE=1+
MSLEVEL=2
SOURCE_INSTRUMENT=Positive-Quattro_QQQ:10eV
FILENAME=hmdb_intermediate.mgf
SEQ=*..*
IONMODE=Positive
ORGANISM=HMDB
NAME=HMDB:HMDB00014-22 Deoxycytidine M+H
PI=HMDB
DATACOLLECTOR=HMDB
SMILES=NC1=NC(=O)N(C=C1)[C@H]1C[C@H](O)[C@@H](CO)O1
INCHI=InChI=1S/C9H13N3O4/c10-7-1-2-12(9(15)11-7)8-3-5(14)6(4-13)16-8/h1-2,5-6,8,13-14H,3-4H2,(H2,10,11,15)/t5-,6+,8+/m0/s1
INCHIAUX=N/A
PUBMED=N/A
SUBMITUSER=mwang87
TAGS=
LIBRARYQUALITY=3
SPECTRUMID=CCMSLIB00000425906
SCANS=878
112.034 100.0 
117.031 2.953 
227.973 2.163 
END IONS

BEGIN IONS
PEPMASS=115.003
CHARGE=1+
MSLEVEL=2
SOURCE_INSTRUMENT=Negative-Quattro_QQQ:25eV
FILENAME=hmdb_intermediate.mgf
SEQ=*..*
IONMODE=Negative
ORGANISM=HMDB
NAME=HMDB:HMDB00176-281 Maleic acid M-H
PI=HMDB
DATACOLLECTOR=HMDB
SMILES=OC(=O)\C=C/C(O)=O
INCHI=InChI=1S/C4H4O4/c5-3(6)1-2-4(7)8/h1-2H,(H,5,6)(H,7,8)/b2-1-
INCHIAUX=N/A
PUBMED=N/A
SUBMITUSER=mwang87
TAGS=
LIBRARYQUALITY=3
SPECTRUMID=CCMSLIB00000425907
SCANS=879
71.047 100.0 
114.841 32.735 
END IONS

BEGIN IONS
PEPMASS=243.16
CHARGE=1+
MSLEVEL=2
SOURCE_INSTRUMENT=Negative-Quattro_QQQ:25eV
FILENAME=hmdb_intermediate.mgf
SEQ=*..*
IONMODE=Negative
ORGANISM=HMDB
NAME=HMDB:HMDB02327-2059 1,11-Undecanedicarboxylic acid M-H
PI=HMDB
DATACOLLECTOR=HMDB
SMILES=OC(=O)CCCCCCCCCCCC(O)=O
INCHI=InChI=1S/C13H24O4/c14-12(15)10-8-6-4-2-1-3-5-7-9-11-13(16)17/h1-11H2,(H,14,15)(H,16,17)
INCHIAUX=N/A
PUBMED=N/A
SUBMITUSER=mwang87
TAGS=
LIBRARYQUALITY=3
SPECTRUMID=CCMSLIB00000425908
SCANS=880
57.0 15.059 
82.0 44.426 
153.0 42.218 
180.0 54.569 
224.0 100.0 
225.0 55.478 
242.0 9.176 
END IONS

BEGIN IONS
PEPMASS=250.025
CHARGE=1+
MSLEVEL=2
SOURCE_INSTRUMENT=Positive-Quattro_QQQ:40eV
FILENAME=hmdb_intermediate.mgf
SEQ=*..*
IONMODE=Positive
ORGANISM=HMDB
NAME=HMDB:HMDB01915-1830 Alendronic acid M+H
PI=HMDB
DATACOLLECTOR=HMDB
SMILES=NCCCC(O)(P(O)(O)=O)P(O)(O)=O
INCHI=InChI=1S/C4H13NO7P2/c5-3-1-2-4(6,13(7,8)9)14(10,11)12/h6H,1-3,5H2,(H2,7,8,9)(H2,10,11,12)
INCHIAUX=N/A
PUBMED=N/A
SUBMITUSER=mwang87
TAGS=
LIBRARYQUALITY=3
SPECTRUMID=CCMSLIB00000425909
SCANS=881
58.56 76.247 
77.449 100.0 
86.023 47.745 
98.823 23.127 
118.707 16.221 
126.288 15.355 
150.274 77.112 
187.56 15.355 
222.24 14.923 
301.428 16.653 
END IONS

BEGIN IONS
PEPMASS=103.04
CHARGE=1+
MSLEVEL=2
SOURCE_INSTRUMENT=Negative-Quattro_QQQ:10eV
FILENAME=hmdb_intermediate.mgf
SEQ=*..*
IONMODE=Negative
ORGANISM=HMDB
NAME=HMDB:HMDB00729-1023 Alpha-Hydroxyisobutyric acid M-H
PI=HMDB
DATACOLLECTOR=HMDB
SMILES=CC(C)(O)C(O)=O
INCHI=InChI=1S/C4H8O3/c1-4(2,7)3(5)6/h7H,1-2H3,(H,5,6)
INCHIAUX=N/A
PUBMED=N/A
SUBMITUSER=mwang87
TAGS=
LIBRARYQUALITY=3
SPECTRUMID=CCMSLIB00000425910
SCANS=882
45.574 28.041 
57.493 67.568 
103.248 100.0 
END IONS

BEGIN IONS
PEPMASS=109.065
CHARGE=1+
MSLEVEL=2
SOURCE_INSTRUMENT=Positive-Quattro_QQQ:10eV
FILENAME=hmdb_intermediate.mgf
SEQ=*..*
IONMODE=Positive
ORGANISM=HMDB
NAME=HMDB:HMDB02055-1971 o-Cresol M+H
PI=HMDB
DATACOLLECTOR=HMDB
SMILES=CC1=CC=CC=C1O
INCHI=InChI=1S/C7H8O/c1-6-4-2-3-5-7(6)8/h2-5,8H,1H3
INCHIAUX=N/A
PUBMED=N/A
SUBMITUSER=mwang87
TAGS=
LIBRARYQUALITY=3
SPECTRUMID=CCMSLIB00000425911
SCANS=883
60.0 5.138 
66.0 18.653 
80.0 22.51 
93.0 11.199 
108.0 100.0 
END IONS

BEGIN IONS
PEPMASS=155.009
CHARGE=1+
MSLEVEL=2
SOURCE_INSTRUMENT=Negative-Quattro_QQQ:40eV
FILENAME=hmdb_intermediate.mgf
SEQ=*..*
IONMODE=Negative
ORGANISM=HMDB
NAME=HMDB:HMDB00226-375 Orotic acid M-H
PI=HMDB
DATACOLLECTOR=HMDB
SMILES=OC(=O)C1=CC(=O)NC(=O)N1
INCHI=InChI=1S/C5H4N2O4/c8-3-1-2(4(9)10)6-5(11)7-3/h1H,(H,9,10)(H2,6,7,8,11)
INCHIAUX=N/A
PUBMED=N/A
SUBMITUSER=mwang87
TAGS=
LIBRARYQUALITY=3
SPECTRUMID=CCMSLIB00000425912
SCANS=884
42.201 100.0 
68.151 6.303 
110.835 28.602 
154.952 2.542 
END IONS

BEGIN IONS
PEPMASS=146.093
CHARGE=1+
MSLEVEL=2
SOURCE_INSTRUMENT=Positive-Quattro_QQQ:25eV
FILENAME=hmdb_intermediate.mgf
SEQ=*..*
IONMODE=Positive
ORGANISM=HMDB
NAME=HMDB:HMDB03464-2320 4-Guanidinobutanoic acid M+H
PI=HMDB
DATACOLLECTOR=HMDB
SMILES=NC(N)=NCCCC(O)=O
INCHI=InChI=1S/C5H11N3O2/c6-5(7)8-3-1-2-4(9)10/h1-3H2,(H,9,10)(H4,6,7,8)
INCHIAUX=N/A
PUBMED=N/A
SUBMITUSER=mwang87
TAGS=
LIBRARYQUALITY=3
SPECTRUMID=CCMSLIB00000425913
SCANS=885
69.0 29.396 
83.0 4.206 
86.0 100.0 
111.0 4.3 
146.0 4.7 
END IONS

BEGIN IONS
PEPMASS=221.06
CHARGE=1+
MSLEVEL=2
SOURCE_INSTRUMENT=Negative-Quattro_QQQ:10eV
FILENAME=hmdb_intermediate.mgf
SEQ=*..*
IONMODE=Negative
ORGANISM=HMDB
NAME=HMDB:HMDB03075-2191 Flavone M-H
PI=HMDB
DATACOLLECTOR=HMDB
SMILES=O=C1C=C(OC2=CC=CC=C12)C1=CC=CC=C1
INCHI=InChI=1S/C15H10O2/c16-13-10-15(11-6-2-1-3-7-11)17-14-9-5-4-8-12(13)14/h1-10H
INCHIAUX=N/A
PUBMED=N/A
SUBMITUSER=mwang87
TAGS=
LIBRARYQUALITY=3
SPECTRUMID=CCMSLIB00000425914
SCANS=886
100.0 16.692 
192.0 2.69 
220.0 100.0 
END IONS

BEGIN IONS
PEPMASS=165.076
CHARGE=1+
MSLEVEL=2
SOURCE_INSTRUMENT=Positive-Quattro_QQQ:40eV
FILENAME=hmdb_intermediate.mgf
SEQ=*..*
IONMODE=Positive
ORGANISM=HMDB
NAME=HMDB:HMDB00849-1201 Rhamnose M+H
PI=HMDB
DATACOLLECTOR=HMDB
SMILES=C[C@@H]1OC(O)[C@H](O)[C@H](O)[C@H]1O
INCHI=InChI=1S/C6H12O5/c1-2-3(7)4(8)5(9)6(10)11-2/h2-10H,1H3/t2-,3-,4+,5+,6?/m0/s1
INCHIAUX=N/A
PUBMED=N/A
SUBMITUSER=mwang87
TAGS=
LIBRARYQUALITY=3
SPECTRUMID=CCMSLIB00000425915
SCANS=887
69.0 100.0 
87.0 26.659 
101.0 34.077 
133.0 14.287 
END IONS

BEGIN IONS
PEPMASS=126.103
CHARGE=1+
MSLEVEL=2
SOURCE_INSTRUMENT=Positive-Quattro_QQQ:40eV
FILENAME=hmdb_intermediate.mgf
SEQ=*..*
IONMODE=Positive
ORGANISM=HMDB
NAME=HMDB:HMDB01861-1740 3-Methylhistamine M+H
PI=HMDB
DATACOLLECTOR=HMDB
SMILES=CN1C=NC=C1CCN
INCHI=InChI=1S/C6H11N3/c1-9-5-8-4-6(9)2-3-7/h4-5H,2-3,7H2,1H3
INCHIAUX=N/A
PUBMED=N/A
SUBMITUSER=mwang87
TAGS=
LIBRARYQUALITY=3
SPECTRUMID=CCMSLIB00000425916
SCANS=888
54.008 22.835 
63.938 39.989 
67.91 45.775 
80.943 100.0 
85.535 30.67 
96.334 25.959 
108.498 19.815 
120.911 15.771 
END IONS

BEGIN IONS
PEPMASS=375.29
CHARGE=1+
MSLEVEL=2
SOURCE_INSTRUMENT=Positive-Quattro_QQQ:10eV
FILENAME=hmdb_intermediate.mgf
SEQ=*..*
IONMODE=Positive
ORGANISM=HMDB
NAME=HMDB:HMDB00308-525 3b-Hydroxy-5-cholenoic acid M+H
PI=HMDB
DATACOLLECTOR=HMDB
SMILES=[H][C@@]12CC[C@H]([C@H](C)CCC(O)=O)[C@@]1(C)CC[C@@]1([H])[C@@]2([H])CC=C2C[C@@H](O)CC[C@]12C
INCHI=InChI=1S/C24H38O3/c1-15(4-9-22(26)27)19-7-8-20-18-6-5-16-14-17(25)10-12-23(16,2)21(18)11-13-24(19,20)3/h5,15,17-21,25H,4,6-14H2,1-3H3,(H,26,27)/t15-,17+,18+,19-,20+,21+,23+,24-/m1/s1
INCHIAUX=N/A
PUBMED=N/A
SUBMITUSER=mwang87
TAGS=
LIBRARYQUALITY=3
SPECTRUMID=CCMSLIB00000425917
SCANS=889
96.987 100.0 
108.466 24.664 
143.031 20.368 
191.603 5.791 
257.34 6.559 
286.742 30.956 
310.972 17.454 
356.785 78.213 
END IONS

BEGIN IONS
PEPMASS=159.175
CHARGE=1+
MSLEVEL=2
SOURCE_INSTRUMENT=Positive-Quattro_QQQ:25eV
FILENAME=hmdb_intermediate.mgf
SEQ=*..*
IONMODE=Positive
ORGANISM=HMDB
NAME=HMDB:HMDB11624-2491 Decyl alcohol  M+H
PI=HMDB
DATACOLLECTOR=HMDB
SMILES=CCCCCCCCCCO
INCHI=InChI=1S/C10H22O/c1-2-3-4-5-6-7-8-9-10-11/h11H,2-10H2,1H3
INCHIAUX=N/A
PUBMED=N/A
SUBMITUSER=mwang87
TAGS=
LIBRARYQUALITY=3
SPECTRUMID=CCMSLIB00000425918
SCANS=890
58.1 28.304 
117.52 100.0 
158.72 46.229 
END IONS

BEGIN IONS
PEPMASS=285.207
CHARGE=1+
MSLEVEL=2
SOURCE_INSTRUMENT=Negative-Quattro_QQQ:40eV
FILENAME=hmdb_intermediate.mgf
SEQ=*..*
IONMODE=Negative
ORGANISM=HMDB
NAME=HMDB:HMDB00672-929 Hexadecanedioic acid M-H
PI=HMDB
DATACOLLECTOR=HMDB
SMILES=OC(=O)CCCCCCCCCCCCCCC(O)=O
INCHI=InChI=1S/C16H30O4/c17-15(18)13-11-9-7-5-3-1-2-4-6-8-10-12-14-16(19)20/h1-14H2,(H,17,18)(H,19,20)
INCHIAUX=N/A
PUBMED=N/A
SUBMITUSER=mwang87
TAGS=
LIBRARYQUALITY=3
SPECTRUMID=CCMSLIB00000425919
SCANS=891
54.417 20.486 
57.519 100.0 
71.229 6.597 
80.529 12.269 
91.381 4.861 
97.026 4.282 
166.448 4.282 
209.56 4.398 
257.77 4.514 
269.053 5.787 
END IONS

BEGIN IONS
PEPMASS=269.063
CHARGE=1+
MSLEVEL=2
SOURCE_INSTRUMENT=Positive-Quattro_QQQ:10eV
FILENAME=hmdb_intermediate.mgf
SEQ=*..*
IONMODE=Positive
ORGANISM=HMDB
NAME=HMDB:HMDB00575-803 DL-Homocystine M+H
PI=HMDB
DATACOLLECTOR=HMDB
SMILES=NC(CCSSCCC(N)C(O)=O)C(O)=O
INCHI=InChI=1S/C8H16N2O4S2/c9-5(7(11)12)1-3-15-16-4-2-6(10)8(13)14/h5-6H,1-4,9-10H2,(H,11,12)(H,13,14)
INCHIAUX=N/A
PUBMED=N/A
SUBMITUSER=mwang87
TAGS=
LIBRARYQUALITY=3
SPECTRUMID=CCMSLIB00000425920
SCANS=892
89.0 7.799 
117.0 4.706 
134.0 32.435 
136.0 100.0 
269.0 12.203 
END IONS

BEGIN IONS
PEPMASS=537.446
CHARGE=1+
MSLEVEL=2
SOURCE_INSTRUMENT=Positive-Quattro_QQQ:40eV
FILENAME=hmdb_intermediate.mgf
SEQ=*..*
IONMODE=Positive
ORGANISM=HMDB
NAME=HMDB:HMDB00561-784 B-Carotene M+H
PI=HMDB
DATACOLLECTOR=HMDB
SMILES=C\C(\C=C\C=C(/C)\C=C\C1=C(C)CCCC1(C)C)=C/C=C/C=C(\C)/C=C/C=C(\C)/C=C/C1=C(C)CCCC1(C)C
INCHI=InChI=1S/C40H56/c1-31(19-13-21-33(3)25-27-37-35(5)23-15-29-39(37,7)8)17-11-12-18-32(2)20-14-22-34(4)26-28-38-36(6)24-16-30-40(38,9)10/h11-14,17-22,25-28H,15-16,23-24,29-30H2,1-10H3/b12-11+,19-13+,20-14+,27-25+,28-26+,31-17+,32-18+,33-21+,34-22+
INCHIAUX=N/A
PUBMED=N/A
SUBMITUSER=mwang87
TAGS=
LIBRARYQUALITY=3
SPECTRUMID=CCMSLIB00000425921
SCANS=893
52.585 10.574 
92.439 13.461 
172.277 12.979 
333.09 100.0 
352.844 11.536 
372.356 48.074 
377.234 11.536 
409.185 95.19 
461.628 10.574 
542.74 12.5 
END IONS

BEGIN IONS
PEPMASS=59.0497
CHARGE=1+
MSLEVEL=2
SOURCE_INSTRUMENT=Positive-Quattro_QQQ:10eV
FILENAME=hmdb_intermediate.mgf
SEQ=*..*
IONMODE=Positive
ORGANISM=HMDB
NAME=HMDB:HMDB01659-1672 Acetone M+H
PI=HMDB
DATACOLLECTOR=HMDB
SMILES=CC(C)=O
INCHI=InChI=1S/C3H6O/c1-3(2)4/h1-2H3
INCHIAUX=N/A
PUBMED=N/A
SUBMITUSER=mwang87
TAGS=
LIBRARYQUALITY=3
SPECTRUMID=CCMSLIB00000425922
SCANS=894
31.0 25.173 
41.0 8.32 
58.0 100.0 
END IONS

BEGIN IONS
PEPMASS=124.04
CHARGE=1+
MSLEVEL=2
SOURCE_INSTRUMENT=Positive-Quattro_QQQ:25eV
FILENAME=hmdb_intermediate.mgf
SEQ=*..*
IONMODE=Positive
ORGANISM=HMDB
NAME=HMDB:HMDB01488-1605 Nicotinic acid M+H
PI=HMDB
DATACOLLECTOR=HMDB
SMILES=OC(=O)C1=CN=CC=C1
INCHI=InChI=1S/C6H5NO2/c8-6(9)5-2-1-3-7-4-5/h1-4H,(H,8,9)
INCHIAUX=N/A
PUBMED=N/A
SUBMITUSER=mwang87
TAGS=
LIBRARYQUALITY=3
SPECTRUMID=CCMSLIB00000425923
SCANS=895
53.205 37.897 
80.071 100.0 
123.834 37.302 
END IONS

BEGIN IONS
PEPMASS=93.0552
CHARGE=1+
MSLEVEL=2
SOURCE_INSTRUMENT=Positive-Quattro_QQQ:10eV
FILENAME=hmdb_intermediate.mgf
SEQ=*..*
IONMODE=Positive
ORGANISM=HMDB
NAME=HMDB:HMDB00131-200 Glycerol M+H
PI=HMDB
DATACOLLECTOR=HMDB
SMILES=OCC(O)CO
INCHI=InChI=1S/C3H8O3/c4-1-3(6)2-5/h3-6H,1-2H2
INCHIAUX=N/A
PUBMED=N/A
SUBMITUSER=mwang87
TAGS=
LIBRARYQUALITY=3
SPECTRUMID=CCMSLIB00000425924
SCANS=896
57.389 100.0 
75.065 15.088 
END IONS

BEGIN IONS
PEPMASS=112.087
CHARGE=1+
MSLEVEL=2
SOURCE_INSTRUMENT=Positive-Quattro_QQQ:10eV
FILENAME=hmdb_intermediate.mgf
SEQ=*..*
IONMODE=Positive
ORGANISM=HMDB
NAME=HMDB:HMDB60263-1223 Histamium M+H
PI=HMDB
DATACOLLECTOR=HMDB
SMILES=NCCC1=CN=CN1
INCHI=InChI=1S/C5H9N3/c6-2-1-5-3-7-4-8-5/h3-4H,1-2,6H2,(H,7,8)
INCHIAUX=N/A
PUBMED=N/A
SUBMITUSER=mwang87
TAGS=
LIBRARYQUALITY=3
SPECTRUMID=CCMSLIB00000425925
SCANS=897
83.047 8.26 
95.04 100.0 
111.998 76.652 
END IONS

BEGIN IONS
PEPMASS=241.13
CHARGE=1+
MSLEVEL=2
SOURCE_INSTRUMENT=Positive-Quattro_QQQ:25eV
FILENAME=hmdb_intermediate.mgf
SEQ=*..*
IONMODE=Positive
ORGANISM=HMDB
NAME=HMDB:HMDB00745-1060 Homocarnosine M+H
PI=HMDB
DATACOLLECTOR=HMDB
SMILES=NCCCC(=O)N[C@@H](CC1=CNC=N1)C(O)=O
INCHI=InChI=1S/C10H16N4O3/c11-3-1-2-9(15)14-8(10(16)17)4-7-5-12-6-13-7/h5-6,8H,1-4,11H2,(H,12,13)(H,14,15)(H,16,17)/t8-/m0/s1
INCHIAUX=N/A
PUBMED=N/A
SUBMITUSER=mwang87
TAGS=
LIBRARYQUALITY=3
SPECTRUMID=CCMSLIB00000425926
SCANS=898
68.921 6.867 
83.005 8.262 
86.034 18.133 
95.082 24.678 
110.041 100.0 
155.943 12.768 
END IONS

BEGIN IONS
PEPMASS=197.067
CHARGE=1+
MSLEVEL=2
SOURCE_INSTRUMENT=Positive-Quattro_QQQ:40eV
FILENAME=hmdb_intermediate.mgf
SEQ=*..*
IONMODE=Positive
ORGANISM=HMDB
NAME=HMDB:HMDB01857-1728 1,3-Dimethyluric acid M+H
PI=HMDB
DATACOLLECTOR=HMDB
SMILES=CN1C2=C(NC(=O)N2)C(=O)N(C)C1=O
INCHI=InChI=1S/C7H8N4O3/c1-10-4-3(8-6(13)9-4)5(12)11(2)7(10)14/h1-2H3,(H2,8,9,13)
INCHIAUX=N/A
PUBMED=N/A
SUBMITUSER=mwang87
TAGS=
LIBRARYQUALITY=3
SPECTRUMID=CCMSLIB00000425927
SCANS=899
57.142 32.343 
70.673 58.122 
77.314 52.291 
92.726 40.742 
95.607 51.589 
113.024 56.256 
118.538 100.0 
127.685 25.11 
153.374 36.659 
156.256 23.477 
165.78 21.96 
180.693 84.721 
193.601 33.158 
195.606 29.775 
END IONS

BEGIN IONS
PEPMASS=254.089
CHARGE=1+
MSLEVEL=2
SOURCE_INSTRUMENT=Positive-Quattro_QQQ:25eV
FILENAME=hmdb_intermediate.mgf
SEQ=*..*
IONMODE=Positive
ORGANISM=HMDB
NAME=HMDB:HMDB00845-1191 Neopterin M+H
PI=HMDB
DATACOLLECTOR=HMDB
SMILES=NC1=NC2=C(N=C(C=N2)C(O)C(O)CO)C(=O)N1
INCHI=InChI=1S/C9H11N5O4/c10-9-13-7-5(8(18)14-9)12-3(1-11-7)6(17)4(16)2-15/h1,4,6,15-17H,2H2,(H3,10,11,13,14,18)
INCHIAUX=N/A
PUBMED=N/A
SUBMITUSER=mwang87
TAGS=
LIBRARYQUALITY=3
SPECTRUMID=CCMSLIB00000425928
SCANS=900
94.19 7.493 
123.943 16.851 
132.774 8.115 
135.553 6.837 
145.016 45.856 
160.976 39.227 
172.969 27.072 
177.022 58.564 
189.797 74.586 
205.992 100.0 
217.956 12.431 
235.979 13.674 
END IONS

BEGIN IONS
PEPMASS=91.0759
CHARGE=1+
MSLEVEL=2
SOURCE_INSTRUMENT=Positive-Quattro_QQQ:25eV
FILENAME=hmdb_intermediate.mgf
SEQ=*..*
IONMODE=Positive
ORGANISM=HMDB
NAME=HMDB:HMDB03156-2204 2,3-Butanediol M+H
PI=HMDB
DATACOLLECTOR=HMDB
SMILES=CC(O)C(C)O
INCHI=InChI=1S/C4H10O2/c1-3(5)4(2)6/h3-6H,1-2H3
INCHIAUX=N/A
PUBMED=N/A
SUBMITUSER=mwang87
TAGS=
LIBRARYQUALITY=3
SPECTRUMID=CCMSLIB00000425929
SCANS=901
39.0 26.495 
50.0 10.43 
64.0 100.0 
65.0 54.09 
90.0 44.12 
END IONS

BEGIN IONS
PEPMASS=120.066
CHARGE=1+
MSLEVEL=2
SOURCE_INSTRUMENT=Positive-Quattro_QQQ:25eV
FILENAME=hmdb_intermediate.mgf
SEQ=*..*
IONMODE=Positive
ORGANISM=HMDB
NAME=HMDB:HMDB00167-264 L-Threonine M+H
PI=HMDB
DATACOLLECTOR=HMDB
SMILES=C[C@@H](O)[C@H](N)C(O)=O
INCHI=InChI=1S/C4H9NO3/c1-2(6)3(5)4(7)8/h2-3,6H,5H2,1H3,(H,7,8)/t2-,3+/m1/s1
INCHIAUX=N/A
PUBMED=N/A
SUBMITUSER=mwang87
TAGS=
LIBRARYQUALITY=3
SPECTRUMID=CCMSLIB00000425930
SCANS=902
46.233 3.771 
56.214 100.0 
74.062 29.609 
84.037 3.108 
119.858 9.078 
END IONS

BEGIN IONS
PEPMASS=129.066
CHARGE=1+
MSLEVEL=2
SOURCE_INSTRUMENT=Positive-Quattro_QQQ:25eV
FILENAME=hmdb_intermediate.mgf
SEQ=*..*
IONMODE=Positive
ORGANISM=HMDB
NAME=HMDB:HMDB00079-130 Dihydrothymine M+H
PI=HMDB
DATACOLLECTOR=HMDB
SMILES=CC1CNC(=O)NC1=O
INCHI=InChI=1S/C5H8N2O2/c1-3-2-6-5(9)7-4(3)8/h3H,2H2,1H3,(H2,6,7,8,9)
INCHIAUX=N/A
PUBMED=N/A
SUBMITUSER=mwang87
TAGS=
LIBRARYQUALITY=3
SPECTRUMID=CCMSLIB00000425931
SCANS=903
41.353 100.0 
56.187 25.857 
69.132 49.143 
84.083 9.143 
86.105 8.286 
128.955 7.607 
END IONS

BEGIN IONS
PEPMASS=183.066
CHARGE=1+
MSLEVEL=2
SOURCE_INSTRUMENT=Negative-Quattro_QQQ:25eV
FILENAME=hmdb_intermediate.mgf
SEQ=*..*
IONMODE=Negative
ORGANISM=HMDB
NAME=HMDB:HMDB01490-1608 Vanylglycol M-H
PI=HMDB
DATACOLLECTOR=HMDB
SMILES=COC1=CC(=CC=C1O)C(O)CO
INCHI=InChI=1S/C9H12O4/c1-13-9-4-6(8(12)5-10)2-3-7(9)11/h2-4,8,10-12H,5H2,1H3
INCHIAUX=N/A
PUBMED=N/A
SUBMITUSER=mwang87
TAGS=
LIBRARYQUALITY=3
SPECTRUMID=CCMSLIB00000425932
SCANS=904
93.0 10.526 
121.0 100.0 
150.0 15.238 
END IONS

BEGIN IONS
PEPMASS=160.097
CHARGE=1+
MSLEVEL=2
SOURCE_INSTRUMENT=Positive-Quattro_QQQ:10eV
FILENAME=hmdb_intermediate.mgf
SEQ=*..*
IONMODE=Positive
ORGANISM=HMDB
NAME=HMDB:HMDB00927-1318 Valerylglycine M+H
PI=HMDB
DATACOLLECTOR=HMDB
SMILES=CCCCC(=O)NCC(O)=O
INCHI=InChI=1S/C7H13NO3/c1-2-3-4-6(9)8-5-7(10)11/h2-5H2,1H3,(H,8,9)(H,10,11)
INCHIAUX=N/A
PUBMED=N/A
SUBMITUSER=mwang87
TAGS=
LIBRARYQUALITY=3
SPECTRUMID=CCMSLIB00000425933
SCANS=905
57.521 29.644 
76.341 100.0 
85.335 87.747 
160.123 4.521 
END IONS

BEGIN IONS
PEPMASS=189.103
CHARGE=1+
MSLEVEL=2
SOURCE_INSTRUMENT=Negative-Quattro_QQQ:25eV
FILENAME=hmdb_intermediate.mgf
SEQ=*..*
IONMODE=Negative
ORGANISM=HMDB
NAME=HMDB:HMDB04095-2362 5-Methoxytryptamine M-H
PI=HMDB
DATACOLLECTOR=HMDB
SMILES=COC1=CC2=C(NC=C2CCN)C=C1
INCHI=InChI=1S/C11H14N2O/c1-14-9-2-3-11-10(6-9)8(4-5-12)7-13-11/h2-3,6-7,13H,4-5,12H2,1H3
INCHIAUX=N/A
PUBMED=N/A
SUBMITUSER=mwang87
TAGS=
LIBRARYQUALITY=3
SPECTRUMID=CCMSLIB00000425934
SCANS=906
143.0 100.0 
145.0 2.368 
173.0 6.105 
END IONS

BEGIN IONS
PEPMASS=289.217
CHARGE=1+
MSLEVEL=2
SOURCE_INSTRUMENT=Positive-Quattro_QQQ:25eV
FILENAME=hmdb_intermediate.mgf
SEQ=*..*
IONMODE=Positive
ORGANISM=HMDB
NAME=HMDB:HMDB00234-392 Testosterone M+H
PI=HMDB
DATACOLLECTOR=HMDB
SMILES=[H][C@@]12CC[C@H](O)[C@@]1(C)CC[C@@]1([H])[C@@]2([H])CCC2=CC(=O)CC[C@]12C
INCHI=InChI=1S/C19H28O2/c1-18-9-7-13(20)11-12(18)3-4-14-15-5-6-17(21)19(15,2)10-8-16(14)18/h11,14-17,21H,3-10H2,1-2H3/t14-,15-,16-,17-,18-,19-/m0/s1
INCHIAUX=N/A
PUBMED=N/A
SUBMITUSER=mwang87
TAGS=
LIBRARYQUALITY=3
SPECTRUMID=CCMSLIB00000425935
SCANS=907
81.124 6.114 
93.108 3.957 
97.097 100.0 
109.05 79.348 
123.032 6.454 
133.002 1.817 
147.009 2.48 
159.026 2.582 
175.033 1.8 
289.049 2.565 
END IONS

BEGIN IONS
PEPMASS=99.0446
CHARGE=1+
MSLEVEL=2
SOURCE_INSTRUMENT=Negative-Quattro_QQQ:40eV
FILENAME=hmdb_intermediate.mgf
SEQ=*..*
IONMODE=Negative
ORGANISM=HMDB
NAME=HMDB:HMDB01470-1594 Tiglic acid M-H
PI=HMDB
DATACOLLECTOR=HMDB
SMILES=C\C=C(/C)C(O)=O
INCHI=InChI=1S/C5H8O2/c1-3-4(2)5(6)7/h3H,1-2H3,(H,6,7)/b4-3+
INCHIAUX=N/A
PUBMED=N/A
SUBMITUSER=mwang87
TAGS=
LIBRARYQUALITY=3
SPECTRUMID=CCMSLIB00000425936
SCANS=908
39.711 7.835 
55.563 42.077 
99.352 100.0 
END IONS

BEGIN IONS
PEPMASS=343.124
CHARGE=1+
MSLEVEL=2
SOURCE_INSTRUMENT=Positive-Quattro_QQQ:10eV
FILENAME=hmdb_intermediate.mgf
SEQ=*..*
IONMODE=Positive
ORGANISM=HMDB
NAME=HMDB:HMDB00055-87 Cellobiose M+H
PI=HMDB
DATACOLLECTOR=HMDB
SMILES=OC[C@H]1O[C@@H](O[C@H]2[C@H](O)[C@@H](O)[C@H](O)O[C@@H]2CO)[C@H](O)[C@@H](O)[C@@H]1O
INCHI=InChI=1S/C12H22O11/c13-1-3-5(15)6(16)9(19)12(22-3)23-10-4(2-14)21-11(20)8(18)7(10)17/h3-20H,1-2H2/t3-,4-,5-,6+,7-,8-,9-,10-,11-,12+/m1/s1
INCHIAUX=N/A
PUBMED=N/A
SUBMITUSER=mwang87
TAGS=
LIBRARYQUALITY=3
SPECTRUMID=CCMSLIB00000425937
SCANS=909
85.237 9.283 
97.23 1.132 
127.093 4.573 
145.067 18.658 
163.075 100.0 
180.953 6.342 
271.053 1.212 
289.014 2.091 
325.006 12.684 
343.121 11.949 
END IONS

BEGIN IONS
PEPMASS=167.057
CHARGE=1+
MSLEVEL=2
SOURCE_INSTRUMENT=Positive-Quattro_QQQ:25eV
FILENAME=hmdb_intermediate.mgf
SEQ=*..*
IONMODE=Positive
ORGANISM=HMDB
NAME=HMDB:HMDB01886-1787 3-Methylxanthine M+H
PI=HMDB
DATACOLLECTOR=HMDB
SMILES=CN1C2=C(NC=N2)C(=O)NC1=O
INCHI=InChI=1S/C6H6N4O2/c1-10-4-3(7-2-8-4)5(11)9-6(10)12/h2H,1H3,(H,7,8)(H,9,11,12)
INCHIAUX=N/A
PUBMED=N/A
SUBMITUSER=mwang87
TAGS=
LIBRARYQUALITY=3
SPECTRUMID=CCMSLIB00000425938
SCANS=910
69.187 7.31 
83.867 10.67 
94.031 6.927 
96.039 24.435 
124.021 56.319 
124.523 52.497 
148.994 40.06 
166.688 100.0 
END IONS

BEGIN IONS
PEPMASS=153.055
CHARGE=1+
MSLEVEL=2
SOURCE_INSTRUMENT=Positive-Quattro_QQQ:40eV
FILENAME=hmdb_intermediate.mgf
SEQ=*..*
IONMODE=Positive
ORGANISM=HMDB
NAME=HMDB:HMDB02390-2094 3-Cresotinic acid M+H
PI=HMDB
DATACOLLECTOR=HMDB
SMILES=CC1=C(O)C(=CC=C1)C(O)=O
INCHI=InChI=1S/C8H8O3/c1-5-3-2-4-6(7(5)9)8(10)11/h2-4,9H,1H3,(H,10,11)
INCHIAUX=N/A
PUBMED=N/A
SUBMITUSER=mwang87
TAGS=
LIBRARYQUALITY=3
SPECTRUMID=CCMSLIB00000425939
SCANS=911
65.0 1.866 
77.0 100.0 
135.0 2.06 
END IONS

BEGIN IONS
PEPMASS=159.066
CHARGE=1+
MSLEVEL=2
SOURCE_INSTRUMENT=Negative-Quattro_QQQ:40eV
FILENAME=hmdb_intermediate.mgf
SEQ=*..*
IONMODE=Negative
ORGANISM=HMDB
NAME=HMDB:HMDB00555-778 3-Methyladipic acid M-H
PI=HMDB
DATACOLLECTOR=HMDB
SMILES=C[C@@H](CCC(O)=O)CC(O)=O
INCHI=InChI=1S/C7H12O4/c1-5(4-7(10)11)2-3-6(8)9/h5H,2-4H2,1H3,(H,8,9)(H,10,11)/t5-/m0/s1
INCHIAUX=N/A
PUBMED=N/A
SUBMITUSER=mwang87
TAGS=
LIBRARYQUALITY=3
SPECTRUMID=CCMSLIB00000425940
SCANS=912
41.63 25.335 
53.573 60.714 
54.562 71.875 
67.458 62.054 
81.331 68.75 
95.276 100.0 
115.322 30.804 
159.18 73.214 
END IONS

BEGIN IONS
PEPMASS=152.071
CHARGE=1+
MSLEVEL=2
SOURCE_INSTRUMENT=Positive-Quattro_QQQ:10eV
FILENAME=hmdb_intermediate.mgf
SEQ=*..*
IONMODE=Positive
ORGANISM=HMDB
NAME=HMDB:HMDB01859-1732 Acetaminophen M+H
PI=HMDB
DATACOLLECTOR=HMDB
SMILES=CC(=O)NC1=CC=C(O)C=C1
INCHI=InChI=1S/C8H9NO2/c1-6(10)9-7-2-4-8(11)5-3-7/h2-5,11H,1H3,(H,9,10)
INCHIAUX=N/A
PUBMED=N/A
SUBMITUSER=mwang87
TAGS=
LIBRARYQUALITY=3
SPECTRUMID=CCMSLIB00000425941
SCANS=913
43.953 14.863 
54.854 9.369 
69.515 15.825 
84.051 13.54 
90.567 33.629 
96.457 31.464 
109.615 81.873 
123.775 14.141 
134.427 41.931 
135.681 12.778 
152.349 100.0 
174.657 12.456 
END IONS

BEGIN IONS
PEPMASS=281.114
CHARGE=1+
MSLEVEL=2
SOURCE_INSTRUMENT=Positive-Quattro_QQQ:10eV
FILENAME=hmdb_intermediate.mgf
SEQ=*..*
IONMODE=Positive
ORGANISM=HMDB
NAME=HMDB:HMDB00706-987 L-Aspartyl-L-phenylalanine M+H
PI=HMDB
DATACOLLECTOR=HMDB
SMILES=N[C@@H](CC(O)=O)C(=O)N[C@@H](CC1=CC=CC=C1)C(O)=O
INCHI=InChI=1S/C13H16N2O5/c14-9(7-11(16)17)12(18)15-10(13(19)20)6-8-4-2-1-3-5-8/h1-5,9-10H,6-7,14H2,(H,15,18)(H,16,17)(H,19,20)/t9-,10-/m0/s1
INCHIAUX=N/A
PUBMED=N/A
SUBMITUSER=mwang87
TAGS=
LIBRARYQUALITY=3
SPECTRUMID=CCMSLIB00000425942
SCANS=914
88.096 10.377 
120.05 13.836 
166.006 78.616 
175.001 6.486 
199.942 12.893 
220.948 24.686 
234.966 59.119 
245.649 53.459 
263.034 34.277 
280.997 100.0 
END IONS

BEGIN IONS
PEPMASS=91.0395
CHARGE=1+
MSLEVEL=2
SOURCE_INSTRUMENT=Positive-Quattro_QQQ:40eV
FILENAME=hmdb_intermediate.mgf
SEQ=*..*
IONMODE=Positive
ORGANISM=HMDB
NAME=HMDB:HMDB01051-1405 Glyceraldehyde M+H
PI=HMDB
DATACOLLECTOR=HMDB
SMILES=OCC(O)C=O
INCHI=InChI=1S/C3H6O3/c4-1-3(6)2-5/h1,3,5-6H,2H2
INCHIAUX=N/A
PUBMED=N/A
SUBMITUSER=mwang87
TAGS=
LIBRARYQUALITY=3
SPECTRUMID=CCMSLIB00000425943
SCANS=915
43.316 87.097 
45.299 35.685 
61.109 100.0 
90.919 99.194 
END IONS

BEGIN IONS
PEPMASS=426.053
CHARGE=1+
MSLEVEL=2
SOURCE_INSTRUMENT=Positive-Quattro_QQQ:10eV
FILENAME=hmdb_intermediate.mgf
SEQ=*..*
IONMODE=Positive
ORGANISM=HMDB
NAME=HMDB:HMDB01372-1541 Thiamine pyrophosphate M+H
PI=HMDB
DATACOLLECTOR=HMDB
SMILES=CC1=C(CCO[P@](O)(=O)OP(O)(O)=O)SC=[N+]1CC1=CN=C(C)N=C1N
INCHI=InChI=1S/C12H18N4O7P2S/c1-8-11(3-4-22-25(20,21)23-24(17,18)19)26-7-16(8)6-10-5-14-9(2)15-12(10)13/h5,7H,3-4,6H2,1-2H3,(H4-,13,14,15,17,18,19,20,21)/p+1
INCHIAUX=N/A
PUBMED=N/A
SUBMITUSER=mwang87
TAGS=
LIBRARYQUALITY=3
SPECTRUMID=CCMSLIB00000425944
SCANS=916
122.0 19.432 
202.0 1.275 
224.0 3.428 
225.0 1.238 
304.0 11.181 
305.0 3.578 
347.0 1.652 
425.0 100.0 
END IONS

BEGIN IONS
PEPMASS=122.028
CHARGE=1+
MSLEVEL=2
SOURCE_INSTRUMENT=Positive-Quattro_QQQ:25eV
FILENAME=hmdb_intermediate.mgf
SEQ=*..*
IONMODE=Positive
ORGANISM=HMDB
NAME=HMDB:HMDB00574-801 L-Cysteine M+H
PI=HMDB
DATACOLLECTOR=HMDB
SMILES=N[C@@H](CS)C(O)=O
INCHI=InChI=1S/C3H7NO2S/c4-2(1-7)3(5)6/h2,7H,1,4H2,(H,5,6)/t2-/m0/s1
INCHIAUX=N/A
PUBMED=N/A
SUBMITUSER=mwang87
TAGS=
LIBRARYQUALITY=3
SPECTRUMID=CCMSLIB00000425945
SCANS=917
43.368 10.197 
59.139 100.0 
76.066 44.737 
86.996 7.895 
121.835 9.211 
END IONS

BEGIN IONS
PEPMASS=197.045
CHARGE=1+
MSLEVEL=2
SOURCE_INSTRUMENT=Negative-Quattro_QQQ:25eV
FILENAME=hmdb_intermediate.mgf
SEQ=*..*
IONMODE=Negative
ORGANISM=HMDB
NAME=HMDB:HMDB00291-493 Vanillylmandelic acid M-H
PI=HMDB
DATACOLLECTOR=HMDB
SMILES=COC1=C(O)C=CC(=C1)[C@H](O)C(O)=O
INCHI=InChI=1S/C9H10O5/c1-14-7-4-5(2-3-6(7)10)8(11)9(12)13/h2-4,8,10-11H,1H3,(H,12,13)/t8-/m0/s1
INCHIAUX=N/A
PUBMED=N/A
SUBMITUSER=mwang87
TAGS=
LIBRARYQUALITY=3
SPECTRUMID=CCMSLIB00000425946
SCANS=918
137.132 100.0 
END IONS

BEGIN IONS
PEPMASS=157.014
CHARGE=1+
MSLEVEL=2
SOURCE_INSTRUMENT=Positive-Quattro_QQQ:25eV
FILENAME=hmdb_intermediate.mgf
SEQ=*..*
IONMODE=Positive
ORGANISM=HMDB
NAME=HMDB:HMDB04812-2404 2,5-Furandicarboxylic acid M+H
PI=HMDB
DATACOLLECTOR=HMDB
SMILES=OC(=O)C1=CC=C(O1)C(O)=O
INCHI=InChI=1S/C6H4O5/c7-5(8)3-1-2-4(11-3)6(9)10/h1-2H,(H,7,8)(H,9,10)
INCHIAUX=N/A
PUBMED=N/A
SUBMITUSER=mwang87
TAGS=
LIBRARYQUALITY=3
SPECTRUMID=CCMSLIB00000425947
SCANS=919
39.37 55.509 
67.04 49.193 
94.4 25.721 
94.97 100.0 
138.98 42.535 
END IONS

BEGIN IONS
PEPMASS=115.003
CHARGE=1+
MSLEVEL=2
SOURCE_INSTRUMENT=Negative-Quattro_QQQ:40eV
FILENAME=hmdb_intermediate.mgf
SEQ=*..*
IONMODE=Negative
ORGANISM=HMDB
NAME=HMDB:HMDB00134-208 Fumaric acid M-H
PI=HMDB
DATACOLLECTOR=HMDB
SMILES=OC(=O)\C=C\C(O)=O
INCHI=InChI=1S/C4H4O4/c5-3(6)1-2-4(7)8/h1-2H,(H,5,6)(H,7,8)/b2-1+
INCHIAUX=N/A
PUBMED=N/A
SUBMITUSER=mwang87
TAGS=
LIBRARYQUALITY=3
SPECTRUMID=CCMSLIB00000425948
SCANS=920
45.152 48.846 
70.889 91.154 
113.717 27.692 
114.934 100.0 
END IONS

BEGIN IONS
PEPMASS=209.03
CHARGE=1+
MSLEVEL=2
SOURCE_INSTRUMENT=Negative-Quattro_QQQ:40eV
FILENAME=hmdb_intermediate.mgf
SEQ=*..*
IONMODE=Negative
ORGANISM=HMDB
NAME=HMDB:HMDB00663-908 Glucaric acid M-H
PI=HMDB
DATACOLLECTOR=HMDB
SMILES=O[C@@H]([C@H](O)[C@@H](O)C(O)=O)[C@H](O)C(O)=O
INCHI=InChI=1S/C6H10O8/c7-1(3(9)5(11)12)2(8)4(10)6(13)14/h1-4,7-10H,(H,11,12)(H,13,14)/t1-,2-,3-,4+/m0/s1
INCHIAUX=N/A
PUBMED=N/A
SUBMITUSER=mwang87
TAGS=
LIBRARYQUALITY=3
SPECTRUMID=CCMSLIB00000425949
SCANS=921
43.648 69.101 
45.595 24.438 
59.473 77.528 
71.381 100.0 
75.348 18.68 
85.333 23.876 
END IONS

BEGIN IONS
PEPMASS=133.086
CHARGE=1+
MSLEVEL=2
SOURCE_INSTRUMENT=Positive-Quattro_QQQ:25eV
FILENAME=hmdb_intermediate.mgf
SEQ=*..*
IONMODE=Positive
ORGANISM=HMDB
NAME=HMDB:HMDB00665-910 Leucinic acid M+H
PI=HMDB
DATACOLLECTOR=HMDB
SMILES=CC(C)CC(O)C(O)=O
INCHI=InChI=1S/C6H12O3/c1-4(2)3-5(7)6(8)9/h4-5,7H,3H2,1-2H3,(H,8,9)
INCHIAUX=N/A
PUBMED=N/A
SUBMITUSER=mwang87
TAGS=
LIBRARYQUALITY=3
SPECTRUMID=CCMSLIB00000425950
SCANS=922
51.776 37.59 
55.284 70.099 
68.942 100.0 
77.839 37.866 
105.533 25.247 
131.849 16.33 
END IONS

BEGIN IONS
PEPMASS=137.024
CHARGE=1+
MSLEVEL=2
SOURCE_INSTRUMENT=Negative-Quattro_QQQ:25eV
FILENAME=hmdb_intermediate.mgf
SEQ=*..*
IONMODE=Negative
ORGANISM=HMDB
NAME=HMDB:HMDB01895-1811 Salicylic acid M-H
PI=HMDB
DATACOLLECTOR=HMDB
SMILES=OC(=O)C1=CC=CC=C1O
INCHI=InChI=1S/C7H6O3/c8-6-4-2-1-3-5(6)7(9)10/h1-4,8H,(H,9,10)
INCHIAUX=N/A
PUBMED=N/A
SUBMITUSER=mwang87
TAGS=
LIBRARYQUALITY=3
SPECTRUMID=CCMSLIB00000425951
SCANS=923
58.136 26.896 
65.106 77.575 
82.409 14.232 
93.488 79.864 
97.471 31.16 
110.791 43.283 
121.248 100.0 
END IONS

BEGIN IONS
PEPMASS=444.032
CHARGE=1+
MSLEVEL=2
SOURCE_INSTRUMENT=Positive-Quattro_QQQ:25eV
FILENAME=hmdb_intermediate.mgf
SEQ=*..*
IONMODE=Positive
ORGANISM=HMDB
NAME=HMDB:HMDB01201-1461 Guanosine diphosphate M+H
PI=HMDB
DATACOLLECTOR=HMDB
SMILES=NC1=NC2=C(N=CN2[C@@H]2O[C@H](COP(O)(=O)OP(O)(O)=O)[C@@H](O)[C@H]2O)C(=O)N1
INCHI=InChI=1S/C10H15N5O11P2/c11-10-13-7-4(8(18)14-10)12-2-15(7)9-6(17)5(16)3(25-9)1-24-28(22,23)26-27(19,20)21/h2-3,5-6,9,16-17H,1H2,(H,22,23)(H2,19,20,21)(H3,11,13,14,18)/t3-,5-,6-,9-/m1/s1
INCHIAUX=N/A
PUBMED=N/A
SUBMITUSER=mwang87
TAGS=
LIBRARYQUALITY=3
SPECTRUMID=CCMSLIB00000425952
SCANS=924
97.0 7.217 
152.0 100.0 
END IONS

BEGIN IONS
PEPMASS=169.05
CHARGE=1+
MSLEVEL=2
SOURCE_INSTRUMENT=Positive-Quattro_QQQ:25eV
FILENAME=hmdb_intermediate.mgf
SEQ=*..*
IONMODE=Positive
ORGANISM=HMDB
NAME=HMDB:HMDB00130-198 Homogentisic acid M+H
PI=HMDB
DATACOLLECTOR=HMDB
SMILES=OC(=O)CC1=C(O)C=CC(O)=C1
INCHI=InChI=1S/C8H8O4/c9-6-1-2-7(10)5(3-6)4-8(11)12/h1-3,9-10H,4H2,(H,11,12)
INCHIAUX=N/A
PUBMED=N/A
SUBMITUSER=mwang87
TAGS=
LIBRARYQUALITY=3
SPECTRUMID=CCMSLIB00000425953
SCANS=925
43.0 18.504 
67.0 87.741 
77.0 16.589 
95.0 56.815 
123.0 100.0 
END IONS

BEGIN IONS
PEPMASS=90.0555
CHARGE=1+
MSLEVEL=2
SOURCE_INSTRUMENT=Positive-Quattro_QQQ:10eV
FILENAME=hmdb_intermediate.mgf
SEQ=*..*
IONMODE=Positive
ORGANISM=HMDB
NAME=HMDB:HMDB00271-472 Sarcosine M+H
PI=HMDB
DATACOLLECTOR=HMDB
SMILES=CNCC(O)=O
INCHI=InChI=1S/C3H7NO2/c1-4-2-3(5)6/h4H,2H2,1H3,(H,5,6)
INCHIAUX=N/A
PUBMED=N/A
SUBMITUSER=mwang87
TAGS=
LIBRARYQUALITY=3
SPECTRUMID=CCMSLIB00000425954
SCANS=926
44.294 100.0 
90.033 49.367 
END IONS

BEGIN IONS
PEPMASS=118.066
CHARGE=1+
MSLEVEL=2
SOURCE_INSTRUMENT=Positive-Quattro_QQQ:10eV
FILENAME=hmdb_intermediate.mgf
SEQ=*..*
IONMODE=Positive
ORGANISM=HMDB
NAME=HMDB:HMDB00738-1047 Indole M+H
PI=HMDB
DATACOLLECTOR=HMDB
SMILES=N1C=CC2=C1C=CC=C2
INCHI=InChI=1S/C8H7N/c1-2-4-8-7(3-1)5-6-9-8/h1-6,9H
INCHIAUX=N/A
PUBMED=N/A
SUBMITUSER=mwang87
TAGS=
LIBRARYQUALITY=3
SPECTRUMID=CCMSLIB00000425955
SCANS=927
91.065 8.051 
117.994 100.0 
END IONS

BEGIN IONS
PEPMASS=297.972
CHARGE=1+
MSLEVEL=2
SOURCE_INSTRUMENT=Positive-Quattro_QQQ:40eV
FILENAME=hmdb_intermediate.mgf
SEQ=*..*
IONMODE=Positive
ORGANISM=HMDB
NAME=HMDB:HMDB01928-1865 Hydrochlorothiazide M+H
PI=HMDB
DATACOLLECTOR=HMDB
SMILES=NS(=O)(=O)C1=C(Cl)C=C2NCNS(=O)(=O)C2=C1
INCHI=InChI=1S/C7H8ClN3O4S2/c8-4-1-5-7(2-6(4)16(9,12)13)17(14,15)11-3-10-5/h1-2,10-11H,3H2,(H2,9,12,13)
INCHIAUX=N/A
PUBMED=N/A
SUBMITUSER=mwang87
TAGS=
LIBRARYQUALITY=3
SPECTRUMID=CCMSLIB00000425956
SCANS=928
69.131 34.172 
89.22 11.095 
94.527 14.793 
108.592 100.0 
118.059 30.917 
133.397 15.385 
139.189 14.793 
144.724 12.722 
156.16 17.16 
166.401 21.302 
186.566 24.112 
END IONS

BEGIN IONS
PEPMASS=281.202
CHARGE=1+
MSLEVEL=2
SOURCE_INSTRUMENT=Positive-Quattro_QQQ:40eV
FILENAME=hmdb_intermediate.mgf
SEQ=*..*
IONMODE=Positive
ORGANISM=HMDB
NAME=HMDB:HMDB01848-1707 Imipramine M+H
PI=HMDB
DATACOLLECTOR=HMDB
SMILES=CN(C)CCCN1C2=CC=CC=C2CCC2=CC=CC=C12
INCHI=InChI=1S/C19H24N2/c1-20(2)14-7-15-21-18-10-5-3-8-16(18)12-13-17-9-4-6-11-19(17)21/h3-6,8-11H,7,12-15H2,1-2H3
INCHIAUX=N/A
PUBMED=N/A
SUBMITUSER=mwang87
TAGS=
LIBRARYQUALITY=3
SPECTRUMID=CCMSLIB00000425957
SCANS=929
55.632 58.822 
71.096 100.0 
80.914 20.294 
85.701 7.645 
101.288 7.645 
105.584 9.117 
132.095 7.352 
144.37 10.292 
152.349 6.47 
159.836 34.705 
174.075 10.881 
178.74 8.234 
185.246 10.588 
198.75 6.762 
205.379 7.941 
218.637 7.645 
233.738 9.117 
240.367 6.762 
245.033 7.645 
267.01 7.352 
274.991 9.117 
291.812 9.706 
301.635 8.824 
304.951 9.117 
318.581 8.234 
328.281 8.527 
336.632 6.762 
349.28 7.059 
END IONS

BEGIN IONS
PEPMASS=155.144
CHARGE=1+
MSLEVEL=2
SOURCE_INSTRUMENT=Positive-Quattro_QQQ:25eV
FILENAME=hmdb_intermediate.mgf
SEQ=*..*
IONMODE=Positive
ORGANISM=HMDB
NAME=HMDB:HMDB05812-2458 Geraniol M+H
PI=HMDB
DATACOLLECTOR=HMDB
SMILES=CC(C)=CCC\C(C)=C/CO
INCHI=InChI=1S/C10H18O/c1-9(2)5-4-6-10(3)7-8-11/h5,7,11H,4,6,8H2,1-3H3/b10-7-
INCHIAUX=N/A
PUBMED=N/A
SUBMITUSER=mwang87
TAGS=
LIBRARYQUALITY=3
SPECTRUMID=CCMSLIB00000425958
SCANS=930
67.02 4.2452028808 
81.06 100.0 
95.04 39.3360513245 
109.08 8.0276787583 
137.16 16.1657336589 
155.16 3.6381389735 
END IONS

BEGIN IONS
PEPMASS=147.077
CHARGE=1+
MSLEVEL=2
SOURCE_INSTRUMENT=Positive-Quattro_QQQ:25eV
FILENAME=hmdb_intermediate.mgf
SEQ=*..*
IONMODE=Positive
ORGANISM=HMDB
NAME=HMDB:HMDB00641-880 L-Glutamine M+H
PI=HMDB
DATACOLLECTOR=HMDB
SMILES=N[C@@H](CCC(N)=O)C(O)=O
INCHI=InChI=1S/C5H10N2O3/c6-3(5(9)10)1-2-4(7)8/h3H,1-2,6H2,(H2,7,8)(H,9,10)/t3-/m0/s1
INCHIAUX=N/A
PUBMED=N/A
SUBMITUSER=mwang87
TAGS=
LIBRARYQUALITY=3
SPECTRUMID=CCMSLIB00000425959
SCANS=931
41.348 10.809 
56.23 23.235 
84.085 100.0 
END IONS

BEGIN IONS
PEPMASS=403.358
CHARGE=1+
MSLEVEL=2
SOURCE_INSTRUMENT=Positive-Quattro_QQQ:25eV
FILENAME=hmdb_intermediate.mgf
SEQ=*..*
IONMODE=Positive
ORGANISM=HMDB
NAME=HMDB:HMDB02902-2158 Delta-Tocopherol M+H
PI=HMDB
DATACOLLECTOR=HMDB
SMILES=CC(C)CCC[C@@H](C)CCC[C@@H](C)CCC[C@]1(C)CCC2=C(O1)C(C)=CC(O)=C2
INCHI=InChI=1S/C27H46O2/c1-20(2)10-7-11-21(3)12-8-13-22(4)14-9-16-27(6)17-15-24-19-25(28)18-23(5)26(24)29-27/h18-22,28H,7-17H2,1-6H3/t21-,22-,27-/m1/s1
INCHIAUX=N/A
PUBMED=N/A
SUBMITUSER=mwang87
TAGS=
LIBRARYQUALITY=3
SPECTRUMID=CCMSLIB00000425960
SCANS=932
96.0 3.169 
110.0 3.222 
137.0 32.398 
150.0 3.12 
176.0 4.04 
206.0 3.249 
403.0 100.0 
END IONS

BEGIN IONS
PEPMASS=157.159
CHARGE=1+
MSLEVEL=2
SOURCE_INSTRUMENT=Positive-Quattro_QQQ:10eV
FILENAME=hmdb_intermediate.mgf
SEQ=*..*
IONMODE=Positive
ORGANISM=HMDB
NAME=HMDB:HMDB03352-2259 Menthol M+H
PI=HMDB
DATACOLLECTOR=HMDB
SMILES=CC(C)[C@@H]1CC[C@@H](C)C[C@H]1O
INCHI=InChI=1S/C10H20O/c1-7(2)9-5-4-8(3)6-10(9)11/h7-11H,4-6H2,1-3H3/t8-,9+,10-/m1/s1
INCHIAUX=N/A
PUBMED=N/A
SUBMITUSER=mwang87
TAGS=
LIBRARYQUALITY=3
SPECTRUMID=CCMSLIB00000425961
SCANS=933
54.0 15.054 
56.0 14.993 
68.0 36.311 
84.0 100.0 
85.0 31.815 
98.0 22.866 
110.0 14.779 
115.0 10.429 
126.0 24.48 
156.0 57.91 
END IONS

BEGIN IONS
PEPMASS=130.109
CHARGE=1+
MSLEVEL=2
SOURCE_INSTRUMENT=Positive-Quattro_QQQ:25eV
FILENAME=hmdb_intermediate.mgf
SEQ=*..*
IONMODE=Positive
ORGANISM=HMDB
NAME=HMDB:HMDB01921-1844 1,1-Dimethylbiguanide M+H
PI=HMDB
DATACOLLECTOR=HMDB
SMILES=CN(C)C(=N)NC(N)=N
INCHI=InChI=1S/C4H11N5/c1-9(2)4(7)8-3(5)6/h1-2H3,(H5,5,6,7,8)
INCHIAUX=N/A
PUBMED=N/A
SUBMITUSER=mwang87
TAGS=
LIBRARYQUALITY=3
SPECTRUMID=CCMSLIB00000425962
SCANS=934
60.0 38.0625179399 
71.04 44.1465057147 
85.08 49.5765118858 
113.1 45.8934466336 
130.14 100.0 
END IONS

BEGIN IONS
PEPMASS=110.061
CHARGE=1+
MSLEVEL=2
SOURCE_INSTRUMENT=Positive-Quattro_QQQ:10eV
FILENAME=hmdb_intermediate.mgf
SEQ=*..*
IONMODE=Positive
ORGANISM=HMDB
NAME=HMDB:HMDB01169-1445 4-Aminophenol M+H
PI=HMDB
DATACOLLECTOR=HMDB
SMILES=NC1=CC=C(O)C=C1
INCHI=InChI=1S/C6H7NO/c7-5-1-3-6(8)4-2-5/h1-4,8H,7H2
INCHIAUX=N/A
PUBMED=N/A
SUBMITUSER=mwang87
TAGS=
LIBRARYQUALITY=3
SPECTRUMID=CCMSLIB00000425963
SCANS=935
65.0 7.431 
82.0 2.95 
92.0 13.589 
110.0 100.0 
END IONS

BEGIN IONS
PEPMASS=131.071
CHARGE=1+
MSLEVEL=2
SOURCE_INSTRUMENT=Negative-Quattro_QQQ:10eV
FILENAME=hmdb_intermediate.mgf
SEQ=*..*
IONMODE=Negative
ORGANISM=HMDB
NAME=HMDB:HMDB00746-1062 Hydroxyisocaproic acid M-H
PI=HMDB
DATACOLLECTOR=HMDB
SMILES=CC(C)C[C@H](O)C(O)=O
INCHI=InChI=1S/C6H12O3/c1-4(2)3-5(7)6(8)9/h4-5,7H,3H2,1-2H3,(H,8,9)/t5-/m0/s1
INCHIAUX=N/A
PUBMED=N/A
SUBMITUSER=mwang87
TAGS=
LIBRARYQUALITY=3
SPECTRUMID=CCMSLIB00000425964
SCANS=936
45.599 12.616 
85.37 75.926 
131.239 100.0 
END IONS

BEGIN IONS
PEPMASS=255.066
CHARGE=1+
MSLEVEL=2
SOURCE_INSTRUMENT=Positive-Quattro_QQQ:25eV
FILENAME=hmdb_intermediate.mgf
SEQ=*..*
IONMODE=Positive
ORGANISM=HMDB
NAME=HMDB:HMDB03312-2237 Daidzein M+H
PI=HMDB
DATACOLLECTOR=HMDB
SMILES=OC1=CC=C(C=C1)C1=COC2=C(C=CC(O)=C2)C1=O
INCHI=InChI=1S/C15H10O4/c16-10-3-1-9(2-4-10)13-8-19-14-7-11(17)5-6-12(14)15(13)18/h1-8,16-17H
INCHIAUX=N/A
PUBMED=N/A
SUBMITUSER=mwang87
TAGS=
LIBRARYQUALITY=3
SPECTRUMID=CCMSLIB00000425965
SCANS=937
136.87 34.965 
180.91 26.628 
198.87 45.266 
254.86 100.0 
END IONS

BEGIN IONS
PEPMASS=397.347
CHARGE=1+
MSLEVEL=2
SOURCE_INSTRUMENT=Positive-Quattro_QQQ:40eV
FILENAME=hmdb_intermediate.mgf
SEQ=*..*
IONMODE=Positive
ORGANISM=HMDB
NAME=HMDB:HMDB00878-1240 Ergosterol M+H
PI=HMDB
DATACOLLECTOR=HMDB
SMILES=CC(C)[C@@H](C)\C=C\[C@@H](C)C1CCC2C3=CC=C4C[C@@H](O)CC[C@]4(C)C3CC[C@]12C
INCHI=InChI=1S/C28H44O/c1-18(2)19(3)7-8-20(4)24-11-12-25-23-10-9-21-17-22(29)13-15-27(21,5)26(23)14-16-28(24,25)6/h7-10,18-20,22,24-26,29H,11-17H2,1-6H3/b8-7+/t19-,20+,22-,24?,25?,26?,27-,28+/m0/s1
INCHIAUX=N/A
PUBMED=N/A
SUBMITUSER=mwang87
TAGS=
LIBRARYQUALITY=3
SPECTRUMID=CCMSLIB00000425966
SCANS=938
43.306 88.235 
55.241 43.316 
69.143 100.0 
81.078 90.909 
93.084 62.032 
95.153 55.08 
108.978 47.594 
120.821 30.08 
130.993 36.364 
143.212 35.294 
144.828 48.663 
158.921 41.176 
170.898 35.829 
183.227 36.898 
185.265 28.075 
194.768 38.503 
211.025 33.957 
222.731 25.401 
224.933 22.193 
234.937 24.733 
248.658 25.535 
END IONS

BEGIN IONS
PEPMASS=492.009
CHARGE=1+
MSLEVEL=2
SOURCE_INSTRUMENT=Positive-Quattro_QQQ:25eV
FILENAME=hmdb_intermediate.mgf
SEQ=*..*
IONMODE=Positive
ORGANISM=HMDB
NAME=HMDB:HMDB01532-1629 Deoxyadenosine triphosphate M+H
PI=HMDB
DATACOLLECTOR=HMDB
SMILES=NC1=NC=NC2=C1N=CN2[C@H]1C[C@H](O)[C@@H](COP(O)(=O)OP(O)(=O)OP(O)(O)=O)O1
INCHI=InChI=1S/C10H16N5O12P3/c11-9-8-10(13-3-12-9)15(4-14-8)7-1-5(16)6(25-7)2-24-29(20,21)27-30(22,23)26-28(17,18)19/h3-7,16H,1-2H2,(H,20,21)(H,22,23)(H2,11,12,13)(H2,17,18,19)/t5-,6+,7+/m0/s1
INCHIAUX=N/A
PUBMED=N/A
SUBMITUSER=mwang87
TAGS=
LIBRARYQUALITY=3
SPECTRUMID=CCMSLIB00000425967
SCANS=939
80.0 21.769 
135.0 100.0 
END IONS

BEGIN IONS
PEPMASS=167.057
CHARGE=1+
MSLEVEL=2
SOURCE_INSTRUMENT=Positive-Quattro_QQQ:40eV
FILENAME=hmdb_intermediate.mgf
SEQ=*..*
IONMODE=Positive
ORGANISM=HMDB
NAME=HMDB:HMDB01886-1788 3-Methylxanthine M+H
PI=HMDB
DATACOLLECTOR=HMDB
SMILES=CN1C2=C(NC=N2)C(=O)NC1=O
INCHI=InChI=1S/C6H6N4O2/c1-10-4-3(7-2-8-4)5(11)9-6(10)12/h2H,1H3,(H,7,8)(H,9,11,12)
INCHIAUX=N/A
PUBMED=N/A
SUBMITUSER=mwang87
TAGS=
LIBRARYQUALITY=3
SPECTRUMID=CCMSLIB00000425968
SCANS=940
42.587 100.0 
55.636 20.704 
69.563 40.767 
80.48 16.503 
93.906 14.148 
95.788 24.345 
108.838 9.539 
124.398 12.646 
125.778 14.637 
151.754 10.37 
165.057 10.108 
END IONS

BEGIN IONS
PEPMASS=384.151
CHARGE=1+
MSLEVEL=2
SOURCE_INSTRUMENT=Positive-Quattro_QQQ:25eV
FILENAME=hmdb_intermediate.mgf
SEQ=*..*
IONMODE=Positive
ORGANISM=HMDB
NAME=HMDB:HMDB01542-1638 N-Acetyllactosamine M+H
PI=HMDB
DATACOLLECTOR=HMDB
SMILES=CC(=O)N[C@H]1[C@H](O)O[C@H](CO)[C@@H](O[C@@H]2O[C@H](CO)[C@H](O)[C@H](O)[C@H]2O)[C@@H]1O
INCHI=InChI=1S/C14H25NO11/c1-4(18)15-7-9(20)12(6(3-17)24-13(7)23)26-14-11(22)10(21)8(19)5(2-16)25-14/h5-14,16-17,19-23H,2-3H2,1H3,(H,15,18)/t5-,6-,7-,8+,9-,10+,11-,12-,13-,14+/m1/s1
INCHIAUX=N/A
PUBMED=N/A
SUBMITUSER=mwang87
TAGS=
LIBRARYQUALITY=3
SPECTRUMID=CCMSLIB00000425969
SCANS=941
84.0 16.121 
85.0 7.652 
126.0 63.444 
138.0 100.0 
168.0 31.333 
186.0 14.186 
204.0 22.822 
END IONS

BEGIN IONS
PEPMASS=144.066
CHARGE=1+
MSLEVEL=2
SOURCE_INSTRUMENT=Positive-Quattro_QQQ:40eV
FILENAME=hmdb_intermediate.mgf
SEQ=*..*
IONMODE=Positive
ORGANISM=HMDB
NAME=HMDB:HMDB00894-1261 Vinylacetylglycine M+H
PI=HMDB
DATACOLLECTOR=HMDB
SMILES=OC(=O)CNC(=O)CC=C
INCHI=InChI=1S/C6H9NO3/c1-2-3-5(8)7-4-6(9)10/h2H,1,3-4H2,(H,7,8)(H,9,10)
INCHIAUX=N/A
PUBMED=N/A
SUBMITUSER=mwang87
TAGS=
LIBRARYQUALITY=3
SPECTRUMID=CCMSLIB00000425970
SCANS=942
62.21 7.194 
68.99 100.0 
83.97 16.897 
89.71 84.105 
97.73 29.494 
END IONS

BEGIN IONS
PEPMASS=86.0606
CHARGE=1+
MSLEVEL=2
SOURCE_INSTRUMENT=Positive-Quattro_QQQ:10eV
FILENAME=hmdb_intermediate.mgf
SEQ=*..*
IONMODE=Positive
ORGANISM=HMDB
NAME=HMDB:HMDB02039-1959 2-Pyrrolidinone M+H
PI=HMDB
DATACOLLECTOR=HMDB
SMILES=O=C1CCCN1
INCHI=InChI=1S/C4H7NO/c6-4-2-1-3-5-4/h1-3H2,(H,5,6)
INCHIAUX=N/A
PUBMED=N/A
SUBMITUSER=mwang87
TAGS=
LIBRARYQUALITY=3
SPECTRUMID=CCMSLIB00000425971
SCANS=943
69.0 3.714 
86.0 100.0 
END IONS

BEGIN IONS
PEPMASS=254.089
CHARGE=1+
MSLEVEL=2
SOURCE_INSTRUMENT=Positive-Quattro_QQQ:40eV
FILENAME=hmdb_intermediate.mgf
SEQ=*..*
IONMODE=Positive
ORGANISM=HMDB
NAME=HMDB:HMDB00845-1192 Neopterin M+H
PI=HMDB
DATACOLLECTOR=HMDB
SMILES=NC1=NC2=C(N=C(C=N2)C(O)C(O)CO)C(=O)N1
INCHI=InChI=1S/C9H11N5O4/c10-9-13-7-5(8(18)14-9)12-3(1-11-7)6(17)4(16)2-15/h1,4,6,15-17H,2H2,(H3,10,11,13,14,18)
INCHIAUX=N/A
PUBMED=N/A
SUBMITUSER=mwang87
TAGS=
LIBRARYQUALITY=3
SPECTRUMID=CCMSLIB00000425972
SCANS=944
55.297 15.249 
66.234 45.643 
81.293 31.12 
93.136 96.68 
95.4 31.95 
105.955 100.0 
119.181 59.336 
134.195 63.485 
135.413 20.539 
146.851 71.369 
160.796 37.344 
165.239 14.523 
176.756 32.365 
192.858 48.963 
206.031 16.079 
END IONS

BEGIN IONS
PEPMASS=355.103
CHARGE=1+
MSLEVEL=2
SOURCE_INSTRUMENT=Positive-Quattro_QQQ:25eV
FILENAME=hmdb_intermediate.mgf
SEQ=*..*
IONMODE=Positive
ORGANISM=HMDB
NAME=HMDB:HMDB03164-2210 Chlorogenic acid M+H
PI=HMDB
DATACOLLECTOR=HMDB
SMILES=O[C@@H]1C[C@](O)(C[C@@H](OC(=O)\C=C\C2=CC(O)=C(O)C=C2)[C@@H]1O)C(O)=O
INCHI=InChI=1S/C16H18O9/c17-9-3-1-8(5-10(9)18)2-4-13(20)25-12-7-16(24,15(22)23)6-11(19)14(12)21/h1-5,11-12,14,17-19,21,24H,6-7H2,(H,22,23)/b4-2+/t11-,12-,14-,16+/m1/s1
INCHIAUX=N/A
PUBMED=N/A
SUBMITUSER=mwang87
TAGS=
LIBRARYQUALITY=3
SPECTRUMID=CCMSLIB00000425973
SCANS=945
117.0 2.748 
135.0 5.956 
145.0 14.195 
163.0 100.0 
END IONS

BEGIN IONS
PEPMASS=391.285
CHARGE=1+
MSLEVEL=2
SOURCE_INSTRUMENT=Negative-Quattro_QQQ:10eV
FILENAME=hmdb_intermediate.mgf
SEQ=*..*
IONMODE=Negative
ORGANISM=HMDB
NAME=HMDB:HMDB00626-852 Deoxycholic acid M-H
PI=HMDB
DATACOLLECTOR=HMDB
SMILES=[H][C@@]12CC[C@H]([C@H](C)CCC(O)=O)[C@@]1(C)[C@@H](O)C[C@@]1([H])[C@@]2([H])CC[C@]2([H])C[C@H](O)CC[C@]12C
INCHI=InChI=1S/C24H40O4/c1-14(4-9-22(27)28)18-7-8-19-17-6-5-15-12-16(25)10-11-23(15,2)20(17)13-21(26)24(18,19)3/h14-21,25-26H,4-13H2,1-3H3,(H,27,28)/t14-,15-,16-,17+,18-,19+,20+,21+,23+,24-/m1/s1
INCHIAUX=N/A
PUBMED=N/A
SUBMITUSER=mwang87
TAGS=
LIBRARYQUALITY=3
SPECTRUMID=CCMSLIB00000425974
SCANS=946
391.316 100.0 
END IONS

BEGIN IONS
PEPMASS=159.041
CHARGE=1+
MSLEVEL=2
SOURCE_INSTRUMENT=Positive-Quattro_QQQ:25eV
FILENAME=hmdb_intermediate.mgf
SEQ=*..*
IONMODE=Positive
ORGANISM=HMDB
NAME=HMDB:HMDB00528-747 4,5-Dihydroorotic acid M+H
PI=HMDB
DATACOLLECTOR=HMDB
SMILES=OC(=O)C1CC(=O)NC(=O)N1
INCHI=InChI=1S/C5H6N2O4/c8-3-1-2(4(9)10)6-5(11)7-3/h2H,1H2,(H,9,10)(H2,6,7,8,11)
INCHIAUX=N/A
PUBMED=N/A
SUBMITUSER=mwang87
TAGS=
LIBRARYQUALITY=3
SPECTRUMID=CCMSLIB00000425975
SCANS=947
43.309 47.549 
46.26 12.377 
61.188 10.294 
70.166 100.0 
81.003 7.322 
88.029 5.545 
98.944 40.196 
112.99 10.907 
END IONS

BEGIN IONS
PEPMASS=176.067
CHARGE=1+
MSLEVEL=2
SOURCE_INSTRUMENT=Positive-Quattro_QQQ:10eV
FILENAME=hmdb_intermediate.mgf
SEQ=*..*
IONMODE=Positive
ORGANISM=HMDB
NAME=HMDB:HMDB03157-2206 Guanidinosuccinic acid M+H
PI=HMDB
DATACOLLECTOR=HMDB
SMILES=NC(=N)N[C@@H](CC(O)=O)C(O)=O
INCHI=InChI=1S/C5H9N3O4/c6-5(7)8-2(4(11)12)1-3(9)10/h2H,1H2,(H,9,10)(H,11,12)(H4,6,7,8)/t2-/m0/s1
INCHIAUX=N/A
PUBMED=N/A
SUBMITUSER=mwang87
TAGS=
LIBRARYQUALITY=3
SPECTRUMID=CCMSLIB00000425976
SCANS=948
60.0 6.213 
88.0 19.683 
112.0 3.719 
116.0 6.176 
134.0 16.714 
158.0 6.752 
176.0 100.0 
END IONS

BEGIN IONS
PEPMASS=274.108
CHARGE=1+
MSLEVEL=2
SOURCE_INSTRUMENT=Positive-Quattro_QQQ:25eV
FILENAME=hmdb_intermediate.mgf
SEQ=*..*
IONMODE=Positive
ORGANISM=HMDB
NAME=HMDB:HMDB00667-913 L-Thyronine M+H
PI=HMDB
DATACOLLECTOR=HMDB
SMILES=N[C@@H](CC1=CC=C(OC2=CC=C(O)C=C2)C=C1)C(O)=O
INCHI=InChI=1S/C15H15NO4/c16-14(15(18)19)9-10-1-5-12(6-2-10)20-13-7-3-11(17)4-8-13/h1-8,14,17H,9,16H2,(H,18,19)/t14-/m0/s1
INCHIAUX=N/A
PUBMED=N/A
SUBMITUSER=mwang87
TAGS=
LIBRARYQUALITY=3
SPECTRUMID=CCMSLIB00000425977
SCANS=949
94.0 26.72 
109.0 23.047 
119.0 100.0 
141.0 8.071 
169.0 19.782 
183.0 3.908 
187.0 5.573 
211.0 13.234 
215.0 82.058 
228.0 11.611 
END IONS

BEGIN IONS
PEPMASS=131.071
CHARGE=1+
MSLEVEL=2
SOURCE_INSTRUMENT=Negative-Quattro_QQQ:40eV
FILENAME=hmdb_intermediate.mgf
SEQ=*..*
IONMODE=Negative
ORGANISM=HMDB
NAME=HMDB:HMDB00746-1064 Hydroxyisocaproic acid M-H
PI=HMDB
DATACOLLECTOR=HMDB
SMILES=CC(C)C[C@H](O)C(O)=O
INCHI=InChI=1S/C6H12O3/c1-4(2)3-5(7)6(8)9/h4-5,7H,3H2,1-2H3,(H,8,9)/t5-/m0/s1
INCHIAUX=N/A
PUBMED=N/A
SUBMITUSER=mwang87
TAGS=
LIBRARYQUALITY=3
SPECTRUMID=CCMSLIB00000425978
SCANS=950
41.696 17.518 
45.506 100.0 
69.409 67.883 
85.316 31.204 
131.294 29.745 
END IONS

BEGIN IONS
PEPMASS=154.073
CHARGE=1+
MSLEVEL=2
SOURCE_INSTRUMENT=Positive-Quattro_QQQ:25eV
FILENAME=hmdb_intermediate.mgf
SEQ=*..*
IONMODE=Positive
ORGANISM=HMDB
NAME=HMDB:HMDB04816-2413 FAPy-adenine M+H
PI=HMDB
DATACOLLECTOR=HMDB
SMILES=NC1=NC=NC(N)=C1NC=O
INCHI=InChI=1S/C5H7N5O/c6-4-3(10-2-11)5(7)9-1-8-4/h1-2H,(H,10,11)(H4,6,7,8,9)
INCHIAUX=N/A
PUBMED=N/A
SUBMITUSER=mwang87
TAGS=
LIBRARYQUALITY=3
SPECTRUMID=CCMSLIB00000425979
SCANS=951
72.0 11.84 
82.0 100.0 
92.0 9.122 
99.0 19.412 
109.0 56.338 
119.0 41.731 
126.0 78.949 
136.0 8.518 
END IONS

BEGIN IONS
PEPMASS=196.061
CHARGE=1+
MSLEVEL=2
SOURCE_INSTRUMENT=Positive-Quattro_QQQ:25eV
FILENAME=hmdb_intermediate.mgf
SEQ=*..*
IONMODE=Positive
ORGANISM=HMDB
NAME=HMDB:HMDB02404-2102 Alpha-Hydroxyhippuric acid M+H
PI=HMDB
DATACOLLECTOR=HMDB
SMILES=OC(NC(=O)C1=CC=CC=C1)C(O)=O
INCHI=InChI=1S/C9H9NO4/c11-7(10-8(12)9(13)14)6-4-2-1-3-5-6/h1-5,8,12H,(H,10,11)(H,13,14)
INCHIAUX=N/A
PUBMED=N/A
SUBMITUSER=mwang87
TAGS=
LIBRARYQUALITY=3
SPECTRUMID=CCMSLIB00000425980
SCANS=952
77.0 79.482 
104.0 5.416 
105.0 100.0 
END IONS

BEGIN IONS
PEPMASS=173.154
CHARGE=1+
MSLEVEL=2
SOURCE_INSTRUMENT=Positive-Quattro_QQQ:10eV
FILENAME=hmdb_intermediate.mgf
SEQ=*..*
IONMODE=Positive
ORGANISM=HMDB
NAME=HMDB:HMDB00511-734 Capric acid M+H
PI=HMDB
DATACOLLECTOR=HMDB
SMILES=CCCCCCCCCC(O)=O
INCHI=InChI=1S/C10H20O2/c1-2-3-4-5-6-7-8-9-10(11)12/h2-9H2,1H3,(H,11,12)
INCHIAUX=N/A
PUBMED=N/A
SUBMITUSER=mwang87
TAGS=
LIBRARYQUALITY=3
SPECTRUMID=CCMSLIB00000425981
SCANS=953
110.1 1.6827673247 
124.14 3.0435235462 
125.1 18.9882616401 
153.18 2.9708112603 
171.12 100.0 
END IONS

BEGIN IONS
PEPMASS=109.029
CHARGE=1+
MSLEVEL=2
SOURCE_INSTRUMENT=Positive-Quattro_QQQ:25eV
FILENAME=hmdb_intermediate.mgf
SEQ=*..*
IONMODE=Positive
ORGANISM=HMDB
NAME=HMDB:HMDB03364-2269 Quinone M+H
PI=HMDB
DATACOLLECTOR=HMDB
SMILES=O=C1C=CC(=O)C=C1
INCHI=InChI=1S/C6H4O2/c7-5-1-2-6(8)4-3-5/h1-4H
INCHIAUX=N/A
PUBMED=N/A
SUBMITUSER=mwang87
TAGS=
LIBRARYQUALITY=3
SPECTRUMID=CCMSLIB00000425982
SCANS=954
51.0 16.861 
64.0 22.277 
65.0 63.915 
76.0 100.0 
93.0 40.096 
END IONS

BEGIN IONS
PEPMASS=347.222
CHARGE=1+
MSLEVEL=2
SOURCE_INSTRUMENT=Positive-Quattro_QQQ:25eV
FILENAME=hmdb_intermediate.mgf
SEQ=*..*
IONMODE=Positive
ORGANISM=HMDB
NAME=HMDB:HMDB01547-1647 Corticosterone M+H
PI=HMDB
DATACOLLECTOR=HMDB
SMILES=[H][C@@]12CC[C@H](C(=O)CO)[C@@]1(C)C[C@H](O)[C@@]1([H])[C@@]2([H])CCC2=CC(=O)CC[C@]12C
INCHI=InChI=1S/C21H30O4/c1-20-8-7-13(23)9-12(20)3-4-14-15-5-6-16(18(25)11-22)21(15,2)10-17(24)19(14)20/h9,14-17,19,22,24H,3-8,10-11H2,1-2H3/t14-,15-,16+,17-,19+,20-,21-/m0/s1
INCHIAUX=N/A
PUBMED=N/A
SUBMITUSER=mwang87
TAGS=
LIBRARYQUALITY=3
SPECTRUMID=CCMSLIB00000425983
SCANS=955
83.099 24.275 
93.107 25.604 
97.081 55.556 
109.033 30.918 
121.025 100.0 
133.017 27.778 
135.015 36.232 
147.008 33.333 
159.001 29.469 
171.017 31.401 
174.991 24.034 
186.993 17.633 
196.996 14.734 
210.997 14.01 
222.929 10.87 
228.973 11.715 
241.046 9.3 
250.972 9.541 
269.013 10.386 
293.076 8.213 
329.099 14.251 
END IONS

BEGIN IONS
PEPMASS=111.045
CHARGE=1+
MSLEVEL=2
SOURCE_INSTRUMENT=Positive-Quattro_QQQ:10eV
FILENAME=hmdb_intermediate.mgf
SEQ=*..*
IONMODE=Positive
ORGANISM=HMDB
NAME=HMDB:HMDB00957-1357 Pyrocatechol M+H
PI=HMDB
DATACOLLECTOR=HMDB
SMILES=OC1=CC=CC=C1O
INCHI=InChI=1S/C6H6O2/c7-5-3-1-2-4-6(5)8/h1-4,7-8H
INCHIAUX=N/A
PUBMED=N/A
SUBMITUSER=mwang87
TAGS=
LIBRARYQUALITY=3
SPECTRUMID=CCMSLIB00000425984
SCANS=956
65.168 24.375 
83.117 9.375 
93.064 100.0 
111.007 73.125 
END IONS

BEGIN IONS
PEPMASS=260.186
CHARGE=1+
MSLEVEL=2
SOURCE_INSTRUMENT=Positive-Quattro_QQQ:25eV
FILENAME=hmdb_intermediate.mgf
SEQ=*..*
IONMODE=Positive
ORGANISM=HMDB
NAME=HMDB:HMDB00705-985 Hexanoylcarnitine M+H
PI=HMDB
DATACOLLECTOR=HMDB
SMILES=CCCCCC(=O)OC(CC([O-])=O)C[N+](C)(C)C
INCHI=InChI=1S/C13H25NO4/c1-5-6-7-8-13(17)18-11(9-12(15)16)10-14(2,3)4/h11H,5-10H2,1-4H3
INCHIAUX=N/A
PUBMED=N/A
SUBMITUSER=mwang87
TAGS=
LIBRARYQUALITY=3
SPECTRUMID=CCMSLIB00000425985
SCANS=957
43.59 4.608 
60.406 14.216 
71.364 9.412 
85.193 100.0 
99.227 3.603 
144.142 3.456 
END IONS

BEGIN IONS
PEPMASS=225.088
CHARGE=1+
MSLEVEL=2
SOURCE_INSTRUMENT=Positive-Quattro_QQQ:25eV
FILENAME=hmdb_intermediate.mgf
SEQ=*..*
IONMODE=Positive
ORGANISM=HMDB
NAME=HMDB:HMDB00732-1033 Hydroxykynurenine M+H
PI=HMDB
DATACOLLECTOR=HMDB
SMILES=NC(CC(=O)C1=C(N)C(O)=CC=C1)C(O)=O
INCHI=InChI=1S/C10H12N2O4/c11-6(10(15)16)4-8(14)5-2-1-3-7(13)9(5)12/h1-3,6,13H,4,11-12H2,(H,15,16)
INCHIAUX=N/A
PUBMED=N/A
SUBMITUSER=mwang87
TAGS=
LIBRARYQUALITY=3
SPECTRUMID=CCMSLIB00000425986
SCANS=958
43.302 9.659 
46.268 4.545 
74.063 38.182 
92.103 15.682 
98.973 24.318 
110.004 99.545 
119.935 17.045 
133.949 25.455 
135.932 42.727 
147.98 12.5 
161.925 100.0 
189.896 23.409 
END IONS

BEGIN IONS
PEPMASS=553.237
CHARGE=1+
MSLEVEL=2
SOURCE_INSTRUMENT=Negative-Quattro_QQQ:10eV
FILENAME=hmdb_intermediate.mgf
SEQ=*..*
IONMODE=Negative
ORGANISM=HMDB
NAME=HMDB:HMDB03828-2343 D-Pantethine M-H
PI=HMDB
DATACOLLECTOR=HMDB
SMILES=CC(C)(CO)[C@@H](O)C(=O)NCCC(=O)NCCSSCCNC(=O)CCNC(=O)[C@H](O)C(C)(C)CO
INCHI=InChI=1S/C22H42N4O8S2/c1-21(2,13-27)17(31)19(33)25-7-5-15(29)23-9-11-35-36-12-10-24-16(30)6-8-26-20(34)18(32)22(3,4)14-28/h17-18,27-28,31-32H,5-14H2,1-4H3,(H,23,29)(H,24,30)(H,25,33)(H,26,34)/t17-,18-/m0/s1
INCHIAUX=N/A
PUBMED=N/A
SUBMITUSER=mwang87
TAGS=
LIBRARYQUALITY=3
SPECTRUMID=CCMSLIB00000425987
SCANS=959
146.0 0.939 
274.0 5.988 
275.0 92.147 
553.0 100.0 
END IONS

BEGIN IONS
PEPMASS=161.108
CHARGE=1+
MSLEVEL=2
SOURCE_INSTRUMENT=Positive-Quattro_QQQ:40eV
FILENAME=hmdb_intermediate.mgf
SEQ=*..*
IONMODE=Positive
ORGANISM=HMDB
NAME=HMDB:HMDB00303-518 Tryptamine M+H
PI=HMDB
DATACOLLECTOR=HMDB
SMILES=NCCC1=CNC2=CC=CC=C12
INCHI=InChI=1S/C10H12N2/c11-6-5-8-7-12-10-4-2-1-3-9(8)10/h1-4,7,12H,5-6,11H2
INCHIAUX=N/A
PUBMED=N/A
SUBMITUSER=mwang87
TAGS=
LIBRARYQUALITY=3
SPECTRUMID=CCMSLIB00000425988
SCANS=960
65.2 13.5 
77.137 40.167 
90.691 100.0 
101.09 6.167 
115.035 80.667 
126.77 13.333 
142.589 34.333 
END IONS

BEGIN IONS
PEPMASS=284.099
CHARGE=1+
MSLEVEL=2
SOURCE_INSTRUMENT=Positive-Quattro_QQQ:40eV
FILENAME=hmdb_intermediate.mgf
SEQ=*..*
IONMODE=Positive
ORGANISM=HMDB
NAME=HMDB:HMDB00133-205 Guanosine M+H
PI=HMDB
DATACOLLECTOR=HMDB
SMILES=NC1=NC2=C(N=CN2[C@@H]2O[C@H](CO)[C@@H](O)[C@H]2O)C(=O)N1
INCHI=InChI=1S/C10H13N5O5/c11-10-13-7-4(8(19)14-10)12-2-15(7)9-6(18)5(17)3(1-16)20-9/h2-3,5-6,9,16-18H,1H2,(H3,11,13,14,19)/t3-,5-,6-,9-/m1/s1
INCHIAUX=N/A
PUBMED=N/A
SUBMITUSER=mwang87
TAGS=
LIBRARYQUALITY=3
SPECTRUMID=CCMSLIB00000425989
SCANS=961
55.194 4.063 
109.938 36.667 
134.908 100.0 
151.938 85.0 
END IONS

BEGIN IONS
PEPMASS=260.044
CHARGE=1+
MSLEVEL=2
SOURCE_INSTRUMENT=Positive-Quattro_QQQ:40eV
FILENAME=hmdb_intermediate.mgf
SEQ=*..*
IONMODE=Positive
ORGANISM=HMDB
NAME=HMDB:HMDB00592-818 Glucosamine 6-sulfate M+H
PI=HMDB
DATACOLLECTOR=HMDB
SMILES=N[C@H]1[C@H](O)O[C@H](COS(O)(=O)=O)[C@@H](O)[C@@H]1O
INCHI=InChI=1S/C6H13NO8S/c7-3-5(9)4(8)2(15-6(3)10)1-14-16(11,12)13/h2-6,8-10H,1,7H2,(H,11,12,13)/t2-,3-,4-,5-,6-/m1/s1
INCHIAUX=N/A
PUBMED=N/A
SUBMITUSER=mwang87
TAGS=
LIBRARYQUALITY=3
SPECTRUMID=CCMSLIB00000425990
SCANS=962
52.218 60.23 
78.401 57.795 
85.227 38.314 
112.777 100.0 
118.858 15.858 
131.269 40.21 
135.985 85.66 
153.236 41.02 
180.542 9.095 
184.514 51.029 
245.834 8.556 
258.621 8.013 
282.953 8.556 
320.2 10.448 
END IONS

BEGIN IONS
PEPMASS=77.0603
CHARGE=1+
MSLEVEL=2
SOURCE_INSTRUMENT=Positive-Quattro_QQQ:40eV
FILENAME=hmdb_intermediate.mgf
SEQ=*..*
IONMODE=Positive
ORGANISM=HMDB
NAME=HMDB:HMDB01881-1782 Propylene glycol M+H
PI=HMDB
DATACOLLECTOR=HMDB
SMILES=CC(O)CO
INCHI=InChI=1S/C3H8O2/c1-3(5)2-4/h3-5H,2H2,1H3
INCHIAUX=N/A
PUBMED=N/A
SUBMITUSER=mwang87
TAGS=
LIBRARYQUALITY=3
SPECTRUMID=CCMSLIB00000425991
SCANS=963
10.24 12.739 
18.4 11.996 
33.359 68.937 
34.842 13.724 
45.104 65.983 
59.816 48.478 
67.729 14.956 
74.776 100.0 
92.457 14.461 
115.578 17.917 
130.292 19.639 
150.571 15.694 
END IONS

BEGIN IONS
PEPMASS=189.103
CHARGE=1+
MSLEVEL=2
SOURCE_INSTRUMENT=Negative-Quattro_QQQ:40eV
FILENAME=hmdb_intermediate.mgf
SEQ=*..*
IONMODE=Negative
ORGANISM=HMDB
NAME=HMDB:HMDB04095-2363 5-Methoxytryptamine M-H
PI=HMDB
DATACOLLECTOR=HMDB
SMILES=COC1=CC2=C(NC=C2CCN)C=C1
INCHI=InChI=1S/C11H14N2O/c1-14-9-2-3-11-10(6-9)8(4-5-12)7-13-11/h2-3,6-7,13H,4-5,12H2,1H3
INCHIAUX=N/A
PUBMED=N/A
SUBMITUSER=mwang87
TAGS=
LIBRARYQUALITY=3
SPECTRUMID=CCMSLIB00000425992
SCANS=964
115.0 4.243 
143.0 100.0 
145.0 3.452 
END IONS

BEGIN IONS
PEPMASS=349.055
CHARGE=1+
MSLEVEL=2
SOURCE_INSTRUMENT=Positive-Quattro_QQQ:25eV
FILENAME=hmdb_intermediate.mgf
SEQ=*..*
IONMODE=Positive
ORGANISM=HMDB
NAME=HMDB:HMDB00175-278 Inosinic acid M+H
PI=HMDB
DATACOLLECTOR=HMDB
SMILES=O[C@@H]1[C@@H](COP(O)(O)=O)O[C@H]([C@@H]1O)N1C=NC2=C1N=CNC2=O
INCHI=InChI=1S/C10H13N4O8P/c15-6-4(1-21-23(18,19)20)22-10(7(6)16)14-3-13-5-8(14)11-2-12-9(5)17/h2-4,6-7,10,15-16H,1H2,(H,11,12,17)(H2,18,19,20)/t4-,6-,7-,10-/m1/s1
INCHIAUX=N/A
PUBMED=N/A
SUBMITUSER=mwang87
TAGS=
LIBRARYQUALITY=3
SPECTRUMID=CCMSLIB00000425993
SCANS=965
97.225 22.243 
137.106 100.0 
END IONS

BEGIN IONS
PEPMASS=192.102
CHARGE=1+
MSLEVEL=2
SOURCE_INSTRUMENT=Positive-Quattro_QQQ:10eV
FILENAME=hmdb_intermediate.mgf
SEQ=*..*
IONMODE=Positive
ORGANISM=HMDB
NAME=HMDB:HMDB01896-1813 5-Methoxytryptophol M+H
PI=HMDB
DATACOLLECTOR=HMDB
SMILES=COC1=CC=C2NC=C(CCO)C2=C1
INCHI=InChI=1S/C11H13NO2/c1-14-9-2-3-11-10(6-9)8(4-5-13)7-12-11/h2-3,6-7,12-13H,4-5H2,1H3
INCHIAUX=N/A
PUBMED=N/A
SUBMITUSER=mwang87
TAGS=
LIBRARYQUALITY=3
SPECTRUMID=CCMSLIB00000425994
SCANS=966
174.0 96.42 
192.0 100.0 
END IONS

BEGIN IONS
PEPMASS=450.322
CHARGE=1+
MSLEVEL=2
SOURCE_INSTRUMENT=Positive-Quattro_QQQ:10eV
FILENAME=hmdb_intermediate.mgf
SEQ=*..*
IONMODE=Positive
ORGANISM=HMDB
NAME=HMDB:HMDB00631-861 Deoxycholic acid glycine conjugate M+H
PI=HMDB
DATACOLLECTOR=HMDB
SMILES=[H][C@]12CCC3C4CC[C@H]([C@H](C)CCC(=O)NCC(O)=O)[C@@]4(C)[C@@H](O)CC3[C@@]1(C)CC[C@@H](O)C2
INCHI=InChI=1S/C26H43NO5/c1-15(4-9-23(30)27-14-24(31)32)19-7-8-20-18-6-5-16-12-17(28)10-11-25(16,2)21(18)13-22(29)26(19,20)3/h15-22,28-29H,4-14H2,1-3H3,(H,27,30)(H,31,32)/t15-,16-,17-,18?,19-,20?,21?,22+,25+,26-/m1/s1
INCHIAUX=N/A
PUBMED=N/A
SUBMITUSER=mwang87
TAGS=
LIBRARYQUALITY=3
SPECTRUMID=CCMSLIB00000425995
SCANS=967
321.202 1.157 
339.191 3.009 
414.364 100.0 
415.551 3.519 
432.363 38.333 
450.411 50.37 
END IONS

BEGIN IONS
PEPMASS=145.086
CHARGE=1+
MSLEVEL=2
SOURCE_INSTRUMENT=Positive-Quattro_QQQ:25eV
FILENAME=hmdb_intermediate.mgf
SEQ=*..*
IONMODE=Positive
ORGANISM=HMDB
NAME=HMDB:HMDB01988-1930 4-Hydroxycyclohexylcarboxylic acid M+H
PI=HMDB
DATACOLLECTOR=HMDB
SMILES=OC1CCC(CC1)C(O)=O
INCHI=InChI=1S/C7H12O3/c8-6-3-1-5(2-4-6)7(9)10/h5-6,8H,1-4H2,(H,9,10)
INCHIAUX=N/A
PUBMED=N/A
SUBMITUSER=mwang87
TAGS=
LIBRARYQUALITY=3
SPECTRUMID=CCMSLIB00000425996
SCANS=968
81.0 100.0 
END IONS

BEGIN IONS
PEPMASS=181.05
CHARGE=1+
MSLEVEL=2
SOURCE_INSTRUMENT=Negative-Quattro_QQQ:10eV
FILENAME=hmdb_intermediate.mgf
SEQ=*..*
IONMODE=Negative
ORGANISM=HMDB
NAME=HMDB:HMDB00118-168 Homovanillic acid M-H
PI=HMDB
DATACOLLECTOR=HMDB
SMILES=COC1=CC(CC(O)=O)=CC=C1O
INCHI=InChI=1S/C9H10O4/c1-13-8-4-6(5-9(11)12)2-3-7(8)10/h2-4,10H,5H2,1H3,(H,11,12)
INCHIAUX=N/A
PUBMED=N/A
SUBMITUSER=mwang87
TAGS=
LIBRARYQUALITY=3
SPECTRUMID=CCMSLIB00000425997
SCANS=969
122.208 17.663 
137.199 100.0 
181.17 24.457 
END IONS

BEGIN IONS
PEPMASS=195.05
CHARGE=1+
MSLEVEL=2
SOURCE_INSTRUMENT=Positive-Quattro_QQQ:25eV
FILENAME=hmdb_intermediate.mgf
SEQ=*..*
IONMODE=Positive
ORGANISM=HMDB
NAME=HMDB:HMDB03402-2278 Pectin M+H
PI=HMDB
DATACOLLECTOR=HMDB
SMILES=O[C@@H]1O[C@@H]([C@H](O)[C@H](O)[C@H]1O)C(O)=O
INCHI=InChI=1S/C6H10O7/c7-1-2(8)4(5(10)11)13-6(12)3(1)9/h1-4,6-9,12H,(H,10,11)/t1-,2+,3+,4-,6+/m0/s1
INCHIAUX=N/A
PUBMED=N/A
SUBMITUSER=mwang87
TAGS=
LIBRARYQUALITY=3
SPECTRUMID=CCMSLIB00000425998
SCANS=970
69.0 28.344 
79.0 11.629 
87.0 100.0 
101.0 8.898 
107.0 7.339 
119.0 10.127 
END IONS

BEGIN IONS
PEPMASS=170.082
CHARGE=1+
MSLEVEL=2
SOURCE_INSTRUMENT=Positive-Quattro_QQQ:10eV
FILENAME=hmdb_intermediate.mgf
SEQ=*..*
IONMODE=Positive
ORGANISM=HMDB
NAME=HMDB:HMDB01537-1631 6-Hydroxydopamine M+H
PI=HMDB
DATACOLLECTOR=HMDB
SMILES=NCCC1=C(O)C=C(O)C(O)=C1
INCHI=InChI=1S/C8H11NO3/c9-2-1-5-3-7(11)8(12)4-6(5)10/h3-4,10-12H,1-2,9H2
INCHIAUX=N/A
PUBMED=N/A
SUBMITUSER=mwang87
TAGS=
LIBRARYQUALITY=3
SPECTRUMID=CCMSLIB00000425999
SCANS=971
135.12 2.4067629022 
153.12 100.0 
170.1 54.7252954304 
END IONS

BEGIN IONS
PEPMASS=131.071
CHARGE=1+
MSLEVEL=2
SOURCE_INSTRUMENT=Positive-Quattro_QQQ:10eV
FILENAME=hmdb_intermediate.mgf
SEQ=*..*
IONMODE=Positive
ORGANISM=HMDB
NAME=HMDB:HMDB00695-966 Ketoleucine M+H
PI=HMDB
DATACOLLECTOR=HMDB
SMILES=CC(C)CC(=O)C(O)=O
INCHI=InChI=1S/C6H10O3/c1-4(2)3-5(7)6(8)9/h4H,3H2,1-2H3,(H,8,9)
INCHIAUX=N/A
PUBMED=N/A
SUBMITUSER=mwang87
TAGS=
LIBRARYQUALITY=3
SPECTRUMID=CCMSLIB00000426000
SCANS=972
61.1 13.589 
69.59 30.137 
90.23 100.0 
99.29 14.359 
END IONS

BEGIN IONS
PEPMASS=133.086
CHARGE=1+
MSLEVEL=2
SOURCE_INSTRUMENT=Positive-Quattro_QQQ:40eV
FILENAME=hmdb_intermediate.mgf
SEQ=*..*
IONMODE=Positive
ORGANISM=HMDB
NAME=HMDB:HMDB00665-911 Leucinic acid M+H
PI=HMDB
DATACOLLECTOR=HMDB
SMILES=CC(C)CC(O)C(O)=O
INCHI=InChI=1S/C6H12O3/c1-4(2)3-5(7)6(8)9/h4-5,7H,3H2,1-2H3,(H,8,9)
INCHIAUX=N/A
PUBMED=N/A
SUBMITUSER=mwang87
TAGS=
LIBRARYQUALITY=3
SPECTRUMID=CCMSLIB00000426001
SCANS=973
57.54 100.0 
73.829 24.247 
82.225 24.247 
85.608 36.133 
109.292 22.929 
120.571 23.361 
142.126 26.006 
151.274 20.727 
160.548 21.602 
173.833 25.121 
180.476 20.285 
185.489 26.006 
199.652 28.209 
END IONS

BEGIN IONS
PEPMASS=132.081
CHARGE=1+
MSLEVEL=2
SOURCE_INSTRUMENT=Positive-Quattro_QQQ:25eV
FILENAME=hmdb_intermediate.mgf
SEQ=*..*
IONMODE=Positive
ORGANISM=HMDB
NAME=HMDB:HMDB00466-675 3-Methylindole M+H
PI=HMDB
DATACOLLECTOR=HMDB
SMILES=CC1=CNC2=C1C=CC=C2
INCHI=InChI=1S/C9H9N/c1-7-6-10-9-5-3-2-4-8(7)9/h2-6,10H,1H3
INCHIAUX=N/A
PUBMED=N/A
SUBMITUSER=mwang87
TAGS=
LIBRARYQUALITY=3
SPECTRUMID=CCMSLIB00000426002
SCANS=974
77.056 5.921 
89.974 25.0 
103.009 3.055 
104.992 11.701 
116.92 100.0 
131.815 14.662 
END IONS

BEGIN IONS
PEPMASS=222.098
CHARGE=1+
MSLEVEL=2
SOURCE_INSTRUMENT=Positive-Quattro_QQQ:10eV
FILENAME=hmdb_intermediate.mgf
SEQ=*..*
IONMODE=Positive
ORGANISM=HMDB
NAME=HMDB:HMDB00212-346 N-Acetylgalactosamine M+H
PI=HMDB
DATACOLLECTOR=HMDB
SMILES=CC(=O)N[C@H]1[C@@H](O)O[C@H](CO)[C@H](O)[C@@H]1O
INCHI=InChI=1S/C8H15NO6/c1-3(11)9-5-7(13)6(12)4(2-10)15-8(5)14/h4-8,10,12-14H,2H2,1H3,(H,9,11)/t4-,5-,6+,7-,8+/m1/s1
INCHIAUX=N/A
PUBMED=N/A
SUBMITUSER=mwang87
TAGS=
LIBRARYQUALITY=3
SPECTRUMID=CCMSLIB00000426003
SCANS=975
60.464 6.797 
84.306 3.398 
126.179 37.188 
144.135 19.844 
168.094 9.531 
186.065 55.0 
204.055 100.0 
222.056 15.234 
END IONS

BEGIN IONS
PEPMASS=69.0453
CHARGE=1+
MSLEVEL=2
SOURCE_INSTRUMENT=Positive-Quattro_QQQ:10eV
FILENAME=hmdb_intermediate.mgf
SEQ=*..*
IONMODE=Positive
ORGANISM=HMDB
NAME=HMDB:HMDB01525-1625 Imidazole M+H
PI=HMDB
DATACOLLECTOR=HMDB
SMILES=N1C=CN=C1
INCHI=InChI=1S/C3H4N2/c1-2-5-3-4-1/h1-3H,(H,4,5)
INCHIAUX=N/A
PUBMED=N/A
SUBMITUSER=mwang87
TAGS=
LIBRARYQUALITY=3
SPECTRUMID=CCMSLIB00000426004
SCANS=976
41.42 100.0 
69.693 98.265 
END IONS

BEGIN IONS
PEPMASS=482.997
CHARGE=1+
MSLEVEL=2
SOURCE_INSTRUMENT=Positive-Quattro_QQQ:25eV
FILENAME=hmdb_intermediate.mgf
SEQ=*..*
IONMODE=Positive
ORGANISM=HMDB
NAME=HMDB:HMDB01342-1526 Thymidine 5'-triphosphate M+H
PI=HMDB
DATACOLLECTOR=HMDB
SMILES=CC1=CN([C@H]2C[C@H](O)[C@@H](COP(O)(=O)OP(O)(=O)OP(O)(O)=O)O2)C(=O)NC1=O
INCHI=InChI=1S/C10H17N2O14P3/c1-5-3-12(10(15)11-9(5)14)8-2-6(13)7(24-8)4-23-28(19,20)26-29(21,22)25-27(16,17)18/h3,6-8,13H,2,4H2,1H3,(H,19,20)(H,21,22)(H,11,14,15)(H2,16,17,18)/t6-,7+,8+/m0/s1
INCHIAUX=N/A
PUBMED=N/A
SUBMITUSER=mwang87
TAGS=
LIBRARYQUALITY=3
SPECTRUMID=CCMSLIB00000426005
SCANS=977
482.0 100.0 
END IONS

BEGIN IONS
PEPMASS=331.227
CHARGE=1+
MSLEVEL=2
SOURCE_INSTRUMENT=Positive-Quattro_QQQ:10eV
FILENAME=hmdb_intermediate.mgf
SEQ=*..*
IONMODE=Positive
ORGANISM=HMDB
NAME=HMDB:HMDB00920-1306 11a-Hydroxyprogesterone M+H
PI=HMDB
DATACOLLECTOR=HMDB
SMILES=[H][C@@]12CCC(C(C)=O)[C@@]1(C)C[C@@H](O)[C@@]1([H])[C@@]2([H])CCC2=CC(=O)CC[C@]12C
INCHI=InChI=1S/C21H30O3/c1-12(22)16-6-7-17-15-5-4-13-10-14(23)8-9-20(13,2)19(15)18(24)11-21(16,17)3/h10,15-19,24H,4-9,11H2,1-3H3/t15-,16?,17-,18+,19+,20-,21+/m0/s1
INCHIAUX=N/A
PUBMED=N/A
SUBMITUSER=mwang87
TAGS=
LIBRARYQUALITY=3
SPECTRUMID=CCMSLIB00000426006
SCANS=978
85.288 1.854 
97.241 0.861 
121.161 1.549 
177.117 1.039 
253.15 1.126 
255.125 0.821 
271.18 2.066 
295.187 4.873 
313.198 7.097 
331.211 100.0 
END IONS

BEGIN IONS
PEPMASS=166.087
CHARGE=1+
MSLEVEL=2
SOURCE_INSTRUMENT=Positive-Quattro_QQQ:10eV
FILENAME=hmdb_intermediate.mgf
SEQ=*..*
IONMODE=Positive
ORGANISM=HMDB
NAME=HMDB:HMDB04992-2427 Benzocaine M+H
PI=HMDB
DATACOLLECTOR=HMDB
SMILES=CCOC(=O)C1=CC=C(N)C=C1
INCHI=InChI=1S/C9H11NO2/c1-2-12-9(11)7-3-5-8(10)6-4-7/h3-6H,2,10H2,1H3
INCHIAUX=N/A
PUBMED=N/A
SUBMITUSER=mwang87
TAGS=
LIBRARYQUALITY=3
SPECTRUMID=CCMSLIB00000426007
SCANS=979
119.72 33.169 
136.77 100.0 
164.48 48.223 
165.09 41.064 
END IONS

BEGIN IONS
PEPMASS=151.061
CHARGE=1+
MSLEVEL=2
SOURCE_INSTRUMENT=Positive-Quattro_QQQ:25eV
FILENAME=hmdb_intermediate.mgf
SEQ=*..*
IONMODE=Positive
ORGANISM=HMDB
NAME=HMDB:HMDB00283-482 D-Ribose M+H
PI=HMDB
DATACOLLECTOR=HMDB
SMILES=OC[C@H]1OC(O)[C@H](O)[C@@H]1O
INCHI=InChI=1S/C5H10O5/c6-1-2-3(7)4(8)5(9)10-2/h2-9H,1H2/t2-,3-,4-,5?/m1/s1
INCHIAUX=N/A
PUBMED=N/A
SUBMITUSER=mwang87
TAGS=
LIBRARYQUALITY=3
SPECTRUMID=CCMSLIB00000426008
SCANS=980
69.0 21.939 
81.0 4.555 
87.0 100.0 
101.0 14.197 
119.0 13.087 
END IONS

BEGIN IONS
PEPMASS=115.076
CHARGE=1+
MSLEVEL=2
SOURCE_INSTRUMENT=Negative-Quattro_QQQ:25eV
FILENAME=hmdb_intermediate.mgf
SEQ=*..*
IONMODE=Negative
ORGANISM=HMDB
NAME=HMDB:HMDB00535-756 Caproic acid M-H
PI=HMDB
DATACOLLECTOR=HMDB
SMILES=CCCCCC(O)=O
INCHI=InChI=1S/C6H12O2/c1-2-3-4-5-6(7)8/h2-5H2,1H3,(H,7,8)
INCHIAUX=N/A
PUBMED=N/A
SUBMITUSER=mwang87
TAGS=
LIBRARYQUALITY=3
SPECTRUMID=CCMSLIB00000426009
SCANS=981
113.015 6.178 
114.872 100.0 
END IONS

BEGIN IONS
PEPMASS=193.05
CHARGE=1+
MSLEVEL=2
SOURCE_INSTRUMENT=Negative-Quattro_QQQ:10eV
FILENAME=hmdb_intermediate.mgf
SEQ=*..*
IONMODE=Negative
ORGANISM=HMDB
NAME=HMDB:HMDB00955-1351 Isoferulic acid M-H
PI=HMDB
DATACOLLECTOR=HMDB
SMILES=COC1=C(O)C=C(\C=C\C(O)=O)C=C1
INCHI=InChI=1S/C10H10O4/c1-14-9-4-2-7(6-8(9)11)3-5-10(12)13/h2-6,11H,1H3,(H,12,13)/b5-3+
INCHIAUX=N/A
PUBMED=N/A
SUBMITUSER=mwang87
TAGS=
LIBRARYQUALITY=3
SPECTRUMID=CCMSLIB00000426010
SCANS=982
134.183 37.209 
149.199 7.219 
178.153 100.0 
193.16 63.566 
END IONS

BEGIN IONS
PEPMASS=56.9673
CHARGE=1+
MSLEVEL=2
SOURCE_INSTRUMENT=Negative-Quattro_QQQ:25eV
FILENAME=hmdb_intermediate.mgf
SEQ=*..*
IONMODE=Negative
ORGANISM=HMDB
NAME=HMDB:HMDB01453-1584 Thiocyanate M-H
PI=HMDB
DATACOLLECTOR=HMDB
SMILES=[S-]C#N
INCHI=InChI=1S/CHNS/c2-1-3/h3H/p-1
INCHIAUX=N/A
PUBMED=N/A
SUBMITUSER=mwang87
TAGS=
LIBRARYQUALITY=3
SPECTRUMID=CCMSLIB00000426011
SCANS=983
26.0 47.503 
57.0 100.0 
END IONS

BEGIN IONS
PEPMASS=151.061
CHARGE=1+
MSLEVEL=2
SOURCE_INSTRUMENT=Positive-Quattro_QQQ:10eV
FILENAME=hmdb_intermediate.mgf
SEQ=*..*
IONMODE=Positive
ORGANISM=HMDB
NAME=HMDB:HMDB00283-481 D-Ribose M+H
PI=HMDB
DATACOLLECTOR=HMDB
SMILES=OC[C@H]1OC(O)[C@H](O)[C@@H]1O
INCHI=InChI=1S/C5H10O5/c6-1-2-3(7)4(8)5(9)10-2/h2-9H,1H2/t2-,3-,4-,5?/m1/s1
INCHIAUX=N/A
PUBMED=N/A
SUBMITUSER=mwang87
TAGS=
LIBRARYQUALITY=3
SPECTRUMID=CCMSLIB00000426012
SCANS=984
73.0 4.391 
89.0 73.798 
101.0 19.952 
105.0 4.993 
119.0 100.0 
133.0 17.888 
151.0 19.981 
END IONS

BEGIN IONS
PEPMASS=190.087
CHARGE=1+
MSLEVEL=2
SOURCE_INSTRUMENT=Positive-Quattro_QQQ:25eV
FILENAME=hmdb_intermediate.mgf
SEQ=*..*
IONMODE=Positive
ORGANISM=HMDB
NAME=HMDB:HMDB02302-2050 3-Indolepropionic acid M+H
PI=HMDB
DATACOLLECTOR=HMDB
SMILES=OC(=O)CCC1=CNC2=CC=CC=C12
INCHI=InChI=1S/C11H11NO2/c13-11(14)6-5-8-7-12-10-4-2-1-3-9(8)10/h1-4,7,12H,5-6H2,(H,13,14)
INCHIAUX=N/A
PUBMED=N/A
SUBMITUSER=mwang87
TAGS=
LIBRARYQUALITY=3
SPECTRUMID=CCMSLIB00000426013
SCANS=985
55.059 10.653 
129.873 100.0 
END IONS

BEGIN IONS
PEPMASS=124.04
CHARGE=1+
MSLEVEL=2
SOURCE_INSTRUMENT=Positive-Quattro_QQQ:40eV
FILENAME=hmdb_intermediate.mgf
SEQ=*..*
IONMODE=Positive
ORGANISM=HMDB
NAME=HMDB:HMDB02243-2045 Picolinic acid M+H
PI=HMDB
DATACOLLECTOR=HMDB
SMILES=OC(=O)C1=CC=CC=N1
INCHI=InChI=1S/C6H5NO2/c8-6(9)5-3-1-2-4-7-5/h1-4H,(H,8,9)
INCHIAUX=N/A
PUBMED=N/A
SUBMITUSER=mwang87
TAGS=
LIBRARYQUALITY=3
SPECTRUMID=CCMSLIB00000426014
SCANS=986
51.096 70.468 
77.974 100.0 
END IONS

BEGIN IONS
PEPMASS=176.104
CHARGE=1+
MSLEVEL=2
SOURCE_INSTRUMENT=Positive-Quattro_QQQ:25eV
FILENAME=hmdb_intermediate.mgf
SEQ=*..*
IONMODE=Positive
ORGANISM=HMDB
NAME=HMDB:HMDB00904-1287 Citrulline M+H
PI=HMDB
DATACOLLECTOR=HMDB
SMILES=N[C@@H](CCCNC(N)=O)C(O)=O
INCHI=InChI=1S/C6H13N3O3/c7-4(5(10)11)2-1-3-9-6(8)12/h4H,1-3,7H2,(H,10,11)(H3,8,9,12)/t4-/m0/s1
INCHIAUX=N/A
PUBMED=N/A
SUBMITUSER=mwang87
TAGS=
LIBRARYQUALITY=3
SPECTRUMID=CCMSLIB00000426015
SCANS=987
43.302 2.498 
70.104 100.0 
86.043 2.272 
112.998 10.115 
END IONS

BEGIN IONS
PEPMASS=85.0653
CHARGE=1+
MSLEVEL=2
SOURCE_INSTRUMENT=Positive-Quattro_QQQ:40eV
FILENAME=hmdb_intermediate.mgf
SEQ=*..*
IONMODE=Positive
ORGANISM=HMDB
NAME=HMDB:HMDB01184-1453 Methyl propenyl ketone M+H
PI=HMDB
DATACOLLECTOR=HMDB
SMILES=C\C=C\C(C)=O
INCHI=InChI=1S/C5H8O/c1-3-4-5(2)6/h3-4H,1-2H3/b4-3+
INCHIAUX=N/A
PUBMED=N/A
SUBMITUSER=mwang87
TAGS=
LIBRARYQUALITY=3
SPECTRUMID=CCMSLIB00000426016
SCANS=988
27.338 28.011 
43.145 100.0 
END IONS

BEGIN IONS
PEPMASS=323.064
CHARGE=1+
MSLEVEL=2
SOURCE_INSTRUMENT=Positive-Quattro_QQQ:25eV
FILENAME=hmdb_intermediate.mgf
SEQ=*..*
IONMODE=Positive
ORGANISM=HMDB
NAME=HMDB:HMDB01227-1473 5-Thymidylic acid M+H
PI=HMDB
DATACOLLECTOR=HMDB
SMILES=CC1=CN([C@H]2C[C@H](O)[C@@H](COP(O)(O)=O)O2)C(=O)NC1=O
INCHI=InChI=1S/C10H15N2O8P/c1-5-3-12(10(15)11-9(5)14)8-2-6(13)7(20-8)4-19-21(16,17)18/h3,6-8,13H,2,4H2,1H3,(H,11,14,15)(H2,16,17,18)/t6-,7+,8+/m0/s1
INCHIAUX=N/A
PUBMED=N/A
SUBMITUSER=mwang87
TAGS=
LIBRARYQUALITY=3
SPECTRUMID=CCMSLIB00000426017
SCANS=989
81.0 100.0 
110.0 2.28 
127.0 4.435 
END IONS

BEGIN IONS
PEPMASS=133.014
CHARGE=1+
MSLEVEL=2
SOURCE_INSTRUMENT=Negative-Quattro_QQQ:10eV
FILENAME=hmdb_intermediate.mgf
SEQ=*..*
IONMODE=Negative
ORGANISM=HMDB
NAME=HMDB:HMDB00744-1056 Malic acid M-H
PI=HMDB
DATACOLLECTOR=HMDB
SMILES=OC(CC(O)=O)C(O)=O
INCHI=InChI=1S/C4H6O5/c5-2(4(8)9)1-3(6)7/h2,5H,1H2,(H,6,7)(H,8,9)
INCHIAUX=N/A
PUBMED=N/A
SUBMITUSER=mwang87
TAGS=
LIBRARYQUALITY=3
SPECTRUMID=CCMSLIB00000426018
SCANS=990
43.337 4.436 
71.104 45.49 
89.055 7.157 
114.952 100.0 
132.909 92.549 
END IONS

BEGIN IONS
PEPMASS=193.035
CHARGE=1+
MSLEVEL=2
SOURCE_INSTRUMENT=Positive-Quattro_QQQ:25eV
FILENAME=hmdb_intermediate.mgf
SEQ=*..*
IONMODE=Positive
ORGANISM=HMDB
NAME=HMDB:HMDB00193-311 Isocitric acid M+H
PI=HMDB
DATACOLLECTOR=HMDB
SMILES=OC(C(CC(O)=O)C(O)=O)C(O)=O
INCHI=InChI=1S/C6H8O7/c7-3(8)1-2(5(10)11)4(9)6(12)13/h2,4,9H,1H2,(H,7,8)(H,10,11)(H,12,13)
INCHIAUX=N/A
PUBMED=N/A
SUBMITUSER=mwang87
TAGS=
LIBRARYQUALITY=3
SPECTRUMID=CCMSLIB00000426019
SCANS=991
61.225 28.056 
71.695 47.325 
79.642 47.855 
86.707 56.777 
101.214 27.349 
108.405 77.287 
122.03 57.224 
124.68 100.0 
138.81 42.552 
152.183 48.916 
END IONS

BEGIN IONS
PEPMASS=464.301
CHARGE=1+
MSLEVEL=2
SOURCE_INSTRUMENT=Negative-Quattro_QQQ:40eV
FILENAME=hmdb_intermediate.mgf
SEQ=*..*
IONMODE=Negative
ORGANISM=HMDB
NAME=HMDB:HMDB00138-211 Glycocholic acid M-H
PI=HMDB
DATACOLLECTOR=HMDB
SMILES=[H][C@@]12CC[C@H]([C@H](C)CCC(=O)NCC(O)=O)[C@@]1(C)[C@@H](O)C[C@@]1([H])[C@@]2([H])[C@H](O)CC2C[C@H](O)CC[C@]12C
INCHI=InChI=1S/C26H43NO6/c1-14(4-7-22(31)27-13-23(32)33)17-5-6-18-24-19(12-21(30)26(17,18)3)25(2)9-8-16(28)10-15(25)11-20(24)29/h14-21,24,28-30H,4-13H2,1-3H3,(H,27,31)(H,32,33)/t14-,15?,16-,17-,18+,19+,20-,21+,24+,25+,26-/m1/s1
INCHIAUX=N/A
PUBMED=N/A
SUBMITUSER=mwang87
TAGS=
LIBRARYQUALITY=3
SPECTRUMID=CCMSLIB00000426020
SCANS=992
74.151 100.0 
95.119 1.429 
262.146 0.603 
402.329 1.577 
464.321 3.869 
END IONS

BEGIN IONS
PEPMASS=157.006
CHARGE=1+
MSLEVEL=2
SOURCE_INSTRUMENT=Positive-Quattro_QQQ:10eV
FILENAME=hmdb_intermediate.mgf
SEQ=*..*
IONMODE=Positive
ORGANISM=HMDB
NAME=HMDB:HMDB01544-1640 m-Chlorobenzoic acid M+H
PI=HMDB
DATACOLLECTOR=HMDB
SMILES=OC(=O)C1=CC(Cl)=CC=C1
INCHI=InChI=1S/C7H5ClO2/c8-6-3-1-2-5(4-6)7(9)10/h1-4H,(H,9,10)
INCHIAUX=N/A
PUBMED=N/A
SUBMITUSER=mwang87
TAGS=
LIBRARYQUALITY=3
SPECTRUMID=CCMSLIB00000426021
SCANS=993
78.0 100.0 
END IONS

BEGIN IONS
PEPMASS=114.067
CHARGE=1+
MSLEVEL=2
SOURCE_INSTRUMENT=Positive-Quattro_QQQ:40eV
FILENAME=hmdb_intermediate.mgf
SEQ=*..*
IONMODE=Positive
ORGANISM=HMDB
NAME=HMDB:HMDB00562-787 Creatinine M+H
PI=HMDB
DATACOLLECTOR=HMDB
SMILES=CN1CC(=O)NC1=N
INCHI=InChI=1S/C4H7N3O/c1-7-2-3(8)6-4(7)5/h2H2,1H3,(H2,5,6,8)
INCHIAUX=N/A
PUBMED=N/A
SUBMITUSER=mwang87
TAGS=
LIBRARYQUALITY=3
SPECTRUMID=CCMSLIB00000426022
SCANS=994
44.372 100.0 
113.927 16.302 
END IONS

BEGIN IONS
PEPMASS=89.1079
CHARGE=1+
MSLEVEL=2
SOURCE_INSTRUMENT=Positive-Quattro_QQQ:25eV
FILENAME=hmdb_intermediate.mgf
SEQ=*..*
IONMODE=Positive
ORGANISM=HMDB
NAME=HMDB:HMDB60243-1569 Putrescine M+H
PI=HMDB
DATACOLLECTOR=HMDB
SMILES=NCCCCN
INCHI=InChI=1S/C4H12N2/c5-3-1-2-4-6/h1-6H2
INCHIAUX=N/A
PUBMED=N/A
SUBMITUSER=mwang87
TAGS=
LIBRARYQUALITY=3
SPECTRUMID=CCMSLIB00000426023
SCANS=995
44.261 7.552 
55.207 15.365 
72.087 100.0 
89.084 19.618 
END IONS

BEGIN IONS
PEPMASS=489.115
CHARGE=1+
MSLEVEL=2
SOURCE_INSTRUMENT=Positive-Quattro_QQQ:40eV
FILENAME=hmdb_intermediate.mgf
SEQ=*..*
IONMODE=Positive
ORGANISM=HMDB
NAME=HMDB:HMDB01413-1567 Citicoline M+H
PI=HMDB
DATACOLLECTOR=HMDB
SMILES=C[N+](C)(C)CCOP([O-])(=O)OP(O)(=O)OC[C@H]1O[C@H]([C@H](O)[C@@H]1O)N1C=CC(N)=NC1=O
INCHI=InChI=1S/C14H26N4O11P2/c1-18(2,3)6-7-26-30(22,23)29-31(24,25)27-8-9-11(19)12(20)13(28-9)17-5-4-10(15)16-14(17)21/h4-5,9,11-13,19-20H,6-8H2,1-3H3,(H3-,15,16,21,22,23,24,25)/t9-,11-,12-,13-/m1/s1
INCHIAUX=N/A
PUBMED=N/A
SUBMITUSER=mwang87
TAGS=
LIBRARYQUALITY=3
SPECTRUMID=CCMSLIB00000426024
SCANS=996
60.0 1.971 
86.0 7.96 
104.0 2.844 
112.0 3.117 
125.0 4.722 
166.0 5.246 
184.0 100.0 
185.0 49.26 
264.0 10.39 
265.0 5.905 
END IONS

BEGIN IONS
PEPMASS=95.0167
CHARGE=1+
MSLEVEL=2
SOURCE_INSTRUMENT=Positive-Quattro_QQQ:10eV
FILENAME=hmdb_intermediate.mgf
SEQ=*..*
IONMODE=Positive
ORGANISM=HMDB
NAME=HMDB:HMDB04983-2421 Dimethyl sulfone M+H
PI=HMDB
DATACOLLECTOR=HMDB
SMILES=CS(C)(=O)=O
INCHI=InChI=1S/C2H6O2S/c1-5(2,3)4/h1-2H3
INCHIAUX=N/A
PUBMED=N/A
SUBMITUSER=mwang87
TAGS=
LIBRARYQUALITY=3
SPECTRUMID=CCMSLIB00000426025
SCANS=997
63.0 13.46 
95.0 100.0 
END IONS

BEGIN IONS
PEPMASS=75.0446
CHARGE=1+
MSLEVEL=2
SOURCE_INSTRUMENT=Positive-Quattro_QQQ:10eV
FILENAME=hmdb_intermediate.mgf
SEQ=*..*
IONMODE=Positive
ORGANISM=HMDB
NAME=HMDB:HMDB00237-397 Propionic acid M+H
PI=HMDB
DATACOLLECTOR=HMDB
SMILES=CCC(O)=O
INCHI=InChI=1S/C3H6O2/c1-2-3(4)5/h2H2,1H3,(H,4,5)
INCHIAUX=N/A
PUBMED=N/A
SUBMITUSER=mwang87
TAGS=
LIBRARYQUALITY=3
SPECTRUMID=CCMSLIB00000426026
SCANS=998
57.0 5.0669217933 
75.1 100.0 
END IONS

BEGIN IONS
PEPMASS=359.147
CHARGE=1+
MSLEVEL=2
SOURCE_INSTRUMENT=Positive-Quattro_QQQ:40eV
FILENAME=hmdb_intermediate.mgf
SEQ=*..*
IONMODE=Positive
ORGANISM=HMDB
NAME=HMDB:HMDB01069-1417 2-Phenylaminoadenosine M+H
PI=HMDB
DATACOLLECTOR=HMDB
SMILES=NC1=C2N=CN(C3OC(CO)C(O)C3O)C2=NC(NC2=CC=CC=C2)=N1
INCHI=InChI=1S/C16H18N6O4/c17-13-10-14(21-16(20-13)19-8-4-2-1-3-5-8)22(7-18-10)15-12(25)11(24)9(6-23)26-15/h1-5,7,9,11-12,15,23-25H,6H2,(H3,17,19,20,21)
INCHIAUX=N/A
PUBMED=N/A
SUBMITUSER=mwang87
TAGS=
LIBRARYQUALITY=3
SPECTRUMID=CCMSLIB00000426027
SCANS=999
209.86 100.0 
226.88 76.236 
END IONS

BEGIN IONS
PEPMASS=131.071
CHARGE=1+
MSLEVEL=2
SOURCE_INSTRUMENT=Positive-Quattro_QQQ:40eV
FILENAME=hmdb_intermediate.mgf
SEQ=*..*
IONMODE=Positive
ORGANISM=HMDB
NAME=HMDB:HMDB00408-623 2-Methyl-3-ketovaleric acid M+H
PI=HMDB
DATACOLLECTOR=HMDB
SMILES=CCC(=O)C(C)C(O)=O
INCHI=InChI=1S/C6H10O3/c1-3-5(7)4(2)6(8)9/h4H,3H2,1-2H3,(H,8,9)
INCHIAUX=N/A
PUBMED=N/A
SUBMITUSER=mwang87
TAGS=
LIBRARYQUALITY=3
SPECTRUMID=CCMSLIB00000426028
SCANS=1000
84.45 46.291 
84.57 76.036 
130.94 100.0 
END IONS

BEGIN IONS
PEPMASS=260.044
CHARGE=1+
MSLEVEL=2
SOURCE_INSTRUMENT=Positive-Quattro_QQQ:25eV
FILENAME=hmdb_intermediate.mgf
SEQ=*..*
IONMODE=Positive
ORGANISM=HMDB
NAME=HMDB:HMDB00592-817 Glucosamine 6-sulfate M+H
PI=HMDB
DATACOLLECTOR=HMDB
SMILES=N[C@H]1[C@H](O)O[C@H](COS(O)(=O)=O)[C@@H](O)[C@@H]1O
INCHI=InChI=1S/C6H13NO8S/c7-3-5(9)4(8)2(15-6(3)10)1-14-16(11,12)13/h2-6,8-10H,1,7H2,(H,11,12,13)/t2-,3-,4-,5-,6-/m1/s1
INCHIAUX=N/A
PUBMED=N/A
SUBMITUSER=mwang87
TAGS=
LIBRARYQUALITY=3
SPECTRUMID=CCMSLIB00000426029
SCANS=1001
56.188 64.076 
72.321 100.0 
80.014 94.736 
84.606 79.308 
97.761 97.554 
114.018 41.314 
115.631 57.117 
126.056 45.83 
140.204 14.979 
154.477 52.601 
161.676 36.423 
169.743 55.987 
184.017 18.74 
199.16 30.968 
212.194 52.037 
259.49 19.493 
END IONS

BEGIN IONS
PEPMASS=285.083
CHARGE=1+
MSLEVEL=2
SOURCE_INSTRUMENT=Positive-Quattro_QQQ:10eV
FILENAME=hmdb_intermediate.mgf
SEQ=*..*
IONMODE=Positive
ORGANISM=HMDB
NAME=HMDB:HMDB00299-507 Xanthosine M+H
PI=HMDB
DATACOLLECTOR=HMDB
SMILES=OC[C@H]1O[C@H]([C@H](O)[C@@H]1O)N1C=NC2=C1N=C(O)N=C2O
INCHI=InChI=1S/C10H12N4O6/c15-1-3-5(16)6(17)9(20-3)14-2-11-4-7(14)12-10(19)13-8(4)18/h2-3,5-6,9,15-17H,1H2,(H2,12,13,18,19)/t3-,5-,6-,9-/m1/s1
INCHIAUX=N/A
PUBMED=N/A
SUBMITUSER=mwang87
TAGS=
LIBRARYQUALITY=3
SPECTRUMID=CCMSLIB00000426030
SCANS=1002
57.207 0.94 
73.108 1.257 
85.068 1.486 
115.0 2.295 
132.981 18.007 
152.953 100.0 
284.967 4.72 
END IONS

BEGIN IONS
PEPMASS=138.055
CHARGE=1+
MSLEVEL=2
SOURCE_INSTRUMENT=Positive-Quattro_QQQ:40eV
FILENAME=hmdb_intermediate.mgf
SEQ=*..*
IONMODE=Positive
ORGANISM=HMDB
NAME=HMDB:HMDB01891-1800 m-Aminobenzoic acid M+H
PI=HMDB
DATACOLLECTOR=HMDB
SMILES=NC1=CC=CC(=C1)C(O)=O
INCHI=InChI=1S/C7H7NO2/c8-6-3-1-2-5(4-6)7(9)10/h1-4H,8H2,(H,9,10)
INCHIAUX=N/A
PUBMED=N/A
SUBMITUSER=mwang87
TAGS=
LIBRARYQUALITY=3
SPECTRUMID=CCMSLIB00000426031
SCANS=1003
51.189 17.143 
65.172 100.0 
75.064 34.286 
92.772 14.286 
120.965 3.393 
137.761 12.321 
END IONS

BEGIN IONS
PEPMASS=162.04
CHARGE=1+
MSLEVEL=2
SOURCE_INSTRUMENT=Positive-Quattro_QQQ:25eV
FILENAME=hmdb_intermediate.mgf
SEQ=*..*
IONMODE=Positive
ORGANISM=HMDB
NAME=HMDB:HMDB02467-2111 A-Ketoglutaric acid oxime M+H
PI=HMDB
DATACOLLECTOR=HMDB
SMILES=O\N=C(/CCC(O)=O)C(O)=O
INCHI=InChI=1S/C5H7NO5/c7-4(8)2-1-3(6-11)5(9)10/h11H,1-2H2,(H,7,8)(H,9,10)/b6-3+
INCHIAUX=N/A
PUBMED=N/A
SUBMITUSER=mwang87
TAGS=
LIBRARYQUALITY=3
SPECTRUMID=CCMSLIB00000426032
SCANS=1004
62.9 100.0 
72.55 67.057 
77.04 71.509 
103.41 59.758 
119.21 75.347 
END IONS

BEGIN IONS
PEPMASS=151.04
CHARGE=1+
MSLEVEL=2
SOURCE_INSTRUMENT=Negative-Quattro_QQQ:25eV
FILENAME=hmdb_intermediate.mgf
SEQ=*..*
IONMODE=Negative
ORGANISM=HMDB
NAME=HMDB:HMDB00669-919 Ortho-Hydroxyphenylacetic acid M-H
PI=HMDB
DATACOLLECTOR=HMDB
SMILES=OC(=O)CC1=CC=CC=C1O
INCHI=InChI=1S/C8H8O3/c9-7-4-2-1-3-6(7)5-8(10)11/h1-4,9H,5H2,(H,10,11)
INCHIAUX=N/A
PUBMED=N/A
SUBMITUSER=mwang87
TAGS=
LIBRARYQUALITY=3
SPECTRUMID=CCMSLIB00000426033
SCANS=1005
79.384 2.646 
107.136 100.0 
END IONS

BEGIN IONS
PEPMASS=133.098
CHARGE=1+
MSLEVEL=2
SOURCE_INSTRUMENT=Positive-Quattro_QQQ:25eV
FILENAME=hmdb_intermediate.mgf
SEQ=*..*
IONMODE=Positive
ORGANISM=HMDB
NAME=HMDB:HMDB00214-350 Ornithine M+H
PI=HMDB
DATACOLLECTOR=HMDB
SMILES=NCCC[C@H](N)C(O)=O
INCHI=InChI=1S/C5H12N2O2/c6-3-1-2-4(7)5(8)9/h4H,1-3,6-7H2,(H,8,9)/t4-/m0/s1
INCHIAUX=N/A
PUBMED=N/A
SUBMITUSER=mwang87
TAGS=
LIBRARYQUALITY=3
SPECTRUMID=CCMSLIB00000426034
SCANS=1006
43.334 2.662 
70.133 100.0 
END IONS

BEGIN IONS
PEPMASS=289.18
CHARGE=1+
MSLEVEL=2
SOURCE_INSTRUMENT=Positive-Quattro_QQQ:25eV
FILENAME=hmdb_intermediate.mgf
SEQ=*..*
IONMODE=Positive
ORGANISM=HMDB
NAME=HMDB:HMDB00153-237 Estriol M+H
PI=HMDB
DATACOLLECTOR=HMDB
SMILES=[H][C@@]12C[C@@H](O)[C@H](O)[C@@]1(C)CC[C@]1([H])C3=C(CC[C@@]21[H])C=C(O)C=C3
INCHI=InChI=1S/C18H24O3/c1-18-7-6-13-12-5-3-11(19)8-10(12)2-4-14(13)15(18)9-16(20)17(18)21/h3,5,8,13-17,19-21H,2,4,6-7,9H2,1H3/t13-,14-,15+,16-,17+,18+/m1/s1
INCHIAUX=N/A
PUBMED=N/A
SUBMITUSER=mwang87
TAGS=
LIBRARYQUALITY=3
SPECTRUMID=CCMSLIB00000426035
SCANS=1007
67.398 4.464 
81.312 8.929 
93.249 7.143 
95.245 6.677 
107.214 100.0 
121.174 9.356 
133.14 24.689 
134.637 3.028 
147.096 9.821 
159.072 16.77 
170.932 3.106 
196.998 3.882 
END IONS

BEGIN IONS
PEPMASS=325.044
CHARGE=1+
MSLEVEL=2
SOURCE_INSTRUMENT=Positive-Quattro_QQQ:10eV
FILENAME=hmdb_intermediate.mgf
SEQ=*..*
IONMODE=Positive
ORGANISM=HMDB
NAME=HMDB:HMDB00288-486 Uridine 5'-monophosphate M+H
PI=HMDB
DATACOLLECTOR=HMDB
SMILES=O[C@H]1[C@@H](O)[C@@H](O[C@@H]1COP(O)(O)=O)N1C=CC(=O)NC1=O
INCHI=InChI=1S/C9H13N2O9P/c12-5-1-2-11(9(15)10-5)8-7(14)6(13)4(20-8)3-19-21(16,17)18/h1-2,4,6-8,13-14H,3H2,(H,10,12,15)(H2,16,17,18)/t4-,6-,7-,8-/m1/s1
INCHIAUX=N/A
PUBMED=N/A
SUBMITUSER=mwang87
TAGS=
LIBRARYQUALITY=3
SPECTRUMID=CCMSLIB00000426036
SCANS=1008
113.0 13.267 
194.0 3.293 
195.0 9.646 
213.0 100.0 
220.0 2.039 
227.0 26.796 
324.0 5.334 
325.0 71.195 
END IONS

BEGIN IONS
PEPMASS=235.108
CHARGE=1+
MSLEVEL=2
SOURCE_INSTRUMENT=Positive-Quattro_QQQ:25eV
FILENAME=hmdb_intermediate.mgf
SEQ=*..*
IONMODE=Positive
ORGANISM=HMDB
NAME=HMDB:HMDB02339-2065 5-Methoxytryptophan M+H
PI=HMDB
DATACOLLECTOR=HMDB
SMILES=COC1=CC2=C(NC=C2C[C@H](N)C(O)=O)C=C1
INCHI=InChI=1S/C12H14N2O3/c1-17-8-2-3-11-9(5-8)7(6-14-11)4-10(13)12(15)16/h2-3,5-6,10,14H,4,13H2,1H3,(H,15,16)/t10-/m0/s1
INCHIAUX=N/A
PUBMED=N/A
SUBMITUSER=mwang87
TAGS=
LIBRARYQUALITY=3
SPECTRUMID=CCMSLIB00000426037
SCANS=1009
116.0 15.322 
132.0 46.504 
142.0 13.967 
147.0 100.0 
158.0 28.31 
173.0 26.413 
175.0 52.196 
199.0 10.68 
217.0 7.691 
END IONS

BEGIN IONS
PEPMASS=134.045
CHARGE=1+
MSLEVEL=2
SOURCE_INSTRUMENT=Positive-Quattro_QQQ:40eV
FILENAME=hmdb_intermediate.mgf
SEQ=*..*
IONMODE=Positive
ORGANISM=HMDB
NAME=HMDB:HMDB00191-306 L-Aspartic acid M+H
PI=HMDB
DATACOLLECTOR=HMDB
SMILES=N[C@@H](CC(O)=O)C(O)=O
INCHI=InChI=1S/C4H7NO4/c5-2(4(8)9)1-3(6)7/h2H,1,5H2,(H,6,7)(H,8,9)/t2-/m0/s1
INCHIAUX=N/A
PUBMED=N/A
SUBMITUSER=mwang87
TAGS=
LIBRARYQUALITY=3
SPECTRUMID=CCMSLIB00000426038
SCANS=1010
43.193 79.63 
46.26 39.12 
56.21 9.028 
73.887 100.0 
88.038 17.593 
133.985 15.509 
END IONS

BEGIN IONS
PEPMASS=202.144
CHARGE=1+
MSLEVEL=2
SOURCE_INSTRUMENT=Positive-Quattro_QQQ:10eV
FILENAME=hmdb_intermediate.mgf
SEQ=*..*
IONMODE=Positive
ORGANISM=HMDB
NAME=HMDB:HMDB00832-1181 Capryloylglycine M+H
PI=HMDB
DATACOLLECTOR=HMDB
SMILES=CCCCCCCC(=O)NCC(O)=O
INCHI=InChI=1S/C10H19NO3/c1-2-3-4-5-6-7-9(12)11-8-10(13)14/h2-8H2,1H3,(H,11,12)(H,13,14)
INCHIAUX=N/A
PUBMED=N/A
SUBMITUSER=mwang87
TAGS=
LIBRARYQUALITY=3
SPECTRUMID=CCMSLIB00000426039
SCANS=1011
57.394 100.0 
76.213 42.543 
127.028 8.117 
END IONS

BEGIN IONS
PEPMASS=115.112
CHARGE=1+
MSLEVEL=2
SOURCE_INSTRUMENT=Positive-Quattro_QQQ:10eV
FILENAME=hmdb_intermediate.mgf
SEQ=*..*
IONMODE=Positive
ORGANISM=HMDB
NAME=HMDB:HMDB04814-2406 4-Heptanone M+H
PI=HMDB
DATACOLLECTOR=HMDB
SMILES=CCCC(=O)CCC
INCHI=InChI=1S/C7H14O/c1-3-5-7(8)6-4-2/h3-6H2,1-2H3
INCHIAUX=N/A
PUBMED=N/A
SUBMITUSER=mwang87
TAGS=
LIBRARYQUALITY=3
SPECTRUMID=CCMSLIB00000426040
SCANS=1012
55.11 100.0 
73.16 24.305 
END IONS

BEGIN IONS
PEPMASS=190.05
CHARGE=1+
MSLEVEL=2
SOURCE_INSTRUMENT=Positive-Quattro_QQQ:25eV
FILENAME=hmdb_intermediate.mgf
SEQ=*..*
IONMODE=Positive
ORGANISM=HMDB
NAME=HMDB:HMDB00715-1000 Kynurenic acid M+H
PI=HMDB
DATACOLLECTOR=HMDB
SMILES=OC(=O)C1=CC(=O)C2=CC=CC=C2N1
INCHI=InChI=1S/C10H7NO3/c12-9-5-8(10(13)14)11-7-4-2-1-3-6(7)9/h1-5H,(H,11,12)(H,13,14)
INCHIAUX=N/A
PUBMED=N/A
SUBMITUSER=mwang87
TAGS=
LIBRARYQUALITY=3
SPECTRUMID=CCMSLIB00000426041
SCANS=1013
89.086 9.861 
116.029 22.211 
143.95 100.0 
162.003 3.386 
END IONS

BEGIN IONS
PEPMASS=93.034
CHARGE=1+
MSLEVEL=2
SOURCE_INSTRUMENT=Negative-Quattro_QQQ:40eV
FILENAME=hmdb_intermediate.mgf
SEQ=*..*
IONMODE=Negative
ORGANISM=HMDB
NAME=HMDB:HMDB00228-381 Phenol M-H
PI=HMDB
DATACOLLECTOR=HMDB
SMILES=OC1=CC=CC=C1
INCHI=InChI=1S/C6H6O/c7-6-4-2-1-3-5-6/h1-5,7H
INCHIAUX=N/A
PUBMED=N/A
SUBMITUSER=mwang87
TAGS=
LIBRARYQUALITY=3
SPECTRUMID=CCMSLIB00000426042
SCANS=1014
93.0 100.0 
END IONS

BEGIN IONS
PEPMASS=213.076
CHARGE=1+
MSLEVEL=2
SOURCE_INSTRUMENT=Positive-Quattro_QQQ:10eV
FILENAME=hmdb_intermediate.mgf
SEQ=*..*
IONMODE=Positive
ORGANISM=HMDB
NAME=HMDB:HMDB00913-1300 Vanillactic acid M+H
PI=HMDB
DATACOLLECTOR=HMDB
SMILES=COC1=CC(CC(O)C(O)=O)=CC=C1O
INCHI=InChI=1S/C10H12O5/c1-15-9-5-6(2-3-7(9)11)4-8(12)10(13)14/h2-3,5,8,11-12H,4H2,1H3,(H,13,14)
INCHIAUX=N/A
PUBMED=N/A
SUBMITUSER=mwang87
TAGS=
LIBRARYQUALITY=3
SPECTRUMID=CCMSLIB00000426043
SCANS=1015
107.0 7.059 
125.0 6.244 
135.0 14.059 
149.0 43.775 
167.0 100.0 
177.0 6.325 
195.0 20.927 
213.0 19.768 
END IONS

BEGIN IONS
PEPMASS=431.389
CHARGE=1+
MSLEVEL=2
SOURCE_INSTRUMENT=Positive-Quattro_QQQ:25eV
FILENAME=hmdb_intermediate.mgf
SEQ=*..*
IONMODE=Positive
ORGANISM=HMDB
NAME=HMDB:HMDB01893-1805 Alpha-Tocopherol M+H
PI=HMDB
DATACOLLECTOR=HMDB
SMILES=CC(C)CCC[C@@H](C)CCC[C@@H](C)CCC[C@]1(C)CCC2=C(O1)C(C)=C(C)C(O)=C2C
INCHI=InChI=1S/C29H50O2/c1-20(2)12-9-13-21(3)14-10-15-22(4)16-11-18-29(8)19-17-26-25(7)27(30)23(5)24(6)28(26)31-29/h20-22,30H,9-19H2,1-8H3/t21-,22-,29-/m1/s1
INCHIAUX=N/A
PUBMED=N/A
SUBMITUSER=mwang87
TAGS=
LIBRARYQUALITY=3
SPECTRUMID=CCMSLIB00000426044
SCANS=1016
55.333 23.098 
71.41 100.0 
83.56 76.087 
86.506 57.065 
96.693 75.0 
164.2 63.859 
165.796 54.076 
281.931 10.054 
END IONS

BEGIN IONS
PEPMASS=248.032
CHARGE=1+
MSLEVEL=2
SOURCE_INSTRUMENT=Positive-Quattro_QQQ:10eV
FILENAME=hmdb_intermediate.mgf
SEQ=*..*
IONMODE=Positive
ORGANISM=HMDB
NAME=HMDB:HMDB01491-1610 Pyridoxal 5'-phosphate M+H
PI=HMDB
DATACOLLECTOR=HMDB
SMILES=CC1=NC=C(COP(O)(O)=O)C(C=O)=C1O
INCHI=InChI=1S/C8H10NO6P/c1-5-8(11)7(3-10)6(2-9-5)4-15-16(12,13)14/h2-3,11H,4H2,1H3,(H2,12,13,14)
INCHIAUX=N/A
PUBMED=N/A
SUBMITUSER=mwang87
TAGS=
LIBRARYQUALITY=3
SPECTRUMID=CCMSLIB00000426045
SCANS=1017
94.0 1.711 
122.0 3.138 
150.0 68.294 
168.0 3.113 
248.0 100.0 
END IONS

BEGIN IONS
PEPMASS=266.967
CHARGE=1+
MSLEVEL=2
SOURCE_INSTRUMENT=Positive-Quattro_QQQ:25eV
FILENAME=hmdb_intermediate.mgf
SEQ=*..*
IONMODE=Positive
ORGANISM=HMDB
NAME=HMDB:HMDB01294-1505 2,3-Diphosphoglyceric acid M+H
PI=HMDB
DATACOLLECTOR=HMDB
SMILES=OC(=O)[C@@H](COP(O)(O)=O)OP(O)(O)=O
INCHI=InChI=1S/C3H8O10P2/c4-3(5)2(13-15(9,10)11)1-12-14(6,7)8/h2H,1H2,(H,4,5)(H2,6,7,8)(H2,9,10,11)/t2-/m1/s1
INCHIAUX=N/A
PUBMED=N/A
SUBMITUSER=mwang87
TAGS=
LIBRARYQUALITY=3
SPECTRUMID=CCMSLIB00000426046
SCANS=1018
65.0 2.374 
99.0 35.148 
123.0 100.0 
141.0 28.396 
169.0 15.406 
END IONS

BEGIN IONS
PEPMASS=87.081
CHARGE=1+
MSLEVEL=2
SOURCE_INSTRUMENT=Positive-Quattro_QQQ:10eV
FILENAME=hmdb_intermediate.mgf
SEQ=*..*
IONMODE=Positive
ORGANISM=HMDB
NAME=HMDB:HMDB06478-2484 Iso-Valeraldehyde M+H
PI=HMDB
DATACOLLECTOR=HMDB
SMILES=CC(C)CC=O
INCHI=InChI=1S/C5H10O/c1-5(2)3-4-6/h4-5H,3H2,1-2H3
INCHIAUX=N/A
PUBMED=N/A
SUBMITUSER=mwang87
TAGS=
LIBRARYQUALITY=3
SPECTRUMID=CCMSLIB00000426047
SCANS=1019
86.95 100.0 
END IONS

BEGIN IONS
PEPMASS=186.017
CHARGE=1+
MSLEVEL=2
SOURCE_INSTRUMENT=Positive-Quattro_QQQ:10eV
FILENAME=hmdb_intermediate.mgf
SEQ=*..*
IONMODE=Positive
ORGANISM=HMDB
NAME=HMDB:HMDB01721-1678 DL-O-Phosphoserine M+H
PI=HMDB
DATACOLLECTOR=HMDB
SMILES=NC(COP(O)(O)=O)C(O)=O
INCHI=InChI=1S/C3H8NO6P/c4-2(3(5)6)1-10-11(7,8)9/h2H,1,4H2,(H,5,6)(H2,7,8,9)
INCHIAUX=N/A
PUBMED=N/A
SUBMITUSER=mwang87
TAGS=
LIBRARYQUALITY=3
SPECTRUMID=CCMSLIB00000426048
SCANS=1020
70.378 4.825 
88.297 100.0 
185.999 9.156 
END IONS

BEGIN IONS
PEPMASS=283.264
CHARGE=1+
MSLEVEL=2
SOURCE_INSTRUMENT=Positive-Quattro_QQQ:40eV
FILENAME=hmdb_intermediate.mgf
SEQ=*..*
IONMODE=Positive
ORGANISM=HMDB
NAME=HMDB:HMDB00207-336 Oleic acid M+H
PI=HMDB
DATACOLLECTOR=HMDB
SMILES=CCCCCCCC\C=C/CCCCCCCC(O)=O
INCHI=InChI=1S/C18H34O2/c1-2-3-4-5-6-7-8-9-10-11-12-13-14-15-16-17-18(19)20/h9-10H,2-8,11-17H2,1H3,(H,19,20)/b10-9-
INCHIAUX=N/A
PUBMED=N/A
SUBMITUSER=mwang87
TAGS=
LIBRARYQUALITY=3
SPECTRUMID=CCMSLIB00000426049
SCANS=1021
43.0 60.352 
55.0 100.0 
69.0 74.692 
81.0 29.798 
93.0 18.525 
95.0 16.822 
END IONS

BEGIN IONS
PEPMASS=135.029
CHARGE=1+
MSLEVEL=2
SOURCE_INSTRUMENT=Positive-Quattro_QQQ:25eV
FILENAME=hmdb_intermediate.mgf
SEQ=*..*
IONMODE=Positive
ORGANISM=HMDB
NAME=HMDB:HMDB00156-240 L-Malic acid M+H
PI=HMDB
DATACOLLECTOR=HMDB
SMILES=O[C@@H](CC(O)=O)C(O)=O
INCHI=InChI=1S/C4H6O5/c5-2(4(8)9)1-3(6)7/h2,5H,1H2,(H,6,7)(H,8,9)/t2-/m0/s1
INCHIAUX=N/A
PUBMED=N/A
SUBMITUSER=mwang87
TAGS=
LIBRARYQUALITY=3
SPECTRUMID=CCMSLIB00000426050
SCANS=1022
43.0 89.757 
45.0 49.219 
57.0 16.688 
71.0 100.0 
77.0 51.255 
85.0 42.962 
99.0 13.069 
107.0 18.539 
END IONS

BEGIN IONS
PEPMASS=301.217
CHARGE=1+
MSLEVEL=2
SOURCE_INSTRUMENT=Positive-Quattro_QQQ:10eV
FILENAME=hmdb_intermediate.mgf
SEQ=*..*
IONMODE=Positive
ORGANISM=HMDB
NAME=HMDB:HMDB01852-1717 All-trans-retinoic acid M+H
PI=HMDB
DATACOLLECTOR=HMDB
SMILES=C\C(\C=C\C1=C(C)CCCC1(C)C)=C/C=C/C(/C)=C/C(O)=O
INCHI=InChI=1S/C20H28O2/c1-15(8-6-9-16(2)14-19(21)22)11-12-18-17(3)10-7-13-20(18,4)5/h6,8-9,11-12,14H,7,10,13H2,1-5H3,(H,21,22)/b9-6+,12-11+,15-8+,16-14+
INCHIAUX=N/A
PUBMED=N/A
SUBMITUSER=mwang87
TAGS=
LIBRARYQUALITY=3
SPECTRUMID=CCMSLIB00000426051
SCANS=1023
101.681 34.321 
130.016 27.642 
164.318 76.993 
185.944 14.842 
214.036 42.855 
242.253 94.061 
260.651 100.0 
273.207 40.444 
278.18 34.321 
END IONS

BEGIN IONS
PEPMASS=175.024
CHARGE=1+
MSLEVEL=2
SOURCE_INSTRUMENT=Positive-Quattro_QQQ:10eV
FILENAME=hmdb_intermediate.mgf
SEQ=*..*
IONMODE=Positive
ORGANISM=HMDB
NAME=HMDB:HMDB00072-117 cis-Aconitic acid M+H
PI=HMDB
DATACOLLECTOR=HMDB
SMILES=OC(=O)C\C(=C\C(O)=O)C(O)=O
INCHI=InChI=1S/C6H6O6/c7-4(8)1-3(6(11)12)2-5(9)10/h1H,2H2,(H,7,8)(H,9,10)(H,11,12)/b3-1-
INCHIAUX=N/A
PUBMED=N/A
SUBMITUSER=mwang87
TAGS=
LIBRARYQUALITY=3
SPECTRUMID=CCMSLIB00000426052
SCANS=1024
41.393 4.358 
85.058 100.0 
128.934 30.046 
172.854 5.39 
END IONS

BEGIN IONS
PEPMASS=103.04
CHARGE=1+
MSLEVEL=2
SOURCE_INSTRUMENT=Negative-Quattro_QQQ:40eV
FILENAME=hmdb_intermediate.mgf
SEQ=*..*
IONMODE=Negative
ORGANISM=HMDB
NAME=HMDB:HMDB00357-575 3-Hydroxybutyric acid M-H
PI=HMDB
DATACOLLECTOR=HMDB
SMILES=CC(O)CC(O)=O
INCHI=InChI=1S/C4H8O3/c1-3(5)2-4(6)7/h3,5H,2H2,1H3,(H,6,7)
INCHIAUX=N/A
PUBMED=N/A
SUBMITUSER=mwang87
TAGS=
LIBRARYQUALITY=3
SPECTRUMID=CCMSLIB00000426053
SCANS=1025
41.316 76.042 
59.224 100.0 
103.014 79.167 
END IONS

BEGIN IONS
PEPMASS=441.163
CHARGE=1+
MSLEVEL=2
SOURCE_INSTRUMENT=Positive-Quattro_QQQ:25eV
FILENAME=hmdb_intermediate.mgf
SEQ=*..*
IONMODE=Positive
ORGANISM=HMDB
NAME=HMDB:HMDB01833-1688 Aminopterin M+H
PI=HMDB
DATACOLLECTOR=HMDB
SMILES=NC1=NC2=C(N=C(CNC3=CC=C(C=C3)C(=O)NC(CCC(O)=O)C(O)=O)C=N2)C(N)=N1
INCHI=InChI=1S/C19H20N8O5/c20-15-14-16(27-19(21)26-15)23-8-11(24-14)7-22-10-3-1-9(2-4-10)17(30)25-12(18(31)32)5-6-13(28)29/h1-4,8,12,22H,5-7H2,(H,25,30)(H,28,29)(H,31,32)(H4,20,21,23,26,27)
INCHIAUX=N/A
PUBMED=N/A
SUBMITUSER=mwang87
TAGS=
LIBRARYQUALITY=3
SPECTRUMID=CCMSLIB00000426054
SCANS=1026
119.0 60.442 
174.0 83.579 
175.0 54.142 
293.0 100.0 
295.0 24.756 
END IONS

BEGIN IONS
PEPMASS=87.0446
CHARGE=1+
MSLEVEL=2
SOURCE_INSTRUMENT=Positive-Quattro_QQQ:40eV
FILENAME=hmdb_intermediate.mgf
SEQ=*..*
IONMODE=Positive
ORGANISM=HMDB
NAME=HMDB:HMDB00549-775 Gamma-Butyrolactone M+H
PI=HMDB
DATACOLLECTOR=HMDB
SMILES=O=C1CCCO1
INCHI=InChI=1S/C4H6O2/c5-4-2-1-3-6-4/h1-3H2
INCHIAUX=N/A
PUBMED=N/A
SUBMITUSER=mwang87
TAGS=
LIBRARYQUALITY=3
SPECTRUMID=CCMSLIB00000426055
SCANS=1027
59.1 4.7169814124 
73.1 11.7924535311 
87.1 100.0 
END IONS

BEGIN IONS
PEPMASS=221.06
CHARGE=1+
MSLEVEL=2
SOURCE_INSTRUMENT=Negative-Quattro_QQQ:40eV
FILENAME=hmdb_intermediate.mgf
SEQ=*..*
IONMODE=Negative
ORGANISM=HMDB
NAME=HMDB:HMDB03075-2193 Flavone M-H
PI=HMDB
DATACOLLECTOR=HMDB
SMILES=O=C1C=C(OC2=CC=CC=C12)C1=CC=CC=C1
INCHI=InChI=1S/C15H10O2/c16-13-10-15(11-6-2-1-3-7-11)17-14-9-5-4-8-12(13)14/h1-10H
INCHIAUX=N/A
PUBMED=N/A
SUBMITUSER=mwang87
TAGS=
LIBRARYQUALITY=3
SPECTRUMID=CCMSLIB00000426056
SCANS=1028
100.0 100.0 
117.0 1.874 
END IONS

BEGIN IONS
PEPMASS=129.019
CHARGE=1+
MSLEVEL=2
SOURCE_INSTRUMENT=Negative-Quattro_QQQ:40eV
FILENAME=hmdb_intermediate.mgf
SEQ=*..*
IONMODE=Negative
ORGANISM=HMDB
NAME=HMDB:HMDB00634-866 Citraconic acid M-H
PI=HMDB
DATACOLLECTOR=HMDB
SMILES=C\C(=C\C(O)=O)C(O)=O
INCHI=InChI=1S/C5H6O4/c1-3(5(8)9)2-4(6)7/h2H,1H3,(H,6,7)(H,8,9)/b3-2-
INCHIAUX=N/A
PUBMED=N/A
SUBMITUSER=mwang87
TAGS=
LIBRARYQUALITY=3
SPECTRUMID=CCMSLIB00000426057
SCANS=1029
41.605 100.0 
85.193 55.303 
129.174 34.28 
END IONS

BEGIN IONS
PEPMASS=152.108
CHARGE=1+
MSLEVEL=2
SOURCE_INSTRUMENT=Positive-Quattro_QQQ:40eV
FILENAME=hmdb_intermediate.mgf
SEQ=*..*
IONMODE=Positive
ORGANISM=HMDB
NAME=HMDB:HMDB01942-1901 Phenylpropanolamine M+H
PI=HMDB
DATACOLLECTOR=HMDB
SMILES=C[C@@H](N)[C@@H](O)C1=CC=CC=C1
INCHI=InChI=1S/C9H13NO/c1-7(10)9(11)8-5-3-2-4-6-8/h2-7,9,11H,10H2,1H3/t7-,9-/m1/s1
INCHIAUX=N/A
PUBMED=N/A
SUBMITUSER=mwang87
TAGS=
LIBRARYQUALITY=3
SPECTRUMID=CCMSLIB00000426058
SCANS=1030
52.825 19.388 
67.652 22.959 
76.814 100.0 
87.397 30.612 
103.334 45.918 
104.84 46.429 
133.5 22.449 
END IONS

BEGIN IONS
PEPMASS=160.097
CHARGE=1+
MSLEVEL=2
SOURCE_INSTRUMENT=Positive-Quattro_QQQ:25eV
FILENAME=hmdb_intermediate.mgf
SEQ=*..*
IONMODE=Positive
ORGANISM=HMDB
NAME=HMDB:HMDB00339-547 2-Methylbutyrylglycine M+H
PI=HMDB
DATACOLLECTOR=HMDB
SMILES=CCC(C)C(=O)NCC(O)=O
INCHI=InChI=1S/C7H13NO3/c1-3-5(2)7(11)8-4-6(9)10/h5H,3-4H2,1-2H3,(H,8,11)(H,9,10)
INCHIAUX=N/A
PUBMED=N/A
SUBMITUSER=mwang87
TAGS=
LIBRARYQUALITY=3
SPECTRUMID=CCMSLIB00000426059
SCANS=1031
41.682 19.468 
57.529 100.0 
END IONS

BEGIN IONS
PEPMASS=117.019
CHARGE=1+
MSLEVEL=2
SOURCE_INSTRUMENT=Negative-Quattro_QQQ:40eV
FILENAME=hmdb_intermediate.mgf
SEQ=*..*
IONMODE=Negative
ORGANISM=HMDB
NAME=HMDB:HMDB00202-327 Methylmalonic acid M-H
PI=HMDB
DATACOLLECTOR=HMDB
SMILES=CC(C(O)=O)C(O)=O
INCHI=InChI=1S/C4H6O4/c1-2(3(5)6)4(7)8/h2H,1H3,(H,5,6)(H,7,8)
INCHIAUX=N/A
PUBMED=N/A
SUBMITUSER=mwang87
TAGS=
LIBRARYQUALITY=3
SPECTRUMID=CCMSLIB00000426060
SCANS=1032
40.636 10.248 
55.422 100.0 
73.195 63.964 
117.192 20.383 
END IONS

BEGIN IONS
PEPMASS=160.097
CHARGE=1+
MSLEVEL=2
SOURCE_INSTRUMENT=Positive-Quattro_QQQ:10eV
FILENAME=hmdb_intermediate.mgf
SEQ=*..*
IONMODE=Positive
ORGANISM=HMDB
NAME=HMDB:HMDB00339-546 2-Methylbutyrylglycine M+H
PI=HMDB
DATACOLLECTOR=HMDB
SMILES=CCC(C)C(=O)NCC(O)=O
INCHI=InChI=1S/C7H13NO3/c1-3-5(2)7(11)8-4-6(9)10/h5H,3-4H2,1-2H3,(H,8,11)(H,9,10)
INCHIAUX=N/A
PUBMED=N/A
SUBMITUSER=mwang87
TAGS=
LIBRARYQUALITY=3
SPECTRUMID=CCMSLIB00000426061
SCANS=1033
57.536 100.0 
76.372 65.098 
85.374 97.647 
160.162 10.098 
END IONS

BEGIN IONS
PEPMASS=145.05
CHARGE=1+
MSLEVEL=2
SOURCE_INSTRUMENT=Negative-Quattro_QQQ:25eV
FILENAME=hmdb_intermediate.mgf
SEQ=*..*
IONMODE=Negative
ORGANISM=HMDB
NAME=HMDB:HMDB00448-654 Adipic acid M-H
PI=HMDB
DATACOLLECTOR=HMDB
SMILES=OC(=O)CCCCC(O)=O
INCHI=InChI=1S/C6H10O4/c7-5(8)3-1-2-4-6(9)10/h1-4H2,(H,7,8)(H,9,10)
INCHIAUX=N/A
PUBMED=N/A
SUBMITUSER=mwang87
TAGS=
LIBRARYQUALITY=3
SPECTRUMID=CCMSLIB00000426062
SCANS=1034
53.257 15.0 
81.049 100.0 
100.977 20.0 
144.858 9.904 
END IONS

BEGIN IONS
PEPMASS=215.128
CHARGE=1+
MSLEVEL=2
SOURCE_INSTRUMENT=Negative-Quattro_QQQ:25eV
FILENAME=hmdb_intermediate.mgf
SEQ=*..*
IONMODE=Negative
ORGANISM=HMDB
NAME=HMDB:HMDB00888-1251 Undecanedioic acid M-H
PI=HMDB
DATACOLLECTOR=HMDB
SMILES=OC(=O)CCCCCCCCCC(O)=O
INCHI=InChI=1S/C11H20O4/c12-10(13)8-6-4-2-1-3-5-7-9-11(14)15/h1-9H2,(H,12,13)(H,14,15)
INCHIAUX=N/A
PUBMED=N/A
SUBMITUSER=mwang87
TAGS=
LIBRARYQUALITY=3
SPECTRUMID=CCMSLIB00000426063
SCANS=1035
57.464 19.13 
71.383 4.022 
80.346 5.163 
125.234 7.826 
153.221 43.261 
197.153 100.0 
214.918 12.12 
END IONS

BEGIN IONS
PEPMASS=78.0377
CHARGE=1+
MSLEVEL=2
SOURCE_INSTRUMENT=Positive-Quattro_QQQ:25eV
FILENAME=hmdb_intermediate.mgf
SEQ=*..*
IONMODE=Positive
ORGANISM=HMDB
NAME=HMDB:HMDB60150-2177 Cysteamine M+H
PI=HMDB
DATACOLLECTOR=HMDB
SMILES=NCCS
INCHI=InChI=1S/C2H7NS/c3-1-2-4/h4H,1-3H2
INCHIAUX=N/A
PUBMED=N/A
SUBMITUSER=mwang87
TAGS=
LIBRARYQUALITY=3
SPECTRUMID=CCMSLIB00000426064
SCANS=1036
18.0 5.988 
27.0 24.183 
35.0 31.818 
61.0 100.0 
78.0 8.302 
END IONS

BEGIN IONS
PEPMASS=209.081
CHARGE=1+
MSLEVEL=2
SOURCE_INSTRUMENT=Positive-Quattro_QQQ:10eV
FILENAME=hmdb_intermediate.mgf
SEQ=*..*
IONMODE=Positive
ORGANISM=HMDB
NAME=HMDB:HMDB12127-2505 (R)-2-Benzylsuccinate M+H
PI=HMDB
DATACOLLECTOR=HMDB
SMILES=OC(=O)C[C@H](CC1=CC=CC=C1)C(O)=O
INCHI=InChI=1S/C11H12O4/c12-10(13)7-9(11(14)15)6-8-4-2-1-3-5-8/h1-5,9H,6-7H2,(H,12,13)(H,14,15)/t9-/m0/s1
INCHIAUX=N/A
PUBMED=N/A
SUBMITUSER=mwang87
TAGS=
LIBRARYQUALITY=3
SPECTRUMID=CCMSLIB00000426065
SCANS=1037
144.18 5.5422344834 
145.14 36.4741250281 
173.1 100.0 
191.1 58.5020213057 
209.1 2.390829405 
END IONS

BEGIN IONS
PEPMASS=227.114
CHARGE=1+
MSLEVEL=2
SOURCE_INSTRUMENT=Positive-Quattro_QQQ:25eV
FILENAME=hmdb_intermediate.mgf
SEQ=*..*
IONMODE=Positive
ORGANISM=HMDB
NAME=HMDB:HMDB00033-55 Carnosine M+H
PI=HMDB
DATACOLLECTOR=HMDB
SMILES=NCCC(=O)N[C@@H](CC1=CN=CN1)C(O)=O
INCHI=InChI=1S/C9H14N4O3/c10-2-1-8(14)13-7(9(15)16)3-6-4-11-5-12-6/h4-5,7H,1-3,10H2,(H,11,12)(H,13,14)(H,15,16)/t7-/m0/s1
INCHIAUX=N/A
PUBMED=N/A
SUBMITUSER=mwang87
TAGS=
LIBRARYQUALITY=3
SPECTRUMID=CCMSLIB00000426066
SCANS=1038
83.069 8.073 
93.109 4.915 
95.1 12.109 
110.067 100.0 
122.028 12.76 
146.037 1.986 
155.984 13.021 
END IONS

BEGIN IONS
PEPMASS=243.098
CHARGE=1+
MSLEVEL=2
SOURCE_INSTRUMENT=Positive-Quattro_QQQ:40eV
FILENAME=hmdb_intermediate.mgf
SEQ=*..*
IONMODE=Positive
ORGANISM=HMDB
NAME=HMDB:HMDB00273-480 Thymidine M+H
PI=HMDB
DATACOLLECTOR=HMDB
SMILES=CC1=CN([C@H]2C[C@H](O)[C@@H](CO)O2)C(=O)NC1=O
INCHI=InChI=1S/C10H14N2O5/c1-5-3-12(10(16)11-9(5)15)8-2-6(14)7(4-13)17-8/h3,6-8,13-14H,2,4H2,1H3,(H,11,15,16)/t6-,7+,8+/m0/s1
INCHIAUX=N/A
PUBMED=N/A
SUBMITUSER=mwang87
TAGS=
LIBRARYQUALITY=3
SPECTRUMID=CCMSLIB00000426067
SCANS=1039
43.351 7.277 
45.349 9.546 
61.187 71.233 
73.115 40.24 
81.101 7.791 
85.067 100.0 
97.034 27.74 
108.979 5.223 
126.966 9.461 
144.993 9.589 
162.905 6.207 
END IONS

BEGIN IONS
PEPMASS=137.133
CHARGE=1+
MSLEVEL=2
SOURCE_INSTRUMENT=Positive-Quattro_QQQ:40eV
FILENAME=hmdb_intermediate.mgf
SEQ=*..*
IONMODE=Positive
ORGANISM=HMDB
NAME=HMDB:HMDB05806-2453 Gamma-terpinene M+H
PI=HMDB
DATACOLLECTOR=HMDB
SMILES=CC(C)C1=CCC(C)=CC1
INCHI=InChI=1S/C10H16/c1-8(2)10-6-4-9(3)5-7-10/h4,7-8H,5-6H2,1-3H3
INCHIAUX=N/A
PUBMED=N/A
SUBMITUSER=mwang87
TAGS=
LIBRARYQUALITY=3
SPECTRUMID=CCMSLIB00000426068
SCANS=1040
41.22 100.0 
55.24 33.222 
76.92 51.494 
END IONS

BEGIN IONS
PEPMASS=61.0402
CHARGE=1+
MSLEVEL=2
SOURCE_INSTRUMENT=Positive-Quattro_QQQ:10eV
FILENAME=hmdb_intermediate.mgf
SEQ=*..*
IONMODE=Positive
ORGANISM=HMDB
NAME=HMDB:HMDB00294-498 Urea M+H
PI=HMDB
DATACOLLECTOR=HMDB
SMILES=NC(N)=O
INCHI=InChI=1S/CH4N2O/c2-1(3)4/h(H4,2,3,4)
INCHIAUX=N/A
PUBMED=N/A
SUBMITUSER=mwang87
TAGS=
LIBRARYQUALITY=3
SPECTRUMID=CCMSLIB00000426069
SCANS=1041
44.0 17.948 
61.0 100.0 
END IONS

BEGIN IONS
PEPMASS=117.092
CHARGE=1+
MSLEVEL=2
SOURCE_INSTRUMENT=Positive-Quattro_QQQ:10eV
FILENAME=hmdb_intermediate.mgf
SEQ=*..*
IONMODE=Positive
ORGANISM=HMDB
NAME=HMDB:HMDB00689-955 Isocaproic acid M+H
PI=HMDB
DATACOLLECTOR=HMDB
SMILES=CC(C)CCC(O)=O
INCHI=InChI=1S/C6H12O2/c1-5(2)3-4-6(7)8/h5H,3-4H2,1-2H3,(H,7,8)
INCHIAUX=N/A
PUBMED=N/A
SUBMITUSER=mwang87
TAGS=
LIBRARYQUALITY=3
SPECTRUMID=CCMSLIB00000426070
SCANS=1042
98.43 37.975 
116.68 100.0 
END IONS

BEGIN IONS
PEPMASS=115.003
CHARGE=1+
MSLEVEL=2
SOURCE_INSTRUMENT=Negative-Quattro_QQQ:25eV
FILENAME=hmdb_intermediate.mgf
SEQ=*..*
IONMODE=Negative
ORGANISM=HMDB
NAME=HMDB:HMDB00134-207 Fumaric acid M-H
PI=HMDB
DATACOLLECTOR=HMDB
SMILES=OC(=O)\C=C\C(O)=O
INCHI=InChI=1S/C4H4O4/c5-3(6)1-2-4(7)8/h1-2H,(H,5,6)(H,7,8)/b2-1+
INCHIAUX=N/A
PUBMED=N/A
SUBMITUSER=mwang87
TAGS=
LIBRARYQUALITY=3
SPECTRUMID=CCMSLIB00000426071
SCANS=1043
45.207 29.412 
70.882 100.0 
114.146 7.647 
114.747 83.529 
END IONS

BEGIN IONS
PEPMASS=195.066
CHARGE=1+
MSLEVEL=2
SOURCE_INSTRUMENT=Negative-Quattro_QQQ:40eV
FILENAME=hmdb_intermediate.mgf
SEQ=*..*
IONMODE=Negative
ORGANISM=HMDB
NAME=HMDB:HMDB00434-637 Homoveratric acid M-H
PI=HMDB
DATACOLLECTOR=HMDB
SMILES=COC1=CC=C(CC(O)=O)C=C1OC
INCHI=InChI=1S/C10H12O4/c1-13-8-4-3-7(6-10(11)12)5-9(8)14-2/h3-5H,6H2,1-2H3,(H,11,12)
INCHIAUX=N/A
PUBMED=N/A
SUBMITUSER=mwang87
TAGS=
LIBRARYQUALITY=3
SPECTRUMID=CCMSLIB00000426072
SCANS=1044
41.652 8.791 
65.441 4.224 
93.306 93.407 
121.182 100.0 
136.18 4.19 
END IONS

BEGIN IONS
PEPMASS=193.035
CHARGE=1+
MSLEVEL=2
SOURCE_INSTRUMENT=Negative-Quattro_QQQ:40eV
FILENAME=hmdb_intermediate.mgf
SEQ=*..*
IONMODE=Negative
ORGANISM=HMDB
NAME=HMDB:HMDB00127-193 D-Glucuronic acid M-H
PI=HMDB
DATACOLLECTOR=HMDB
SMILES=O[C@H]1O[C@@H]([C@@H](O)[C@H](O)[C@H]1O)C(O)=O
INCHI=InChI=1S/C6H10O7/c7-1-2(8)4(5(10)11)13-6(12)3(1)9/h1-4,6-9,12H,(H,10,11)/t1-,2-,3+,4-,6-/m0/s1
INCHIAUX=N/A
PUBMED=N/A
SUBMITUSER=mwang87
TAGS=
LIBRARYQUALITY=3
SPECTRUMID=CCMSLIB00000426073
SCANS=1045
43.623 44.8132341011 
45.571 21.226764488 
59.448 100.0 
71.356 48.1147049487 
75.284 5.7775739833 
85.199 8.9626468202 
END IONS

BEGIN IONS
PEPMASS=298.097
CHARGE=1+
MSLEVEL=2
SOURCE_INSTRUMENT=Positive-Quattro_QQQ:40eV
FILENAME=hmdb_intermediate.mgf
SEQ=*..*
IONMODE=Positive
ORGANISM=HMDB
NAME=HMDB:HMDB01173-1450 5'-Methylthioadenosine M+H
PI=HMDB
DATACOLLECTOR=HMDB
SMILES=CSC[C@H]1O[C@H]([C@H](O)[C@@H]1O)N1C=NC2=C1N=CN=C2N
INCHI=InChI=1S/C11H15N5O3S/c1-20-2-5-7(17)8(18)11(19-5)16-4-15-6-9(12)13-3-14-10(6)16/h3-5,7-8,11,17-18H,2H2,1H3,(H2,12,13,14)/t5-,7-,8-,11-/m1/s1
INCHIAUX=N/A
PUBMED=N/A
SUBMITUSER=mwang87
TAGS=
LIBRARYQUALITY=3
SPECTRUMID=CCMSLIB00000426074
SCANS=1046
61.0 12.553 
75.0 9.145 
94.0 6.154 
97.0 2.316 
119.0 17.745 
136.0 100.0 
END IONS

BEGIN IONS
PEPMASS=161.045
CHARGE=1+
MSLEVEL=2
SOURCE_INSTRUMENT=Negative-Quattro_QQQ:10eV
FILENAME=hmdb_intermediate.mgf
SEQ=*..*
IONMODE=Negative
ORGANISM=HMDB
NAME=HMDB:HMDB00321-534 2-Hydroxyadipic acid M-H
PI=HMDB
DATACOLLECTOR=HMDB
SMILES=OC(CCCC(O)=O)C(O)=O
INCHI=InChI=1S/C6H10O5/c7-4(6(10)11)2-1-3-5(8)9/h4,7H,1-3H2,(H,8,9)(H,10,11)
INCHIAUX=N/A
PUBMED=N/A
SUBMITUSER=mwang87
TAGS=
LIBRARYQUALITY=3
SPECTRUMID=CCMSLIB00000426075
SCANS=1047
55.565 15.545 
71.423 8.654 
99.313 14.022 
117.254 12.34 
143.171 30.449 
161.16 100.0 
END IONS

BEGIN IONS
PEPMASS=385.347
CHARGE=1+
MSLEVEL=2
SOURCE_INSTRUMENT=Positive-Quattro_QQQ:40eV
FILENAME=hmdb_intermediate.mgf
SEQ=*..*
IONMODE=Positive
ORGANISM=HMDB
NAME=HMDB:HMDB00032-53 7-Dehydrocholesterol M+H
PI=HMDB
DATACOLLECTOR=HMDB
SMILES=[H][C@@]12CC[C@H]([C@H](C)CCCC(C)C)[C@@]1(C)CC[C@@]1([H])C2=CC=C2C[C@@H](O)CC[C@]12C
INCHI=InChI=1S/C27H44O/c1-18(2)7-6-8-19(3)23-11-12-24-22-10-9-20-17-21(28)13-15-26(20,4)25(22)14-16-27(23,24)5/h9-10,18-19,21,23-25,28H,6-8,11-17H2,1-5H3/t19-,21+,23-,24+,25+,26+,27-/m1/s1
INCHIAUX=N/A
PUBMED=N/A
SUBMITUSER=mwang87
TAGS=
LIBRARYQUALITY=3
SPECTRUMID=CCMSLIB00000426076
SCANS=1048
43.37 35.106 
55.289 61.702 
69.23 100.0 
81.103 86.17 
93.195 53.191 
95.201 69.681 
105.076 62.234 
121.002 39.362 
131.003 47.34 
143.136 43.085 
144.635 46.277 
157.158 45.745 
168.956 32.979 
183.807 26.729 
184.837 32.181 
195.129 27.926 
210.957 23.005 
221.007 14.096 
END IONS

BEGIN IONS
PEPMASS=104.071
CHARGE=1+
MSLEVEL=2
SOURCE_INSTRUMENT=Positive-Quattro_QQQ:10eV
FILENAME=hmdb_intermediate.mgf
SEQ=*..*
IONMODE=Positive
ORGANISM=HMDB
NAME=HMDB:HMDB01906-1825 2-Aminoisobutyric acid M+H
PI=HMDB
DATACOLLECTOR=HMDB
SMILES=CC(C)(N)C(O)=O
INCHI=InChI=1S/C4H9NO2/c1-4(2,5)3(6)7/h5H2,1-2H3,(H,6,7)
INCHIAUX=N/A
PUBMED=N/A
SUBMITUSER=mwang87
TAGS=
LIBRARYQUALITY=3
SPECTRUMID=CCMSLIB00000426077
SCANS=1049
86.0 100.0 
104.0 27.185 
END IONS

BEGIN IONS
PEPMASS=119.071
CHARGE=1+
MSLEVEL=2
SOURCE_INSTRUMENT=Positive-Quattro_QQQ:10eV
FILENAME=hmdb_intermediate.mgf
SEQ=*..*
IONMODE=Positive
ORGANISM=HMDB
NAME=HMDB:HMDB00351-564 3-Hydroxy-2-methyl-[R-(R,S)]-butanoic acid M+H
PI=HMDB
DATACOLLECTOR=HMDB
SMILES=C[C@@H](O)[C@H](C)C(O)=O
INCHI=InChI=1S/C5H10O3/c1-3(4(2)6)5(7)8/h3-4,6H,1-2H3,(H,7,8)/t3-,4+/m0/s1
INCHIAUX=N/A
PUBMED=N/A
SUBMITUSER=mwang87
TAGS=
LIBRARYQUALITY=3
SPECTRUMID=CCMSLIB00000426078
SCANS=1050
45.0 21.7 
63.0 100.0 
73.0 49.711 
83.0 54.823 
87.0 22.056 
101.0 93.807 
119.0 20.083 
END IONS

BEGIN IONS
PEPMASS=268.105
CHARGE=1+
MSLEVEL=2
SOURCE_INSTRUMENT=Positive-Quattro_QQQ:25eV
FILENAME=hmdb_intermediate.mgf
SEQ=*..*
IONMODE=Positive
ORGANISM=HMDB
NAME=HMDB:HMDB00050-82 Adenosine M+H
PI=HMDB
DATACOLLECTOR=HMDB
SMILES=NC1=NC=NC2=C1N=CN2[C@@H]1O[C@H](CO)[C@@H](O)[C@H]1O
INCHI=InChI=1S/C10H13N5O4/c11-8-5-9(13-2-12-8)15(3-14-5)10-7(18)6(17)4(1-16)19-10/h2-4,6-7,10,16-18H,1H2,(H2,11,12,13)/t4-,6-,7-,10-/m1/s1
INCHIAUX=N/A
PUBMED=N/A
SUBMITUSER=mwang87
TAGS=
LIBRARYQUALITY=3
SPECTRUMID=CCMSLIB00000426079
SCANS=1051
57.136 3.48 
73.03 2.451 
84.99 2.99 
135.887 100.0 
END IONS

BEGIN IONS
PEPMASS=287.056
CHARGE=1+
MSLEVEL=2
SOURCE_INSTRUMENT=Positive-Quattro_QQQ:25eV
FILENAME=hmdb_intermediate.mgf
SEQ=*..*
IONMODE=Positive
ORGANISM=HMDB
NAME=HMDB:HMDB05801-2449 Kaempferol M+H
PI=HMDB
DATACOLLECTOR=HMDB
SMILES=OC1=CC=C(C=C1)C1=C(O)C(=O)C2=C(O1)C=C(O)C=C2O
INCHI=InChI=1S/C15H10O6/c16-8-3-1-7(2-4-8)15-14(20)13(19)12-10(18)5-9(17)6-11(12)21-15/h1-6,16-18,20H
INCHIAUX=N/A
PUBMED=N/A
SUBMITUSER=mwang87
TAGS=
LIBRARYQUALITY=3
SPECTRUMID=CCMSLIB00000426080
SCANS=1052
68.0 6.846 
92.0 2.727 
110.0 6.293 
120.0 19.793 
132.0 4.547 
136.0 5.734 
152.0 28.713 
164.0 19.158 
165.0 6.109 
184.0 3.505 
212.0 8.614 
230.0 3.565 
240.0 4.839 
257.0 9.139 
286.0 100.0 
END IONS

BEGIN IONS
PEPMASS=155.009
CHARGE=1+
MSLEVEL=2
SOURCE_INSTRUMENT=Negative-Quattro_QQQ:10eV
FILENAME=hmdb_intermediate.mgf
SEQ=*..*
IONMODE=Negative
ORGANISM=HMDB
NAME=HMDB:HMDB00226-373 Orotic acid M-H
PI=HMDB
DATACOLLECTOR=HMDB
SMILES=OC(=O)C1=CC(=O)NC(=O)N1
INCHI=InChI=1S/C5H4N2O4/c8-3-1-2(4(9)10)6-5(11)7-3/h1H,(H,9,10)(H2,6,7,8,11)
INCHIAUX=N/A
PUBMED=N/A
SUBMITUSER=mwang87
TAGS=
LIBRARYQUALITY=3
SPECTRUMID=CCMSLIB00000426081
SCANS=1053
42.341 2.058 
110.983 100.0 
154.882 5.798 
END IONS

BEGIN IONS
PEPMASS=229.082
CHARGE=1+
MSLEVEL=2
SOURCE_INSTRUMENT=Positive-Quattro_QQQ:10eV
FILENAME=hmdb_intermediate.mgf
SEQ=*..*
IONMODE=Positive
ORGANISM=HMDB
NAME=HMDB:HMDB00012-19 Deoxyuridine M+H
PI=HMDB
DATACOLLECTOR=HMDB
SMILES=OC[C@H]1O[C@H](C[C@@H]1O)N1C=CC(=O)NC1=O
INCHI=InChI=1S/C9H12N2O5/c12-4-6-5(13)3-8(16-6)11-2-1-7(14)10-9(11)15/h1-2,5-6,8,12-13H,3-4H2,(H,10,14,15)/t5-,6+,8+/m0/s1
INCHIAUX=N/A
PUBMED=N/A
SUBMITUSER=mwang87
TAGS=
LIBRARYQUALITY=3
SPECTRUMID=CCMSLIB00000426082
SCANS=1054
73.138 1.65 
81.109 12.267 
99.089 11.491 
113.033 100.0 
117.054 35.714 
END IONS

BEGIN IONS
PEPMASS=373.191
CHARGE=1+
MSLEVEL=2
SOURCE_INSTRUMENT=Positive-Quattro_QQQ:40eV
FILENAME=hmdb_intermediate.mgf
SEQ=*..*
IONMODE=Positive
ORGANISM=HMDB
NAME=HMDB:HMDB03134-2202 Biocytin M+H
PI=HMDB
DATACOLLECTOR=HMDB
SMILES=[H][C@]12CS[C@@H](CCCCC(=O)NCCCC[C@H](N)C(O)=O)[C@@]1([H])NC(=O)N2
INCHI=InChI=1S/C16H28N4O4S/c17-10(15(22)23)5-3-4-8-18-13(21)7-2-1-6-12-14-11(9-25-12)19-16(24)20-14/h10-12,14H,1-9,17H2,(H,18,21)(H,22,23)(H2,19,20,24)/t10-,11-,12-,14-/m0/s1
INCHIAUX=N/A
PUBMED=N/A
SUBMITUSER=mwang87
TAGS=
LIBRARYQUALITY=3
SPECTRUMID=CCMSLIB00000426083
SCANS=1055
83.0 100.0 
96.0 6.399 
122.0 3.318 
129.0 2.24 
138.0 1.973 
166.0 3.162 
198.0 1.694 
226.0 14.157 
END IONS

BEGIN IONS
PEPMASS=73.029
CHARGE=1+
MSLEVEL=2
SOURCE_INSTRUMENT=Positive-Quattro_QQQ:10eV
FILENAME=hmdb_intermediate.mgf
SEQ=*..*
IONMODE=Positive
ORGANISM=HMDB
NAME=HMDB:HMDB01167-1442 Pyruvaldehyde M+H
PI=HMDB
DATACOLLECTOR=HMDB
SMILES=CC(=O)C=O
INCHI=InChI=1S/C3H4O2/c1-3(5)2-4/h2H,1H3
INCHIAUX=N/A
PUBMED=N/A
SUBMITUSER=mwang87
TAGS=
LIBRARYQUALITY=3
SPECTRUMID=CCMSLIB00000426084
SCANS=1056
41.0 33.909 
45.0 79.186 
55.0 14.77 
73.0 100.0 
END IONS

BEGIN IONS
PEPMASS=251.07
CHARGE=1+
MSLEVEL=2
SOURCE_INSTRUMENT=Positive-Quattro_QQQ:25eV
FILENAME=hmdb_intermediate.mgf
SEQ=*..*
IONMODE=Positive
ORGANISM=HMDB
NAME=HMDB:HMDB01049-1401 Gamma-Glutamylcysteine M+H
PI=HMDB
DATACOLLECTOR=HMDB
SMILES=N[C@@H](CCC(=O)N[C@@H](CS)C(O)=O)C(O)=O
INCHI=InChI=1S/C8H14N2O5S/c9-4(7(12)13)1-2-6(11)10-5(3-16)8(14)15/h4-5,16H,1-3,9H2,(H,10,11)(H,12,13)(H,14,15)/t4-,5-/m0/s1
INCHIAUX=N/A
PUBMED=N/A
SUBMITUSER=mwang87
TAGS=
LIBRARYQUALITY=3
SPECTRUMID=CCMSLIB00000426085
SCANS=1057
121.87 32.68 
129.89 21.253 
251.45 100.0 
END IONS

BEGIN IONS
PEPMASS=482.997
CHARGE=1+
MSLEVEL=2
SOURCE_INSTRUMENT=Positive-Quattro_QQQ:40eV
FILENAME=hmdb_intermediate.mgf
SEQ=*..*
IONMODE=Positive
ORGANISM=HMDB
NAME=HMDB:HMDB01342-1527 Thymidine 5'-triphosphate M+H
PI=HMDB
DATACOLLECTOR=HMDB
SMILES=CC1=CN([C@H]2C[C@H](O)[C@@H](COP(O)(=O)OP(O)(=O)OP(O)(O)=O)O2)C(=O)NC1=O
INCHI=InChI=1S/C10H17N2O14P3/c1-5-3-12(10(15)11-9(5)14)8-2-6(13)7(24-8)4-23-28(19,20)26-29(21,22)25-27(16,17)18/h3,6-8,13H,2,4H2,1H3,(H,19,20)(H,21,22)(H,11,14,15)(H2,16,17,18)/t6-,7+,8+/m0/s1
INCHIAUX=N/A
PUBMED=N/A
SUBMITUSER=mwang87
TAGS=
LIBRARYQUALITY=3
SPECTRUMID=CCMSLIB00000426086
SCANS=1058
122.0 100.0 
END IONS

BEGIN IONS
PEPMASS=138.092
CHARGE=1+
MSLEVEL=2
SOURCE_INSTRUMENT=Positive-Quattro_QQQ:25eV
FILENAME=hmdb_intermediate.mgf
SEQ=*..*
IONMODE=Positive
ORGANISM=HMDB
NAME=HMDB:HMDB01065-1410 2-Hydroxyphenethylamine M+H
PI=HMDB
DATACOLLECTOR=HMDB
SMILES=NCC(O)C1=CC=CC=C1
INCHI=InChI=1S/C8H11NO/c9-6-8(10)7-4-2-1-3-5-7/h1-5,8,10H,6,9H2
INCHIAUX=N/A
PUBMED=N/A
SUBMITUSER=mwang87
TAGS=
LIBRARYQUALITY=3
SPECTRUMID=CCMSLIB00000426087
SCANS=1059
93.12 8.5226267646 
103.08 40.5781514884 
120.06 100.0 
END IONS

BEGIN IONS
PEPMASS=181.071
CHARGE=1+
MSLEVEL=2
SOURCE_INSTRUMENT=Positive-Quattro_QQQ:10eV
FILENAME=hmdb_intermediate.mgf
SEQ=*..*
IONMODE=Positive
ORGANISM=HMDB
NAME=HMDB:HMDB06088-2469 Scyllitol M+H
PI=HMDB
DATACOLLECTOR=HMDB
SMILES=O[C@H]1[C@H](O)[C@@H](O)[C@@H](O)[C@@H](O)[C@H]1O
INCHI=InChI=1S/C6H12O6/c7-1-2(8)4(10)6(12)5(11)3(1)9/h1-12H/t1-,2-,3-,4+,5-,6+
INCHIAUX=N/A
PUBMED=N/A
SUBMITUSER=mwang87
TAGS=
LIBRARYQUALITY=3
SPECTRUMID=CCMSLIB00000426088
SCANS=1060
98.61 100.0 
139.59 69.596 
180.68 20.608 
END IONS

BEGIN IONS
PEPMASS=173.081
CHARGE=1+
MSLEVEL=2
SOURCE_INSTRUMENT=Positive-Quattro_QQQ:25eV
FILENAME=hmdb_intermediate.mgf
SEQ=*..*
IONMODE=Positive
ORGANISM=HMDB
NAME=HMDB:HMDB00341-550 2-Octenedioic acid M+H
PI=HMDB
DATACOLLECTOR=HMDB
SMILES=OC(=O)CCCC\C=C\C(O)=O
INCHI=InChI=1S/C8H12O4/c9-7(10)5-3-1-2-4-6-8(11)12/h3,5H,1-2,4,6H2,(H,9,10)(H,11,12)/b5-3+
INCHIAUX=N/A
PUBMED=N/A
SUBMITUSER=mwang87
TAGS=
LIBRARYQUALITY=3
SPECTRUMID=CCMSLIB00000426089
SCANS=1061
41.0 8.82 
53.0 7.926 
55.0 18.694 
67.0 38.217 
81.0 100.0 
85.0 16.428 
109.0 10.43 
END IONS

BEGIN IONS
PEPMASS=118.087
CHARGE=1+
MSLEVEL=2
SOURCE_INSTRUMENT=Positive-Quattro_QQQ:25eV
FILENAME=hmdb_intermediate.mgf
SEQ=*..*
IONMODE=Positive
ORGANISM=HMDB
NAME=HMDB:HMDB03355-2263 5-Aminopentanoic acid M+H
PI=HMDB
DATACOLLECTOR=HMDB
SMILES=NCCCCC(O)=O
INCHI=InChI=1S/C5H11NO2/c6-4-2-1-3-5(7)8/h1-4,6H2,(H,7,8)
INCHIAUX=N/A
PUBMED=N/A
SUBMITUSER=mwang87
TAGS=
LIBRARYQUALITY=3
SPECTRUMID=CCMSLIB00000426090
SCANS=1062
72.0 33.618 
83.0 100.0 
101.0 36.944 
118.0 26.151 
END IONS

BEGIN IONS
PEPMASS=282.12
CHARGE=1+
MSLEVEL=2
SOURCE_INSTRUMENT=Positive-Quattro_QQQ:40eV
FILENAME=hmdb_intermediate.mgf
SEQ=*..*
IONMODE=Positive
ORGANISM=HMDB
NAME=HMDB:HMDB03331-2247 1-Methyladenosine M+H
PI=HMDB
DATACOLLECTOR=HMDB
SMILES=CN1C=NC2=C(N=CN2[C@@H]2O[C@H](CO)[C@@H](O)[C@H]2O)C1=N
INCHI=InChI=1S/C11H15N5O4/c1-15-3-14-10-6(9(15)12)13-4-16(10)11-8(19)7(18)5(2-17)20-11/h3-5,7-8,11-12,17-19H,2H2,1H3/t5-,7-,8-,11-/m1/s1
INCHIAUX=N/A
PUBMED=N/A
SUBMITUSER=mwang87
TAGS=
LIBRARYQUALITY=3
SPECTRUMID=CCMSLIB00000426091
SCANS=1063
32.0 2.467 
57.0 3.335 
82.0 3.088 
94.0 4.602 
109.0 9.014 
119.0 3.638 
133.0 10.517 
150.0 100.0 
END IONS

BEGIN IONS
PEPMASS=89.0239
CHARGE=1+
MSLEVEL=2
SOURCE_INSTRUMENT=Negative-Quattro_QQQ:25eV
FILENAME=hmdb_intermediate.mgf
SEQ=*..*
IONMODE=Negative
ORGANISM=HMDB
NAME=HMDB:HMDB00190-302 L-Lactic acid M-H
PI=HMDB
DATACOLLECTOR=HMDB
SMILES=C[C@H](O)C(O)=O
INCHI=InChI=1S/C3H6O3/c1-2(4)3(5)6/h2,4H,1H3,(H,5,6)/t2-/m0/s1
INCHIAUX=N/A
PUBMED=N/A
SUBMITUSER=mwang87
TAGS=
LIBRARYQUALITY=3
SPECTRUMID=CCMSLIB00000426092
SCANS=1064
43.61 79.618 
45.542 77.07 
89.004 100.0 
END IONS

BEGIN IONS
PEPMASS=269.063
CHARGE=1+
MSLEVEL=2
SOURCE_INSTRUMENT=Positive-Quattro_QQQ:25eV
FILENAME=hmdb_intermediate.mgf
SEQ=*..*
IONMODE=Positive
ORGANISM=HMDB
NAME=HMDB:HMDB00676-937 L-Homocystine M+H
PI=HMDB
DATACOLLECTOR=HMDB
SMILES=NC(CCSSCC[C@H](N)C(O)=O)C(O)=O
INCHI=InChI=1S/C8H16N2O4S2/c9-5(7(11)12)1-3-15-16-4-2-6(10)8(13)14/h5-6H,1-4,9-10H2,(H,11,12)(H,13,14)/t5-,6?/m0/s1
INCHIAUX=N/A
PUBMED=N/A
SUBMITUSER=mwang87
TAGS=
LIBRARYQUALITY=3
SPECTRUMID=CCMSLIB00000426093
SCANS=1065
56.0 12.955 
87.0 100.0 
117.0 8.104 
134.0 42.464 
135.0 23.554 
END IONS

BEGIN IONS
PEPMASS=289.217
CHARGE=1+
MSLEVEL=2
SOURCE_INSTRUMENT=Positive-Quattro_QQQ:40eV
FILENAME=hmdb_intermediate.mgf
SEQ=*..*
IONMODE=Positive
ORGANISM=HMDB
NAME=HMDB:HMDB00899-1276 Androstanedione M+H
PI=HMDB
DATACOLLECTOR=HMDB
SMILES=[H][C@@]12CCC(=O)[C@@]1(C)CC[C@@]1([H])[C@@]2([H])CC[C@@]2([H])CC(=O)CC[C@]12C
INCHI=InChI=1S/C19H28O2/c1-18-9-7-13(20)11-12(18)3-4-14-15-5-6-17(21)19(15,2)10-8-16(14)18/h12,14-16H,3-11H2,1-2H3/t12-,14-,15-,16-,18-,19-/m0/s1
INCHIAUX=N/A
PUBMED=N/A
SUBMITUSER=mwang87
TAGS=
LIBRARYQUALITY=3
SPECTRUMID=CCMSLIB00000426094
SCANS=1066
55.238 37.436 
67.166 41.026 
81.109 100.0 
91.078 89.744 
97.058 51.282 
105.052 91.282 
119.027 52.821 
130.949 42.051 
142.981 32.692 
144.909 35.385 
157.222 16.923 
170.941 20.513 
END IONS

BEGIN IONS
PEPMASS=105.019
CHARGE=1+
MSLEVEL=2
SOURCE_INSTRUMENT=Negative-Quattro_QQQ:40eV
FILENAME=hmdb_intermediate.mgf
SEQ=*..*
IONMODE=Negative
ORGANISM=HMDB
NAME=HMDB:HMDB00139-214 Glyceric acid M-H
PI=HMDB
DATACOLLECTOR=HMDB
SMILES=OC[C@@H](O)C(O)=O
INCHI=InChI=1S/C3H6O4/c4-1-2(5)3(6)7/h2,4-5H,1H2,(H,6,7)/t2-/m1/s1
INCHIAUX=N/A
PUBMED=N/A
SUBMITUSER=mwang87
TAGS=
LIBRARYQUALITY=3
SPECTRUMID=CCMSLIB00000426095
SCANS=1067
43.229 26.149 
45.148 25.575 
57.072 26.437 
74.303 8.118 
75.123 17.17 
103.33 26.724 
104.844 100.0 
END IONS

BEGIN IONS
PEPMASS=130.05
CHARGE=1+
MSLEVEL=2
SOURCE_INSTRUMENT=Positive-Quattro_QQQ:40eV
FILENAME=hmdb_intermediate.mgf
SEQ=*..*
IONMODE=Positive
ORGANISM=HMDB
NAME=HMDB:HMDB01843-1695 N-Acryloylglycine M+H
PI=HMDB
DATACOLLECTOR=HMDB
SMILES=OC(=O)CNC(=O)C=C
INCHI=InChI=1S/C5H7NO3/c1-2-4(7)6-3-5(8)9/h2H,1,3H2,(H,6,7)(H,8,9)
INCHIAUX=N/A
PUBMED=N/A
SUBMITUSER=mwang87
TAGS=
LIBRARYQUALITY=3
SPECTRUMID=CCMSLIB00000426096
SCANS=1068
43.628 6.9 
45.622 4.125 
55.485 100.0 
73.352 2.675 
84.318 12.2 
130.264 2.675 
END IONS

BEGIN IONS
PEPMASS=132.066
CHARGE=1+
MSLEVEL=2
SOURCE_INSTRUMENT=Positive-Quattro_QQQ:10eV
FILENAME=hmdb_intermediate.mgf
SEQ=*..*
IONMODE=Positive
ORGANISM=HMDB
NAME=HMDB:HMDB00766-1104 N-Acetyl-L-alanine M+H
PI=HMDB
DATACOLLECTOR=HMDB
SMILES=C[C@H](NC(C)=O)C(O)=O
INCHI=InChI=1S/C5H9NO3/c1-3(5(8)9)6-4(2)7/h3H,1-2H3,(H,6,7)(H,8,9)/t3-/m0/s1
INCHIAUX=N/A
PUBMED=N/A
SUBMITUSER=mwang87
TAGS=
LIBRARYQUALITY=3
SPECTRUMID=CCMSLIB00000426097
SCANS=1069
44.093 14.362 
90.014 100.0 
113.939 3.617 
131.878 7.66 
END IONS

BEGIN IONS
PEPMASS=107.05
CHARGE=1+
MSLEVEL=2
SOURCE_INSTRUMENT=Positive-Quattro_QQQ:10eV
FILENAME=hmdb_intermediate.mgf
SEQ=*..*
IONMODE=Positive
ORGANISM=HMDB
NAME=HMDB:HMDB06115-2472 Benzaldehyde M+H
PI=HMDB
DATACOLLECTOR=HMDB
SMILES=O=CC1=CC=CC=C1
INCHI=InChI=1S/C7H6O/c8-6-7-4-2-1-3-5-7/h1-6H
INCHIAUX=N/A
PUBMED=N/A
SUBMITUSER=mwang87
TAGS=
LIBRARYQUALITY=3
SPECTRUMID=CCMSLIB00000426098
SCANS=1070
39.0 4.17 
79.0 100.0 
89.0 14.909 
107.0 57.256 
END IONS

BEGIN IONS
PEPMASS=142.027
CHARGE=1+
MSLEVEL=2
SOURCE_INSTRUMENT=Positive-Quattro_QQQ:10eV
FILENAME=hmdb_intermediate.mgf
SEQ=*..*
IONMODE=Positive
ORGANISM=HMDB
NAME=HMDB:HMDB60152-370 O-Phosphoethanolamine M+H
PI=HMDB
DATACOLLECTOR=HMDB
SMILES=NCCOP(O)(O)=O
INCHI=InChI=1S/C2H8NO4P/c3-1-2-7-8(4,5)6/h1-3H2,(H2,4,5,6)
INCHIAUX=N/A
PUBMED=N/A
SUBMITUSER=mwang87
TAGS=
LIBRARYQUALITY=3
SPECTRUMID=CCMSLIB00000426099
SCANS=1071
44.628 100.0 
142.085 20.062 
END IONS

BEGIN IONS
PEPMASS=212.044
CHARGE=1+
MSLEVEL=2
SOURCE_INSTRUMENT=Positive-Quattro_QQQ:25eV
FILENAME=hmdb_intermediate.mgf
SEQ=*..*
IONMODE=Positive
ORGANISM=HMDB
NAME=HMDB:HMDB01511-1617 Phosphocreatine M+H
PI=HMDB
DATACOLLECTOR=HMDB
SMILES=CN(CC(O)=O)C(=N)NP(O)(O)=O
INCHI=InChI=1S/C4H10N3O5P/c1-7(2-3(8)9)4(5)6-13(10,11)12/h2H2,1H3,(H,8,9)(H4,5,6,10,11,12)
INCHIAUX=N/A
PUBMED=N/A
SUBMITUSER=mwang87
TAGS=
LIBRARYQUALITY=3
SPECTRUMID=CCMSLIB00000426100
SCANS=1072
76.0 100.0 
END IONS

BEGIN IONS
PEPMASS=181.071
CHARGE=1+
MSLEVEL=2
SOURCE_INSTRUMENT=Positive-Quattro_QQQ:10eV
FILENAME=hmdb_intermediate.mgf
SEQ=*..*
IONMODE=Positive
ORGANISM=HMDB
NAME=HMDB:HMDB00143-215 D-Galactose M+H
PI=HMDB
DATACOLLECTOR=HMDB
SMILES=OC[C@H]1O[C@H](O)[C@H](O)[C@@H](O)[C@H]1O
INCHI=InChI=1S/C6H12O6/c7-1-2-3(8)4(9)5(10)6(11)12-2/h2-11H,1H2/t2-,3+,4+,5-,6+/m1/s1
INCHIAUX=N/A
PUBMED=N/A
SUBMITUSER=mwang87
TAGS=
LIBRARYQUALITY=3
SPECTRUMID=CCMSLIB00000426101
SCANS=1073
85.0 14.712 
101.0 33.404 
117.0 28.442 
149.0 100.0 
163.0 11.039 
181.0 12.431 
END IONS

BEGIN IONS
PEPMASS=163.108
CHARGE=1+
MSLEVEL=2
SOURCE_INSTRUMENT=Positive-Quattro_QQQ:25eV
FILENAME=hmdb_intermediate.mgf
SEQ=*..*
IONMODE=Positive
ORGANISM=HMDB
NAME=HMDB:HMDB00450-657 5-Hydroxylysine M+H
PI=HMDB
DATACOLLECTOR=HMDB
SMILES=NC[C@H](O)CC[C@H](N)C(O)=O
INCHI=InChI=1S/C6H14N2O3/c7-3-4(9)1-2-5(8)6(10)11/h4-5,9H,1-3,7-8H2,(H,10,11)/t4-,5+/m1/s1
INCHIAUX=N/A
PUBMED=N/A
SUBMITUSER=mwang87
TAGS=
LIBRARYQUALITY=3
SPECTRUMID=CCMSLIB00000426102
SCANS=1074
74.0 27.811 
82.0 100.0 
END IONS

BEGIN IONS
PEPMASS=391.285
CHARGE=1+
MSLEVEL=2
SOURCE_INSTRUMENT=Negative-Quattro_QQQ:25eV
FILENAME=hmdb_intermediate.mgf
SEQ=*..*
IONMODE=Negative
ORGANISM=HMDB
NAME=HMDB:HMDB00733-1036 Hyodeoxycholic acid M-H
PI=HMDB
DATACOLLECTOR=HMDB
SMILES=[H][C@@]12CC[C@H]([C@H](C)CCC(O)=O)[C@@]1(C)CC[C@@]1([H])[C@@]2([H])C[C@H](O)C2C[C@H](O)CC[C@]12C
INCHI=InChI=1S/C24H40O4/c1-14(4-7-22(27)28)17-5-6-18-16-13-21(26)20-12-15(25)8-10-24(20,3)19(16)9-11-23(17,18)2/h14-21,25-26H,4-13H2,1-3H3,(H,27,28)/t14-,15-,16+,17-,18+,19+,20?,21+,23-,24-/m1/s1
INCHIAUX=N/A
PUBMED=N/A
SUBMITUSER=mwang87
TAGS=
LIBRARYQUALITY=3
SPECTRUMID=CCMSLIB00000426103
SCANS=1075
78.0 1.357 
152.0 1.585 
254.0 5.988 
255.0 6.284 
391.0 100.0 
END IONS

BEGIN IONS
PEPMASS=122.097
CHARGE=1+
MSLEVEL=2
SOURCE_INSTRUMENT=Positive-Quattro_QQQ:40eV
FILENAME=hmdb_intermediate.mgf
SEQ=*..*
IONMODE=Positive
ORGANISM=HMDB
NAME=HMDB:HMDB02017-1949 1-Phenylethylamine M+H
PI=HMDB
DATACOLLECTOR=HMDB
SMILES=CC(N)C1=CC=CC=C1
INCHI=InChI=1S/C8H11N/c1-7(9)8-5-3-2-4-6-8/h2-7H,9H2,1H3
INCHIAUX=N/A
PUBMED=N/A
SUBMITUSER=mwang87
TAGS=
LIBRARYQUALITY=3
SPECTRUMID=CCMSLIB00000426104
SCANS=1076
43.02 21.432 
51.11 63.882 
64.94 16.319 
76.85 100.0 
END IONS

BEGIN IONS
PEPMASS=201.984
CHARGE=1+
MSLEVEL=2
SOURCE_INSTRUMENT=Positive-Quattro_QQQ:40eV
FILENAME=hmdb_intermediate.mgf
SEQ=*..*
IONMODE=Positive
ORGANISM=HMDB
NAME=HMDB:HMDB00731-1031 Cysteine-S-sulfate M+H
PI=HMDB
DATACOLLECTOR=HMDB
SMILES=N[C@@H](CSS(O)(=O)=O)C(O)=O
INCHI=InChI=1S/C3H7NO5S2/c4-2(3(5)6)1-10-11(7,8)9/h2H,1,4H2,(H,5,6)(H,7,8,9)/t2-/m0/s1
INCHIAUX=N/A
PUBMED=N/A
SUBMITUSER=mwang87
TAGS=
LIBRARYQUALITY=3
SPECTRUMID=CCMSLIB00000426105
SCANS=1077
30.0 13.177 
48.0 10.544 
59.0 17.671 
74.0 100.0 
76.0 10.47 
120.0 5.63 
END IONS

BEGIN IONS
PEPMASS=181.071
CHARGE=1+
MSLEVEL=2
SOURCE_INSTRUMENT=Positive-Quattro_QQQ:25eV
FILENAME=hmdb_intermediate.mgf
SEQ=*..*
IONMODE=Positive
ORGANISM=HMDB
NAME=HMDB:HMDB01266-1499 L-Sorbose M+H
PI=HMDB
DATACOLLECTOR=HMDB
SMILES=OC[C@@]1(O)OC[C@H](O)[C@@H](O)[C@@H]1O
INCHI=InChI=1S/C6H12O6/c7-2-6(11)5(10)4(9)3(8)1-12-6/h3-5,7-11H,1-2H2/t3-,4+,5-,6+/m0/s1
INCHIAUX=N/A
PUBMED=N/A
SUBMITUSER=mwang87
TAGS=
LIBRARYQUALITY=3
SPECTRUMID=CCMSLIB00000426106
SCANS=1078
61.0 8.537 
73.0 50.876 
75.0 25.06 
85.0 100.0 
103.0 27.857 
105.0 10.85 
117.0 87.853 
149.0 17.787 
END IONS

BEGIN IONS
PEPMASS=581.187
CHARGE=1+
MSLEVEL=2
SOURCE_INSTRUMENT=Positive-Quattro_QQQ:10eV
FILENAME=hmdb_intermediate.mgf
SEQ=*..*
IONMODE=Positive
ORGANISM=HMDB
NAME=HMDB:HMDB02927-2169 Naringin M+H
PI=HMDB
DATACOLLECTOR=HMDB
SMILES=C[C@@H]1O[C@@H](O[C@@H]2[C@@H](O)[C@H](O)[C@@H](CO)O[C@H]2OC2=CC(O)=C3C(=O)C[C@H](OC3=C2)C2=CC=C(O)C=C2)[C@H](O)[C@H](O)[C@H]1O
INCHI=InChI=1S/C27H32O14/c1-10-20(32)22(34)24(36)26(37-10)41-25-23(35)21(33)18(9-28)40-27(25)38-13-6-14(30)19-15(31)8-16(39-17(19)7-13)11-2-4-12(29)5-3-11/h2-7,10,16,18,20-30,32-36H,8-9H2,1H3/t10-,16-,18+,20-,21+,22+,23-,24+,25+,26-,27+/m0/s1
INCHIAUX=N/A
PUBMED=N/A
SUBMITUSER=mwang87
TAGS=
LIBRARYQUALITY=3
SPECTRUMID=CCMSLIB00000426107
SCANS=1079
581.0 100.0 
END IONS

BEGIN IONS
PEPMASS=176.071
CHARGE=1+
MSLEVEL=2
SOURCE_INSTRUMENT=Positive-Quattro_QQQ:40eV
FILENAME=hmdb_intermediate.mgf
SEQ=*..*
IONMODE=Positive
ORGANISM=HMDB
NAME=HMDB:HMDB00197-321 Indoleacetic acid M+H
PI=HMDB
DATACOLLECTOR=HMDB
SMILES=OC(=O)CC1=CNC2=C1C=CC=C2
INCHI=InChI=1S/C10H9NO2/c12-10(13)5-7-6-11-9-4-2-1-3-8(7)9/h1-4,6,11H,5H2,(H,12,13)
INCHIAUX=N/A
PUBMED=N/A
SUBMITUSER=mwang87
TAGS=
LIBRARYQUALITY=3
SPECTRUMID=CCMSLIB00000426108
SCANS=1080
77.035 100.0 
89.992 9.812 
102.896 66.935 
116.901 8.199 
129.892 65.86 
END IONS

BEGIN IONS
PEPMASS=95.0167
CHARGE=1+
MSLEVEL=2
SOURCE_INSTRUMENT=Positive-Quattro_QQQ:40eV
FILENAME=hmdb_intermediate.mgf
SEQ=*..*
IONMODE=Positive
ORGANISM=HMDB
NAME=HMDB:HMDB04983-2423 Dimethyl sulfone M+H
PI=HMDB
DATACOLLECTOR=HMDB
SMILES=CS(C)(=O)=O
INCHI=InChI=1S/C2H6O2S/c1-5(2,3)4/h1-2H3
INCHIAUX=N/A
PUBMED=N/A
SUBMITUSER=mwang87
TAGS=
LIBRARYQUALITY=3
SPECTRUMID=CCMSLIB00000426109
SCANS=1081
63.0 29.051 
65.0 100.0 
80.0 3.535 
94.0 3.689 
95.0 7.431 
END IONS

BEGIN IONS
PEPMASS=103.124
CHARGE=1+
MSLEVEL=2
SOURCE_INSTRUMENT=Positive-Quattro_QQQ:10eV
FILENAME=hmdb_intermediate.mgf
SEQ=*..*
IONMODE=Positive
ORGANISM=HMDB
NAME=HMDB:HMDB02322-2055 Cadaverine M+H
PI=HMDB
DATACOLLECTOR=HMDB
SMILES=NCCCCCN
INCHI=InChI=1S/C5H14N2/c6-4-2-1-3-5-7/h1-7H2
INCHIAUX=N/A
PUBMED=N/A
SUBMITUSER=mwang87
TAGS=
LIBRARYQUALITY=3
SPECTRUMID=CCMSLIB00000426110
SCANS=1082
69.0 3.946 
86.0 100.0 
103.0 5.651 
END IONS

BEGIN IONS
PEPMASS=647.465
CHARGE=1+
MSLEVEL=2
SOURCE_INSTRUMENT=Negative-Quattro_QQQ:10eV
FILENAME=hmdb_intermediate.mgf
SEQ=*..*
IONMODE=Negative
ORGANISM=HMDB
NAME=HMDB:HMDB00674-933 PA(16:0/16:0) M-H
PI=HMDB
DATACOLLECTOR=HMDB
SMILES=CCCCCCCCCCCCCCCC(=O)OC[C@H](COP(O)(O)=O)OC(=O)CCCCCCCCCCCCCCC
INCHI=InChI=1S/C35H69O8P/c1-3-5-7-9-11-13-15-17-19-21-23-25-27-29-34(36)41-31-33(32-42-44(38,39)40)43-35(37)30-28-26-24-22-20-18-16-14-12-10-8-6-4-2/h33H,3-32H2,1-2H3,(H2,38,39,40)/t33-/m1/s1
INCHIAUX=N/A
PUBMED=N/A
SUBMITUSER=mwang87
TAGS=
LIBRARYQUALITY=3
SPECTRUMID=CCMSLIB00000426111
SCANS=1083
78.0 1.736 
152.0 3.54 
254.0 3.795 
255.0 11.262 
391.0 6.547 
409.0 2.37 
647.0 100.0 
END IONS

BEGIN IONS
PEPMASS=276.11
CHARGE=1+
MSLEVEL=2
SOURCE_INSTRUMENT=Positive-Quattro_QQQ:25eV
FILENAME=hmdb_intermediate.mgf
SEQ=*..*
IONMODE=Positive
ORGANISM=HMDB
NAME=HMDB:HMDB01786-1682 Ethenodeoxyadenosine M+H
PI=HMDB
DATACOLLECTOR=HMDB
SMILES=OC[C@H]1O[C@H](C[C@@H]1O)N1C=NC2=C1N=CN1C=CN=C21
INCHI=InChI=1S/C12H13N5O3/c18-4-8-7(19)3-9(20-8)17-6-14-10-11-13-1-2-16(11)5-15-12(10)17/h1-2,5-9,18-19H,3-4H2/t7-,8+,9+/m0/s1
INCHIAUX=N/A
PUBMED=N/A
SUBMITUSER=mwang87
TAGS=
LIBRARYQUALITY=3
SPECTRUMID=CCMSLIB00000426112
SCANS=1084
73.291 2.234 
99.19 1.707 
117.141 1.983 
160.038 100.0 
END IONS

BEGIN IONS
PEPMASS=89.0603
CHARGE=1+
MSLEVEL=2
SOURCE_INSTRUMENT=Positive-Quattro_QQQ:40eV
FILENAME=hmdb_intermediate.mgf
SEQ=*..*
IONMODE=Positive
ORGANISM=HMDB
NAME=HMDB:HMDB01873-1764 Isobutyric acid M+H
PI=HMDB
DATACOLLECTOR=HMDB
SMILES=CC(C)C(O)=O
INCHI=InChI=1S/C4H8O2/c1-3(2)4(5)6/h3H,1-2H3,(H,5,6)
INCHIAUX=N/A
PUBMED=N/A
SUBMITUSER=mwang87
TAGS=
LIBRARYQUALITY=3
SPECTRUMID=CCMSLIB00000426113
SCANS=1085
53.53 91.66 
72.923 27.579 
89.085 100.0 
98.782 23.726 
107.857 25.336 
116.809 28.53 
124.765 25.336 
END IONS

BEGIN IONS
PEPMASS=331.227
CHARGE=1+
MSLEVEL=2
SOURCE_INSTRUMENT=Positive-Quattro_QQQ:25eV
FILENAME=hmdb_intermediate.mgf
SEQ=*..*
IONMODE=Positive
ORGANISM=HMDB
NAME=HMDB:HMDB00374-589 17-Hydroxyprogesterone M+H
PI=HMDB
DATACOLLECTOR=HMDB
SMILES=[H][C@@]12CC[C@](O)(C(C)=O)[C@@]1(C)CC[C@@]1([H])[C@@]2([H])CCC2=CC(=O)CC[C@]12C
INCHI=InChI=1S/C21H30O3/c1-13(22)21(24)11-8-18-16-5-4-14-12-15(23)6-9-19(14,2)17(16)7-10-20(18,21)3/h12,16-18,24H,4-11H2,1-3H3/t16-,17+,18+,19+,20+,21+/m1/s1
INCHIAUX=N/A
PUBMED=N/A
SUBMITUSER=mwang87
TAGS=
LIBRARYQUALITY=3
SPECTRUMID=CCMSLIB00000426114
SCANS=1086
43.305 8.768 
83.085 6.902 
93.109 3.318 
97.09 100.0 
109.051 86.256 
123.033 9.479 
133.042 3.703 
137.016 3.732 
145.019 7.257 
163.024 9.123 
171.003 5.658 
175.017 6.546 
187.018 4.117 
199.106 3.732 
213.006 3.999 
252.872 5.835 
270.975 5.065 
295.125 3.021 
331.023 3.436 
END IONS

BEGIN IONS
PEPMASS=164.094
CHARGE=1+
MSLEVEL=2
SOURCE_INSTRUMENT=Positive-Quattro_QQQ:25eV
FILENAME=hmdb_intermediate.mgf
SEQ=*..*
IONMODE=Positive
ORGANISM=HMDB
NAME=HMDB:HMDB00473-690 6-Dimethylaminopurine M+H
PI=HMDB
DATACOLLECTOR=HMDB
SMILES=CN(C)C1=NC=NC2=C1NC=N2
INCHI=InChI=1S/C7H9N5/c1-12(2)7-5-6(9-3-8-5)10-4-11-7/h3-4H,1-2H3,(H,8,9,10,11)
INCHIAUX=N/A
PUBMED=N/A
SUBMITUSER=mwang87
TAGS=
LIBRARYQUALITY=3
SPECTRUMID=CCMSLIB00000426115
SCANS=1087
120.219 1.887 
148.937 2.279 
163.882 100.0 
END IONS

BEGIN IONS
PEPMASS=291.087
CHARGE=1+
MSLEVEL=2
SOURCE_INSTRUMENT=Positive-Quattro_QQQ:10eV
FILENAME=hmdb_intermediate.mgf
SEQ=*..*
IONMODE=Positive
ORGANISM=HMDB
NAME=HMDB:HMDB01871-1759 Epicatechin M+H
PI=HMDB
DATACOLLECTOR=HMDB
SMILES=O[C@@H]1CC2=C(O)C=C(O)C=C2O[C@@H]1C1=CC(O)=C(O)C=C1
INCHI=InChI=1S/C15H14O6/c16-8-4-11(18)9-6-13(20)15(21-14(9)5-8)7-1-2-10(17)12(19)3-7/h1-5,13,15-20H,6H2/t13-,15-/m1/s1
INCHIAUX=N/A
PUBMED=N/A
SUBMITUSER=mwang87
TAGS=
LIBRARYQUALITY=3
SPECTRUMID=CCMSLIB00000426116
SCANS=1088
76.074 14.046 
88.309 5.394 
188.302 100.0 
273.727 17.338 
291.284 82.316 
END IONS

BEGIN IONS
PEPMASS=303.196
CHARGE=1+
MSLEVEL=2
SOURCE_INSTRUMENT=Positive-Quattro_QQQ:10eV
FILENAME=hmdb_intermediate.mgf
SEQ=*..*
IONMODE=Positive
ORGANISM=HMDB
NAME=HMDB:HMDB00405-615 2-Methoxyestradiol M+H
PI=HMDB
DATACOLLECTOR=HMDB
SMILES=[H][C@@]12CC[C@H](O)[C@@]1(C)CC[C@]1([H])C3=C(CC[C@@]21[H])C=C(O)C(OC)=C3
INCHI=InChI=1S/C19H26O3/c1-19-8-7-12-13(15(19)5-6-18(19)21)4-3-11-9-16(20)17(22-2)10-14(11)12/h9-10,12-13,15,18,20-21H,3-8H2,1-2H3/t12-,13+,15-,18-,19-/m0/s1
INCHIAUX=N/A
PUBMED=N/A
SUBMITUSER=mwang87
TAGS=
LIBRARYQUALITY=3
SPECTRUMID=CCMSLIB00000426117
SCANS=1089
151.0 100.0 
224.0 1.665 
END IONS

BEGIN IONS
PEPMASS=179.056
CHARGE=1+
MSLEVEL=2
SOURCE_INSTRUMENT=Negative-Quattro_QQQ:10eV
FILENAME=hmdb_intermediate.mgf
SEQ=*..*
IONMODE=Negative
ORGANISM=HMDB
NAME=HMDB:HMDB01151-1436 Allose M-H
PI=HMDB
DATACOLLECTOR=HMDB
SMILES=[H][C@@]1(CO)OC(O)[C@@]([H])(O)[C@@]([H])(O)[C@@]1([H])O
INCHI=InChI=1S/C6H12O6/c7-1-2-3(8)4(9)5(10)6(11)12-2/h2-11H,1H2/t2-,3-,4-,5-,6?/m0/s1
INCHIAUX=N/A
PUBMED=N/A
SUBMITUSER=mwang87
TAGS=
LIBRARYQUALITY=3
SPECTRUMID=CCMSLIB00000426118
SCANS=1090
59.0 49.129 
71.0 17.691 
89.0 100.0 
101.0 12.715 
113.0 6.328 
119.0 52.873 
179.0 3.163 
END IONS

BEGIN IONS
PEPMASS=235.108
CHARGE=1+
MSLEVEL=2
SOURCE_INSTRUMENT=Positive-Quattro_QQQ:10eV
FILENAME=hmdb_intermediate.mgf
SEQ=*..*
IONMODE=Positive
ORGANISM=HMDB
NAME=HMDB:HMDB02339-2064 5-Methoxytryptophan M+H
PI=HMDB
DATACOLLECTOR=HMDB
SMILES=COC1=CC2=C(NC=C2C[C@H](N)C(O)=O)C=C1
INCHI=InChI=1S/C12H14N2O3/c1-17-8-2-3-11-9(5-8)7(6-14-11)4-10(13)12(15)16/h2-3,5-6,10,14H,4,13H2,1H3,(H,15,16)/t10-/m0/s1
INCHIAUX=N/A
PUBMED=N/A
SUBMITUSER=mwang87
TAGS=
LIBRARYQUALITY=3
SPECTRUMID=CCMSLIB00000426119
SCANS=1091
147.0 1.509 
173.0 1.978 
175.0 6.94 
199.0 1.532 
217.0 100.0 
234.0 5.491 
235.0 2.393 
END IONS

BEGIN IONS
PEPMASS=151.04
CHARGE=1+
MSLEVEL=2
SOURCE_INSTRUMENT=Negative-Quattro_QQQ:40eV
FILENAME=hmdb_intermediate.mgf
SEQ=*..*
IONMODE=Negative
ORGANISM=HMDB
NAME=HMDB:HMDB00703-983 Mandelic acid M-H
PI=HMDB
DATACOLLECTOR=HMDB
SMILES=O[C@H](C(O)=O)C1=CC=CC=C1
INCHI=InChI=1S/C8H8O3/c9-7(8(10)11)6-4-2-1-3-5-6/h1-5,7,9H,(H,10,11)/t7-/m0/s1
INCHIAUX=N/A
PUBMED=N/A
SUBMITUSER=mwang87
TAGS=
LIBRARYQUALITY=3
SPECTRUMID=CCMSLIB00000426120
SCANS=1092
45.248 5.461 
77.051 29.49 
106.939 46.602 
150.962 100.0 
END IONS

BEGIN IONS
PEPMASS=177.051
CHARGE=1+
MSLEVEL=2
SOURCE_INSTRUMENT=Positive-Quattro_QQQ:25eV
FILENAME=hmdb_intermediate.mgf
SEQ=*..*
IONMODE=Positive
ORGANISM=HMDB
NAME=HMDB:HMDB00828-1179 Ureidosuccinic acid M+H
PI=HMDB
DATACOLLECTOR=HMDB
SMILES=NC(=O)N[C@@H](CC(O)=O)C(O)=O
INCHI=InChI=1S/C5H8N2O5/c6-5(12)7-2(4(10)11)1-3(8)9/h2H,1H2,(H,8,9)(H,10,11)(H3,6,7,12)/t2-/m0/s1
INCHIAUX=N/A
PUBMED=N/A
SUBMITUSER=mwang87
TAGS=
LIBRARYQUALITY=3
SPECTRUMID=CCMSLIB00000426121
SCANS=1093
43.271 11.879 
46.245 12.943 
74.038 100.0 
87.994 39.539 
115.894 3.413 
END IONS

BEGIN IONS
PEPMASS=90.0555
CHARGE=1+
MSLEVEL=2
SOURCE_INSTRUMENT=Positive-Quattro_QQQ:25eV
FILENAME=hmdb_intermediate.mgf
SEQ=*..*
IONMODE=Positive
ORGANISM=HMDB
NAME=HMDB:HMDB00271-473 Sarcosine M+H
PI=HMDB
DATACOLLECTOR=HMDB
SMILES=CNCC(O)=O
INCHI=InChI=1S/C3H7NO2/c1-4-2-3(5)6/h4H,2H2,1H3,(H,5,6)
INCHIAUX=N/A
PUBMED=N/A
SUBMITUSER=mwang87
TAGS=
LIBRARYQUALITY=3
SPECTRUMID=CCMSLIB00000426122
SCANS=1094
44.263 100.0 
90.384 3.299 
END IONS

BEGIN IONS
PEPMASS=288.217
CHARGE=1+
MSLEVEL=2
SOURCE_INSTRUMENT=Positive-Quattro_QQQ:25eV
FILENAME=hmdb_intermediate.mgf
SEQ=*..*
IONMODE=Positive
ORGANISM=HMDB
NAME=HMDB:HMDB00791-1127 L-Octanoylcarnitine M+H
PI=HMDB
DATACOLLECTOR=HMDB
SMILES=CCCCCCCC(=O)O[C@H](CC([O-])=O)C[N+](C)(C)C
INCHI=InChI=1S/C15H29NO4/c1-5-6-7-8-9-10-15(19)20-13(11-14(17)18)12-16(2,3)4/h13H,5-12H2,1-4H3/t13-/m1/s1
INCHIAUX=N/A
PUBMED=N/A
SUBMITUSER=mwang87
TAGS=
LIBRARYQUALITY=3
SPECTRUMID=CCMSLIB00000426123
SCANS=1095
57.494 22.549 
85.197 100.0 
127.213 3.113 
144.203 4.853 
END IONS

BEGIN IONS
PEPMASS=240.11
CHARGE=1+
MSLEVEL=2
SOURCE_INSTRUMENT=Positive-Quattro_QQQ:40eV
FILENAME=hmdb_intermediate.mgf
SEQ=*..*
IONMODE=Positive
ORGANISM=HMDB
NAME=HMDB:HMDB00038-65 Dihydrobiopterin M+H
PI=HMDB
DATACOLLECTOR=HMDB
SMILES=CC(O)C(O)C1=NC2=C(NC1)N=C(N)NC2=O
INCHI=InChI=1S/C9H13N5O3/c1-3(15)6(16)4-2-11-7-5(12-4)8(17)14-9(10)13-7/h3,6,15-16H,2H2,1H3,(H4,10,11,13,14,17)
INCHIAUX=N/A
PUBMED=N/A
SUBMITUSER=mwang87
TAGS=
LIBRARYQUALITY=3
SPECTRUMID=CCMSLIB00000426124
SCANS=1096
64.0 25.148 
65.0 100.0 
81.0 50.97 
91.0 46.267 
95.0 25.967 
108.0 17.656 
118.0 42.802 
132.0 23.904 
148.0 26.116 
END IONS

BEGIN IONS
PEPMASS=397.347
CHARGE=1+
MSLEVEL=2
SOURCE_INSTRUMENT=Positive-Quattro_QQQ:25eV
FILENAME=hmdb_intermediate.mgf
SEQ=*..*
IONMODE=Positive
ORGANISM=HMDB
NAME=HMDB:HMDB00900-1278 Ergocalciferol M+H
PI=HMDB
DATACOLLECTOR=HMDB
SMILES=CC(C)[C@@H](C)\C=C\[C@@H](C)[C@H]1CC[C@@]2([H])\C(CCC[C@]12C)=C\C=C1\C[C@@H](O)CCC1=C
INCHI=InChI=1S/C28H44O/c1-19(2)20(3)9-10-22(5)26-15-16-27-23(8-7-17-28(26,27)6)12-13-24-18-25(29)14-11-21(24)4/h9-10,12-13,19-20,22,25-27,29H,4,7-8,11,14-18H2,1-3,5-6H3/b10-9+,23-12+,24-13-/t20-,22+,25-,26+,27-,28+/m0/s1
INCHIAUX=N/A
PUBMED=N/A
SUBMITUSER=mwang87
TAGS=
LIBRARYQUALITY=3
SPECTRUMID=CCMSLIB00000426125
SCANS=1097
68.0 81.108 
80.0 64.012 
124.0 72.577 
158.0 100.0 
396.0 74.997 
END IONS

BEGIN IONS
PEPMASS=167.034
CHARGE=1+
MSLEVEL=2
SOURCE_INSTRUMENT=Negative-Quattro_QQQ:40eV
FILENAME=hmdb_intermediate.mgf
SEQ=*..*
IONMODE=Negative
ORGANISM=HMDB
NAME=HMDB:HMDB00484-703 Vanillic acid M-H
PI=HMDB
DATACOLLECTOR=HMDB
SMILES=COC1=CC(=CC=C1O)C(O)=O
INCHI=InChI=1S/C8H8O4/c1-12-7-4-5(8(10)11)2-3-6(7)9/h2-4,9H,1H3,(H,10,11)
INCHIAUX=N/A
PUBMED=N/A
SUBMITUSER=mwang87
TAGS=
LIBRARYQUALITY=3
SPECTRUMID=CCMSLIB00000426126
SCANS=1098
107.921 100.0 
152.023 1.784 
167.025 2.321 
END IONS

BEGIN IONS
PEPMASS=260.054
CHARGE=1+
MSLEVEL=2
SOURCE_INSTRUMENT=Positive-Quattro_QQQ:25eV
FILENAME=hmdb_intermediate.mgf
SEQ=*..*
IONMODE=Positive
ORGANISM=HMDB
NAME=HMDB:HMDB01254-1485 Glucosamine 6-phosphate M+H
PI=HMDB
DATACOLLECTOR=HMDB
SMILES=N[C@H]1[C@@H](O)O[C@H](COP(O)(O)=O)[C@@H](O)[C@@H]1O
INCHI=InChI=1S/C6H14NO8P/c7-3-5(9)4(8)2(15-6(3)10)1-14-16(11,12)13/h2-6,8-10H,1,7H2,(H2,11,12,13)/t2-,3-,4-,5-,6+/m1/s1
INCHIAUX=N/A
PUBMED=N/A
SUBMITUSER=mwang87
TAGS=
LIBRARYQUALITY=3
SPECTRUMID=CCMSLIB00000426127
SCANS=1099
70.0 17.238 
84.0 100.0 
98.0 61.098 
108.0 83.1 
126.0 67.32 
144.0 15.512 
END IONS

BEGIN IONS
PEPMASS=133.061
CHARGE=1+
MSLEVEL=2
SOURCE_INSTRUMENT=Positive-Quattro_QQQ:40eV
FILENAME=hmdb_intermediate.mgf
SEQ=*..*
IONMODE=Positive
ORGANISM=HMDB
NAME=HMDB:HMDB00026-47 Ureidopropionic acid M+H
PI=HMDB
DATACOLLECTOR=HMDB
SMILES=NC(=O)NCCC(O)=O
INCHI=InChI=1S/C4H8N2O3/c5-4(9)6-2-1-3(7)8/h1-2H2,(H,7,8)(H3,5,6,9)
INCHIAUX=N/A
PUBMED=N/A
SUBMITUSER=mwang87
TAGS=
LIBRARYQUALITY=3
SPECTRUMID=CCMSLIB00000426128
SCANS=1100
44.148 100.0 
45.381 35.39 
55.203 64.935 
72.246 51.948 
90.149 18.994 
115.188 12.013 
133.053 41.883 
END IONS

BEGIN IONS
PEPMASS=136.043
CHARGE=1+
MSLEVEL=2
SOURCE_INSTRUMENT=Positive-Quattro_QQQ:40eV
FILENAME=hmdb_intermediate.mgf
SEQ=*..*
IONMODE=Positive
ORGANISM=HMDB
NAME=HMDB:HMDB00742-1055 Homocysteine M+H
PI=HMDB
DATACOLLECTOR=HMDB
SMILES=NC(CCS)C(O)=O
INCHI=InChI=1S/C4H9NO2S/c5-3(1-2-8)4(6)7/h3,8H,1-2,5H2,(H,6,7)
INCHIAUX=N/A
PUBMED=N/A
SUBMITUSER=mwang87
TAGS=
LIBRARYQUALITY=3
SPECTRUMID=CCMSLIB00000426129
SCANS=1101
44.296 38.929 
47.216 100.0 
56.21 87.857 
73.121 16.875 
89.915 31.071 
135.888 16.518 
END IONS

BEGIN IONS
PEPMASS=166.087
CHARGE=1+
MSLEVEL=2
SOURCE_INSTRUMENT=Positive-Quattro_QQQ:40eV
FILENAME=hmdb_intermediate.mgf
SEQ=*..*
IONMODE=Positive
ORGANISM=HMDB
NAME=HMDB:HMDB00159-250 L-Phenylalanine M+H
PI=HMDB
DATACOLLECTOR=HMDB
SMILES=N[C@@H](CC1=CC=CC=C1)C(O)=O
INCHI=InChI=1S/C9H11NO2/c10-8(9(11)12)6-7-4-2-1-3-5-7/h1-5,8H,6,10H2,(H,11,12)/t8-/m0/s1
INCHIAUX=N/A
PUBMED=N/A
SUBMITUSER=mwang87
TAGS=
LIBRARYQUALITY=3
SPECTRUMID=CCMSLIB00000426130
SCANS=1102
51.235 3.859 
77.077 100.0 
91.049 21.721 
102.954 43.169 
119.94 12.158 
END IONS

BEGIN IONS
PEPMASS=253.094
CHARGE=1+
MSLEVEL=2
SOURCE_INSTRUMENT=Positive-Quattro_QQQ:10eV
FILENAME=hmdb_intermediate.mgf
SEQ=*..*
IONMODE=Positive
ORGANISM=HMDB
NAME=HMDB:HMDB00071-114 Deoxyinosine M+H
PI=HMDB
DATACOLLECTOR=HMDB
SMILES=OC[C@H]1O[C@H](C[C@@H]1O)N1C=NC2=C1N=CN=C2O
INCHI=InChI=1S/C10H12N4O4/c15-2-6-5(16)1-7(18-6)14-4-13-8-9(14)11-3-12-10(8)17/h3-7,15-16H,1-2H2,(H,11,12,17)/t5-,6+,7+/m0/s1
INCHIAUX=N/A
PUBMED=N/A
SUBMITUSER=mwang87
TAGS=
LIBRARYQUALITY=3
SPECTRUMID=CCMSLIB00000426131
SCANS=1103
117.192 2.294 
137.128 100.0 
253.051 1.152 
END IONS

BEGIN IONS
PEPMASS=508.988
CHARGE=1+
MSLEVEL=2
SOURCE_INSTRUMENT=Positive-Quattro_QQQ:10eV
FILENAME=hmdb_intermediate.mgf
SEQ=*..*
IONMODE=Positive
ORGANISM=HMDB
NAME=HMDB:HMDB00189-298 Inosine triphosphate M+H
PI=HMDB
DATACOLLECTOR=HMDB
SMILES=O[C@@H]1[C@@H](COP(O)(=O)OP(O)(=O)OP(O)(O)=O)O[C@H]([C@@H]1O)N1C=NC2=C1N=CN=C2O
INCHI=InChI=1S/C10H15N4O14P3/c15-6-4(1-25-30(21,22)28-31(23,24)27-29(18,19)20)26-10(7(6)16)14-3-13-5-8(14)11-2-12-9(5)17/h2-4,6-7,10,15-16H,1H2,(H,21,22)(H,23,24)(H,11,12,17)(H2,18,19,20)/t4-,6-,7-,10-/m1/s1
INCHIAUX=N/A
PUBMED=N/A
SUBMITUSER=mwang87
TAGS=
LIBRARYQUALITY=3
SPECTRUMID=CCMSLIB00000426132
SCANS=1104
97.0 11.943 
137.0 64.904 
233.0 16.995 
509.0 100.0 
END IONS

BEGIN IONS
PEPMASS=130.087
CHARGE=1+
MSLEVEL=2
SOURCE_INSTRUMENT=Positive-Quattro_QQQ:40eV
FILENAME=hmdb_intermediate.mgf
SEQ=*..*
IONMODE=Positive
ORGANISM=HMDB
NAME=HMDB:HMDB00070-113 Pipecolic acid M+H
PI=HMDB
DATACOLLECTOR=HMDB
SMILES=OC(=O)C1CCCCN1
INCHI=InChI=1S/C6H11NO2/c8-6(9)5-3-1-2-4-7-5/h5,7H,1-4H2,(H,8,9)
INCHIAUX=N/A
PUBMED=N/A
SUBMITUSER=mwang87
TAGS=
LIBRARYQUALITY=3
SPECTRUMID=CCMSLIB00000426133
SCANS=1105
41.323 6.437 
56.017 100.0 
68.988 6.343 
83.989 58.209 
129.849 7.09 
END IONS

BEGIN IONS
PEPMASS=195.066
CHARGE=1+
MSLEVEL=2
SOURCE_INSTRUMENT=Positive-Quattro_QQQ:10eV
FILENAME=hmdb_intermediate.mgf
SEQ=*..*
IONMODE=Positive
ORGANISM=HMDB
NAME=HMDB:HMDB00954-1348 trans-Ferulic acid M+H
PI=HMDB
DATACOLLECTOR=HMDB
SMILES=COC1=C(O)C=CC(\C=C\C(O)=O)=C1
INCHI=InChI=1S/C10H10O4/c1-14-9-6-7(2-4-8(9)11)3-5-10(12)13/h2-6,11H,1H3,(H,12,13)/b5-3+
INCHIAUX=N/A
PUBMED=N/A
SUBMITUSER=mwang87
TAGS=
LIBRARYQUALITY=3
SPECTRUMID=CCMSLIB00000426134
SCANS=1106
144.0 29.346 
152.0 14.893 
176.0 100.0 
194.0 11.584 
END IONS

BEGIN IONS
PEPMASS=129.019
CHARGE=1+
MSLEVEL=2
SOURCE_INSTRUMENT=Negative-Quattro_QQQ:25eV
FILENAME=hmdb_intermediate.mgf
SEQ=*..*
IONMODE=Negative
ORGANISM=HMDB
NAME=HMDB:HMDB00620-838 Glutaconic acid M-H
PI=HMDB
DATACOLLECTOR=HMDB
SMILES=OC(=O)C\C=C\C(O)=O
INCHI=InChI=1S/C5H6O4/c6-4(7)2-1-3-5(8)9/h1-2H,3H2,(H,6,7)(H,8,9)/b2-1+
INCHIAUX=N/A
PUBMED=N/A
SUBMITUSER=mwang87
TAGS=
LIBRARYQUALITY=3
SPECTRUMID=CCMSLIB00000426135
SCANS=1107
41.301 100.0 
67.101 5.347 
85.005 51.445 
129.1 5.997 
END IONS

BEGIN IONS
PEPMASS=162.055
CHARGE=1+
MSLEVEL=2
SOURCE_INSTRUMENT=Positive-Quattro_QQQ:25eV
FILENAME=hmdb_intermediate.mgf
SEQ=*..*
IONMODE=Positive
ORGANISM=HMDB
NAME=HMDB:HMDB03320-2243 Indole-3-carboxylic acid M+H
PI=HMDB
DATACOLLECTOR=HMDB
SMILES=OC(=O)C1=CNC2=CC=CC=C12
INCHI=InChI=1S/C9H7NO2/c11-9(12)7-5-10-8-4-2-1-3-6(7)8/h1-5,10H,(H,11,12)
INCHIAUX=N/A
PUBMED=N/A
SUBMITUSER=mwang87
TAGS=
LIBRARYQUALITY=3
SPECTRUMID=CCMSLIB00000426136
SCANS=1108
76.0 20.887 
90.0 100.0 
104.0 36.272 
105.0 25.791 
118.0 76.145 
128.0 20.819 
146.0 18.505 
END IONS

BEGIN IONS
PEPMASS=168.99
CHARGE=1+
MSLEVEL=2
SOURCE_INSTRUMENT=Positive-Quattro_QQQ:25eV
FILENAME=hmdb_intermediate.mgf
SEQ=*..*
IONMODE=Positive
ORGANISM=HMDB
NAME=HMDB:HMDB00263-458 Phosphoenolpyruvic acid M+H
PI=HMDB
DATACOLLECTOR=HMDB
SMILES=OC(=O)C(=C)OP(O)(O)=O
INCHI=InChI=1S/C3H5O6P/c1-2(3(4)5)9-10(6,7)8/h1H2,(H,4,5)(H2,6,7,8)
INCHIAUX=N/A
PUBMED=N/A
SUBMITUSER=mwang87
TAGS=
LIBRARYQUALITY=3
SPECTRUMID=CCMSLIB00000426137
SCANS=1109
43.0 93.496 
59.0 52.197 
81.0 100.0 
90.0 48.697 
98.0 58.302 
105.0 23.298 
123.0 24.339 
137.0 8.688 
151.0 15.317 
169.0 9.978 
END IONS

BEGIN IONS
PEPMASS=205.098
CHARGE=1+
MSLEVEL=2
SOURCE_INSTRUMENT=Positive-Quattro_QQQ:10eV
FILENAME=hmdb_intermediate.mgf
SEQ=*..*
IONMODE=Positive
ORGANISM=HMDB
NAME=HMDB:HMDB00929-1321 L-Tryptophan M+H
PI=HMDB
DATACOLLECTOR=HMDB
SMILES=N[C@@H](CC1=CNC2=CC=CC=C12)C(O)=O
INCHI=InChI=1S/C11H12N2O2/c12-9(11(14)15)5-7-6-13-10-4-2-1-3-8(7)10/h1-4,6,9,13H,5,12H2,(H,14,15)/t9-/m0/s1
INCHIAUX=N/A
PUBMED=N/A
SUBMITUSER=mwang87
TAGS=
LIBRARYQUALITY=3
SPECTRUMID=CCMSLIB00000426138
SCANS=1110
117.908 2.402 
131.961 1.887 
143.914 4.118 
145.929 25.882 
158.96 4.926 
187.876 100.0 
204.892 17.059 
END IONS

BEGIN IONS
PEPMASS=333.243
CHARGE=1+
MSLEVEL=2
SOURCE_INSTRUMENT=Positive-Quattro_QQQ:40eV
FILENAME=hmdb_intermediate.mgf
SEQ=*..*
IONMODE=Positive
ORGANISM=HMDB
NAME=HMDB:HMDB00363-578 17a-Hydroxypregnenolone M+H
PI=HMDB
DATACOLLECTOR=HMDB
SMILES=[H][C@@]12CC[C@](O)(C(C)=O)[C@@]1(C)CC[C@@]1([H])[C@@]2([H])CC=C2C[C@@H](O)CC[C@]12C
INCHI=InChI=1S/C21H32O3/c1-13(22)21(24)11-8-18-16-5-4-14-12-15(23)6-9-19(14,2)17(16)7-10-20(18,21)3/h4,15-18,23-24H,5-12H2,1-3H3/t15-,16+,17-,18-,19-,20-,21-/m0/s1
INCHIAUX=N/A
PUBMED=N/A
SUBMITUSER=mwang87
TAGS=
LIBRARYQUALITY=3
SPECTRUMID=CCMSLIB00000426139
SCANS=1111
168.0 100.0 
END IONS

BEGIN IONS
PEPMASS=184.097
CHARGE=1+
MSLEVEL=2
SOURCE_INSTRUMENT=Positive-Quattro_QQQ:25eV
FILENAME=hmdb_intermediate.mgf
SEQ=*..*
IONMODE=Positive
ORGANISM=HMDB
NAME=HMDB:HMDB00068-109 Epinephrine M+H
PI=HMDB
DATACOLLECTOR=HMDB
SMILES=CNC[C@H](O)C1=CC=C(O)C(O)=C1
INCHI=InChI=1S/C9H13NO3/c1-10-5-9(13)6-2-3-7(11)8(12)4-6/h2-4,9-13H,5H2,1H3/t9-/m0/s1
INCHIAUX=N/A
PUBMED=N/A
SUBMITUSER=mwang87
TAGS=
LIBRARYQUALITY=3
SPECTRUMID=CCMSLIB00000426140
SCANS=1112
42.366 20.205 
57.21 55.822 
79.143 25.0 
91.101 15.411 
107.01 100.0 
119.821 39.726 
133.015 12.414 
134.826 16.695 
150.917 39.726 
165.831 27.055 
END IONS

BEGIN IONS
PEPMASS=299.123
CHARGE=1+
MSLEVEL=2
SOURCE_INSTRUMENT=Positive-Quattro_QQQ:10eV
FILENAME=hmdb_intermediate.mgf
SEQ=*..*
IONMODE=Positive
ORGANISM=HMDB
NAME=HMDB:HMDB01107-1424 7-Methylguanosine M+H
PI=HMDB
DATACOLLECTOR=HMDB
SMILES=CN1C=[N+]([C@@H]2O[C@H](CO)[C@@H](O)[C@H]2O)C2=C1C(=O)N=C(N)N2
INCHI=InChI=1S/C11H15N5O5/c1-15-3-16(8-5(15)9(20)14-11(12)13-8)10-7(19)6(18)4(2-17)21-10/h3-4,6-7,10,17-19H,2H2,1H3,(H2-,12,13,14,20)/p+1/t4-,6-,7-,10-/m1/s1
INCHIAUX=N/A
PUBMED=N/A
SUBMITUSER=mwang87
TAGS=
LIBRARYQUALITY=3
SPECTRUMID=CCMSLIB00000426141
SCANS=1113
148.999 1.072 
165.981 100.0 
298.068 23.824 
END IONS

BEGIN IONS
PEPMASS=157.014
CHARGE=1+
MSLEVEL=2
SOURCE_INSTRUMENT=Positive-Quattro_QQQ:10eV
FILENAME=hmdb_intermediate.mgf
SEQ=*..*
IONMODE=Positive
ORGANISM=HMDB
NAME=HMDB:HMDB04812-2403 2,5-Furandicarboxylic acid M+H
PI=HMDB
DATACOLLECTOR=HMDB
SMILES=OC(=O)C1=CC=C(O1)C(O)=O
INCHI=InChI=1S/C6H4O5/c7-5(8)3-1-2-4(11-3)6(9)10/h1-2H,(H,7,8)(H,9,10)
INCHIAUX=N/A
PUBMED=N/A
SUBMITUSER=mwang87
TAGS=
LIBRARYQUALITY=3
SPECTRUMID=CCMSLIB00000426142
SCANS=1114
138.55 100.0 
157.1 45.114 
END IONS

BEGIN IONS
PEPMASS=177.103
CHARGE=1+
MSLEVEL=2
SOURCE_INSTRUMENT=Positive-Quattro_QQQ:40eV
FILENAME=hmdb_intermediate.mgf
SEQ=*..*
IONMODE=Positive
ORGANISM=HMDB
NAME=HMDB:HMDB01046-1399 Cotinine M+H
PI=HMDB
DATACOLLECTOR=HMDB
SMILES=CN1C(CCC1=O)C1=CN=CC=C1
INCHI=InChI=1S/C10H12N2O/c1-12-9(4-5-10(12)13)8-3-2-6-11-7-8/h2-3,6-7,9H,4-5H2,1H3
INCHIAUX=N/A
PUBMED=N/A
SUBMITUSER=mwang87
TAGS=
LIBRARYQUALITY=3
SPECTRUMID=CCMSLIB00000426143
SCANS=1115
42.0 18.055 
53.0 16.995 
70.0 18.044 
80.0 100.0 
98.0 16.268 
END IONS

BEGIN IONS
PEPMASS=131.034
CHARGE=1+
MSLEVEL=2
SOURCE_INSTRUMENT=Positive-Quattro_QQQ:40eV
FILENAME=hmdb_intermediate.mgf
SEQ=*..*
IONMODE=Positive
ORGANISM=HMDB
NAME=HMDB:HMDB00749-1070 Mesaconic acid M+H
PI=HMDB
DATACOLLECTOR=HMDB
SMILES=C\C(=C/C(O)=O)C(O)=O
INCHI=InChI=1S/C5H6O4/c1-3(5(8)9)2-4(6)7/h2H,1H3,(H,6,7)(H,8,9)/b3-2+
INCHIAUX=N/A
PUBMED=N/A
SUBMITUSER=mwang87
TAGS=
LIBRARYQUALITY=3
SPECTRUMID=CCMSLIB00000426144
SCANS=1116
63.0 79.816 
67.0 84.059 
81.0 100.0 
85.0 90.503 
99.0 68.127 
131.0 69.489 
END IONS

BEGIN IONS
PEPMASS=245.234
CHARGE=1+
MSLEVEL=2
SOURCE_INSTRUMENT=Positive-Quattro_QQQ:40eV
FILENAME=hmdb_intermediate.mgf
SEQ=*..*
IONMODE=Positive
ORGANISM=HMDB
NAME=HMDB:HMDB01186-1456 N1-Acetylspermine M+H
PI=HMDB
DATACOLLECTOR=HMDB
SMILES=CC(=O)NCCCNCCCCNCCCN
INCHI=InChI=1S/C12H28N4O/c1-12(17)16-11-5-10-15-8-3-2-7-14-9-4-6-13/h14-15H,2-11,13H2,1H3,(H,16,17)
INCHIAUX=N/A
PUBMED=N/A
SUBMITUSER=mwang87
TAGS=
LIBRARYQUALITY=3
SPECTRUMID=CCMSLIB00000426145
SCANS=1117
57.0 17.075 
71.0 39.479 
83.0 100.0 
99.0 20.204 
111.0 17.732 
END IONS

BEGIN IONS
PEPMASS=112.087
CHARGE=1+
MSLEVEL=2
SOURCE_INSTRUMENT=Positive-Quattro_QQQ:25eV
FILENAME=hmdb_intermediate.mgf
SEQ=*..*
IONMODE=Positive
ORGANISM=HMDB
NAME=HMDB:HMDB60263-1224 Histamium M+H
PI=HMDB
DATACOLLECTOR=HMDB
SMILES=NCCC1=CN=CN1
INCHI=InChI=1S/C5H9N3/c6-2-1-5-3-7-4-8-5/h3-4H,1-2,6H2,(H,7,8)
INCHIAUX=N/A
PUBMED=N/A
SUBMITUSER=mwang87
TAGS=
LIBRARYQUALITY=3
SPECTRUMID=CCMSLIB00000426146
SCANS=1118
41.332 57.872 
68.041 97.872 
81.853 27.66 
94.993 100.0 
111.881 12.128 
END IONS

BEGIN IONS
PEPMASS=349.055
CHARGE=1+
MSLEVEL=2
SOURCE_INSTRUMENT=Positive-Quattro_QQQ:10eV
FILENAME=hmdb_intermediate.mgf
SEQ=*..*
IONMODE=Positive
ORGANISM=HMDB
NAME=HMDB:HMDB00175-277 Inosinic acid M+H
PI=HMDB
DATACOLLECTOR=HMDB
SMILES=O[C@@H]1[C@@H](COP(O)(O)=O)O[C@H]([C@@H]1O)N1C=NC2=C1N=CNC2=O
INCHI=InChI=1S/C10H13N4O8P/c15-6-4(1-21-23(18,19)20)22-10(7(6)16)14-3-13-5-8(14)11-2-12-9(5)17/h2-4,6-7,10,15-16H,1H2,(H,11,12,17)(H2,18,19,20)/t4-,6-,7-,10-/m1/s1
INCHIAUX=N/A
PUBMED=N/A
SUBMITUSER=mwang87
TAGS=
LIBRARYQUALITY=3
SPECTRUMID=CCMSLIB00000426147
SCANS=1119
137.357 100.0 
END IONS

BEGIN IONS
PEPMASS=170.093
CHARGE=1+
MSLEVEL=2
SOURCE_INSTRUMENT=Positive-Quattro_QQQ:25eV
FILENAME=hmdb_intermediate.mgf
SEQ=*..*
IONMODE=Positive
ORGANISM=HMDB
NAME=HMDB:HMDB00001-2 1-Methylhistidine M+H
PI=HMDB
DATACOLLECTOR=HMDB
SMILES=CN1C=NC(C[C@H](N)C(O)=O)=C1
INCHI=InChI=1S/C7H11N3O2/c1-10-3-5(9-4-10)2-6(8)7(11)12/h3-4,6H,2,8H2,1H3,(H,11,12)/t6-/m0/s1
INCHIAUX=N/A
PUBMED=N/A
SUBMITUSER=mwang87
TAGS=
LIBRARYQUALITY=3
SPECTRUMID=CCMSLIB00000426148
SCANS=1120
83.1 6.6850282585 
96.12 4.3812986792 
109.14 16.7082567782 
124.08 100.0 
125.1 4.5651408768 
170.16 40.6434125315 
END IONS

BEGIN IONS
PEPMASS=332.076
CHARGE=1+
MSLEVEL=2
SOURCE_INSTRUMENT=Positive-Quattro_QQQ:25eV
FILENAME=hmdb_intermediate.mgf
SEQ=*..*
IONMODE=Positive
ORGANISM=HMDB
NAME=HMDB:HMDB00905-1290 Deoxyadenosine monophosphate M+H
PI=HMDB
DATACOLLECTOR=HMDB
SMILES=NC1=NC=NC2=C1N=CN2[C@H]1C[C@H](O)[C@@H](COP(O)(O)=O)O1
INCHI=InChI=1S/C10H14N5O6P/c11-9-8-10(13-3-12-9)15(4-14-8)7-1-5(16)6(21-7)2-20-22(17,18)19/h3-7,16H,1-2H2,(H2,11,12,13)(H2,17,18,19)/t5-,6+,7+/m0/s1
INCHIAUX=N/A
PUBMED=N/A
SUBMITUSER=mwang87
TAGS=
LIBRARYQUALITY=3
SPECTRUMID=CCMSLIB00000426149
SCANS=1121
81.0 100.0 
274.0 19.622 
END IONS

BEGIN IONS
PEPMASS=153.055
CHARGE=1+
MSLEVEL=2
SOURCE_INSTRUMENT=Positive-Quattro_QQQ:25eV
FILENAME=hmdb_intermediate.mgf
SEQ=*..*
IONMODE=Positive
ORGANISM=HMDB
NAME=HMDB:HMDB02390-2093 3-Cresotinic acid M+H
PI=HMDB
DATACOLLECTOR=HMDB
SMILES=CC1=C(O)C(=CC=C1)C(O)=O
INCHI=InChI=1S/C8H8O3/c1-5-3-2-4-6(7(5)9)8(10)11/h2-4,9H,1H3,(H,10,11)
INCHIAUX=N/A
PUBMED=N/A
SUBMITUSER=mwang87
TAGS=
LIBRARYQUALITY=3
SPECTRUMID=CCMSLIB00000426150
SCANS=1122
77.0 100.0 
107.0 14.789 
134.0 3.148 
135.0 30.711 
END IONS

BEGIN IONS
PEPMASS=137.024
CHARGE=1+
MSLEVEL=2
SOURCE_INSTRUMENT=Negative-Quattro_QQQ:40eV
FILENAME=hmdb_intermediate.mgf
SEQ=*..*
IONMODE=Negative
ORGANISM=HMDB
NAME=HMDB:HMDB00500-718 4-Hydroxybenzoic acid M-H
PI=HMDB
DATACOLLECTOR=HMDB
SMILES=OC(=O)C1=CC=C(O)C=C1
INCHI=InChI=1S/C7H6O3/c8-6-3-1-5(2-4-6)7(9)10/h1-4,8H,(H,9,10)
INCHIAUX=N/A
PUBMED=N/A
SUBMITUSER=mwang87
TAGS=
LIBRARYQUALITY=3
SPECTRUMID=CCMSLIB00000426151
SCANS=1123
41.317 12.162 
65.152 42.23 
75.091 8.15 
92.941 100.0 
136.858 7.01 
END IONS

BEGIN IONS
PEPMASS=146.166
CHARGE=1+
MSLEVEL=2
SOURCE_INSTRUMENT=Positive-Quattro_QQQ:10eV
FILENAME=hmdb_intermediate.mgf
SEQ=*..*
IONMODE=Positive
ORGANISM=HMDB
NAME=HMDB:HMDB01257-1490 Spermidine M+H
PI=HMDB
DATACOLLECTOR=HMDB
SMILES=NCCCCNCCCN
INCHI=InChI=1S/C7H19N3/c8-4-1-2-6-10-7-3-5-9/h10H,1-9H2
INCHIAUX=N/A
PUBMED=N/A
SUBMITUSER=mwang87
TAGS=
LIBRARYQUALITY=3
SPECTRUMID=CCMSLIB00000426152
SCANS=1124
72.05 100.0 
75.04 12.075 
112.02 8.795 
129.02 25.514 
146.04 77.594 
END IONS

BEGIN IONS
PEPMASS=181.086
CHARGE=1+
MSLEVEL=2
SOURCE_INSTRUMENT=Positive-Quattro_QQQ:40eV
FILENAME=hmdb_intermediate.mgf
SEQ=*..*
IONMODE=Positive
ORGANISM=HMDB
NAME=HMDB:HMDB11751-2504 3-Methoxybenzenepropanoic acid M+H
PI=HMDB
DATACOLLECTOR=HMDB
SMILES=COC1=CC(CCC(O)=O)=CC=C1
INCHI=InChI=1S/C10H12O3/c1-13-9-4-2-3-8(7-9)5-6-10(11)12/h2-4,7H,5-6H2,1H3,(H,11,12)
INCHIAUX=N/A
PUBMED=N/A
SUBMITUSER=mwang87
TAGS=
LIBRARYQUALITY=3
SPECTRUMID=CCMSLIB00000426153
SCANS=1125
79.08 21.8536462484 
91.08 53.6268738806 
103.08 40.7568700151 
105.06 72.5928188333 
121.02 100.0 
135.12 43.6127718401 
END IONS

BEGIN IONS
PEPMASS=175.12
CHARGE=1+
MSLEVEL=2
SOURCE_INSTRUMENT=Positive-Quattro_QQQ:40eV
FILENAME=hmdb_intermediate.mgf
SEQ=*..*
IONMODE=Positive
ORGANISM=HMDB
NAME=HMDB:HMDB03416-2294 D-Arginine M+H
PI=HMDB
DATACOLLECTOR=HMDB
SMILES=N[C@H](CCCNC(N)=N)C(O)=O
INCHI=InChI=1S/C6H14N4O2/c7-4(5(11)12)2-1-3-10-6(8)9/h4H,1-3,7H2,(H,11,12)(H4,8,9,10)/t4-/m1/s1
INCHIAUX=N/A
PUBMED=N/A
SUBMITUSER=mwang87
TAGS=
LIBRARYQUALITY=3
SPECTRUMID=CCMSLIB00000426154
SCANS=1126
70.06 100.0 
END IONS

BEGIN IONS
PEPMASS=221.093
CHARGE=1+
MSLEVEL=2
SOURCE_INSTRUMENT=Positive-Quattro_QQQ:10eV
FILENAME=hmdb_intermediate.mgf
SEQ=*..*
IONMODE=Positive
ORGANISM=HMDB
NAME=HMDB:HMDB00472-686 5-Hydroxy-L-tryptophan M+H
PI=HMDB
DATACOLLECTOR=HMDB
SMILES=NC(CC1=CNC2=C1C=C(O)C=C2)C(O)=O
INCHI=InChI=1S/C11H12N2O3/c12-9(11(15)16)3-6-5-13-10-2-1-7(14)4-8(6)10/h1-2,4-5,9,13-14H,3,12H2,(H,15,16)
INCHIAUX=N/A
PUBMED=N/A
SUBMITUSER=mwang87
TAGS=
LIBRARYQUALITY=3
SPECTRUMID=CCMSLIB00000426155
SCANS=1127
220.0 100.0 
END IONS

BEGIN IONS
PEPMASS=455.291
CHARGE=1+
MSLEVEL=2
SOURCE_INSTRUMENT=Positive-Quattro_QQQ:40eV
FILENAME=hmdb_intermediate.mgf
SEQ=*..*
IONMODE=Positive
ORGANISM=HMDB
NAME=HMDB:HMDB01850-1713 Verapamil M+H
PI=HMDB
DATACOLLECTOR=HMDB
SMILES=COC1=C(OC)C=C(CCN(C)CCCC(C#N)(C(C)C)C2=CC(OC)=C(OC)C=C2)C=C1
INCHI=InChI=1S/C27H38N2O4/c1-20(2)27(19-28,22-10-12-24(31-5)26(18-22)33-7)14-8-15-29(3)16-13-21-9-11-23(30-4)25(17-21)32-6/h9-12,17-18,20H,8,13-16H2,1-7H3
INCHIAUX=N/A
PUBMED=N/A
SUBMITUSER=mwang87
TAGS=
LIBRARYQUALITY=3
SPECTRUMID=CCMSLIB00000426156
SCANS=1128
129.41 72.727 
194.754 80.682 
296.216 100.0 
306.844 73.864 
489.003 81.818 
END IONS

BEGIN IONS
PEPMASS=122.028
CHARGE=1+
MSLEVEL=2
SOURCE_INSTRUMENT=Positive-Quattro_QQQ:40eV
FILENAME=hmdb_intermediate.mgf
SEQ=*..*
IONMODE=Positive
ORGANISM=HMDB
NAME=HMDB:HMDB00574-802 L-Cysteine M+H
PI=HMDB
DATACOLLECTOR=HMDB
SMILES=N[C@@H](CS)C(O)=O
INCHI=InChI=1S/C3H7NO2S/c4-2(1-7)3(5)6/h2,7H,1,4H2,(H,5,6)/t2-/m0/s1
INCHIAUX=N/A
PUBMED=N/A
SUBMITUSER=mwang87
TAGS=
LIBRARYQUALITY=3
SPECTRUMID=CCMSLIB00000426157
SCANS=1129
43.384 22.984 
45.328 10.837 
58.999 100.0 
73.099 3.931 
75.949 19.96 
86.957 4.234 
121.913 13.306 
END IONS

BEGIN IONS
PEPMASS=43.0058
CHARGE=1+
MSLEVEL=2
SOURCE_INSTRUMENT=Positive-Quattro_QQQ:40eV
FILENAME=hmdb_intermediate.mgf
SEQ=*..*
IONMODE=Positive
ORGANISM=HMDB
NAME=HMDB:HMDB02078-1989 Cyanate M+H
PI=HMDB
DATACOLLECTOR=HMDB
SMILES=[O-]C#N
INCHI=InChI=1S/CHNO/c2-1-3/h3H/p-1
INCHIAUX=N/A
PUBMED=N/A
SUBMITUSER=mwang87
TAGS=
LIBRARYQUALITY=3
SPECTRUMID=CCMSLIB00000426158
SCANS=1130
28.0 26.75 
43.0 100.0 
45.0 16.447 
END IONS

BEGIN IONS
PEPMASS=148.061
CHARGE=1+
MSLEVEL=2
SOURCE_INSTRUMENT=Positive-Quattro_QQQ:10eV
FILENAME=hmdb_intermediate.mgf
SEQ=*..*
IONMODE=Positive
ORGANISM=HMDB
NAME=HMDB:HMDB00148-221 L-Glutamic acid M+H
PI=HMDB
DATACOLLECTOR=HMDB
SMILES=N[C@@H](CCC(O)=O)C(O)=O
INCHI=InChI=1S/C5H9NO4/c6-3(5(9)10)1-2-4(7)8/h3H,1-2,6H2,(H,7,8)(H,9,10)/t3-/m0/s1
INCHIAUX=N/A
PUBMED=N/A
SUBMITUSER=mwang87
TAGS=
LIBRARYQUALITY=3
SPECTRUMID=CCMSLIB00000426159
SCANS=1131
84.062 100.0 
101.991 46.023 
129.946 57.386 
147.911 38.068 
END IONS

BEGIN IONS
PEPMASS=197.067
CHARGE=1+
MSLEVEL=2
SOURCE_INSTRUMENT=Positive-Quattro_QQQ:10eV
FILENAME=hmdb_intermediate.mgf
SEQ=*..*
IONMODE=Positive
ORGANISM=HMDB
NAME=HMDB:HMDB01857-1726 1,3-Dimethyluric acid M+H
PI=HMDB
DATACOLLECTOR=HMDB
SMILES=CN1C2=C(NC(=O)N2)C(=O)N(C)C1=O
INCHI=InChI=1S/C7H8N4O3/c1-10-4-3(8-6(13)9-4)5(12)11(2)7(10)14/h1-2H3,(H2,8,9,13)
INCHIAUX=N/A
PUBMED=N/A
SUBMITUSER=mwang87
TAGS=
LIBRARYQUALITY=3
SPECTRUMID=CCMSLIB00000426160
SCANS=1132
91.347 22.045 
96.61 26.715 
113.4 84.257 
127.184 16.179 
137.208 50.745 
151.118 11.652 
155.629 48.554 
167.91 10.2 
178.687 42.66 
196.859 100.0 
END IONS

BEGIN IONS
PEPMASS=163.061
CHARGE=1+
MSLEVEL=2
SOURCE_INSTRUMENT=Positive-Quattro_QQQ:10eV
FILENAME=hmdb_intermediate.mgf
SEQ=*..*
IONMODE=Positive
ORGANISM=HMDB
NAME=HMDB:HMDB00355-567 3-Hydroxymethylglutaric acid M+H
PI=HMDB
DATACOLLECTOR=HMDB
SMILES=CC(O)(CC(O)=O)CC(O)=O
INCHI=InChI=1S/C6H10O5/c1-6(11,2-4(7)8)3-5(9)10/h11H,2-3H2,1H3,(H,7,8)(H,9,10)
INCHIAUX=N/A
PUBMED=N/A
SUBMITUSER=mwang87
TAGS=
LIBRARYQUALITY=3
SPECTRUMID=CCMSLIB00000426161
SCANS=1133
54.63 49.146 
73.447 42.556 
84.912 63.371 
103.357 100.0 
106.099 96.203 
121.428 89.249 
126.912 61.37 
135.885 36.811 
147.725 24.007 
163.181 64.269 
END IONS

BEGIN IONS
PEPMASS=477.231
CHARGE=1+
MSLEVEL=2
SOURCE_INSTRUMENT=Positive-Quattro_QQQ:10eV
FILENAME=hmdb_intermediate.mgf
SEQ=*..*
IONMODE=Positive
ORGANISM=HMDB
NAME=HMDB:HMDB04999-2430 Loperamide M+H
PI=HMDB
DATACOLLECTOR=HMDB
SMILES=CN(C)C(=O)C(CCN1CCC(O)(CC1)C1=CC=C(Cl)C=C1)(C1=CC=CC=C1)C1=CC=CC=C1
INCHI=InChI=1S/C29H33ClN2O2/c1-31(2)27(33)29(24-9-5-3-6-10-24,25-11-7-4-8-12-25)19-22-32-20-17-28(34,18-21-32)23-13-15-26(30)16-14-23/h3-16,34H,17-22H2,1-2H3
INCHIAUX=N/A
PUBMED=N/A
SUBMITUSER=mwang87
TAGS=
LIBRARYQUALITY=3
SPECTRUMID=CCMSLIB00000426162
SCANS=1134
58.0 0.848 
266.0 0.793 
432.0 0.708 
459.0 0.867 
477.0 100.0 
END IONS

BEGIN IONS
PEPMASS=749.516
CHARGE=1+
MSLEVEL=2
SOURCE_INSTRUMENT=Positive-Quattro_QQQ:10eV
FILENAME=hmdb_intermediate.mgf
SEQ=*..*
IONMODE=Positive
ORGANISM=HMDB
NAME=HMDB:HMDB01916-1831 Azythromycin M+H
PI=HMDB
DATACOLLECTOR=HMDB
SMILES=CC[C@@H]1OC(=O)[C@H](C)[C@@H](O[C@@H]2C[C@](C)(OC)[C@H](O)[C@@H](C)O2)[C@@H](C)[C@H](O[C@H]2O[C@@H](C)C[C@H]([C@@H]2O)N(C)C)[C@@](C)(O)C[C@H](C)CN(C)[C@@H](C)[C@@H](O)[C@]1(C)O
INCHI=InChI=1S/C38H72N2O12/c1-15-27-38(10,46)31(42)24(6)40(13)19-20(2)17-36(8,45)33(52-35-29(41)26(39(11)12)16-21(3)48-35)22(4)30(23(5)34(44)50-27)51-28-18-37(9,47-14)32(43)25(7)49-28/h20-33,35,41-43,45-46H,15-19H2,1-14H3/t20-,21-,22+,23+,24-,25+,26+,27-,28+,29-,30-,31+,32+,33-,35+,36-,37-,38+/m0/s1
INCHIAUX=N/A
PUBMED=N/A
SUBMITUSER=mwang87
TAGS=
LIBRARYQUALITY=3
SPECTRUMID=CCMSLIB00000426163
SCANS=1135
61.395 66.79 
80.433 78.862 
110.05 51.695 
207.252 54.717 
264.387 81.884 
296.754 54.717 
305.22 51.695 
329.247 60.746 
345.059 54.717 
377.679 51.695 
410.176 51.695 
433.709 100.0 
437.32 63.768 
450.643 81.884 
459.11 66.79 
470.815 54.717 
503.439 51.695 
532.08 54.717 
535.816 54.717 
548.268 72.818 
659.97 54.717 
673.917 66.79 
686.619 57.724 
698.698 75.84 
710.528 54.717 
END IONS

BEGIN IONS
PEPMASS=227.067
CHARGE=1+
MSLEVEL=2
SOURCE_INSTRUMENT=Positive-Quattro_QQQ:10eV
FILENAME=hmdb_intermediate.mgf
SEQ=*..*
IONMODE=Positive
ORGANISM=HMDB
NAME=HMDB:HMDB01904-1822 3-Nitrotyrosine M+H
PI=HMDB
DATACOLLECTOR=HMDB
SMILES=N[C@@H](CC1=CC(=C(O)C=C1)[N+]([O-])=O)C(O)=O
INCHI=InChI=1S/C9H10N2O5/c10-6(9(13)14)3-5-1-2-8(12)7(4-5)11(15)16/h1-2,4,6,12H,3,10H2,(H,13,14)/t6-/m0/s1
INCHIAUX=N/A
PUBMED=N/A
SUBMITUSER=mwang87
TAGS=
LIBRARYQUALITY=3
SPECTRUMID=CCMSLIB00000426164
SCANS=1136
98.0 2.163 
167.0 3.736 
180.0 100.0 
209.0 13.617 
226.0 34.834 
END IONS

BEGIN IONS
PEPMASS=89.0603
CHARGE=1+
MSLEVEL=2
SOURCE_INSTRUMENT=Positive-Quattro_QQQ:10eV
FILENAME=hmdb_intermediate.mgf
SEQ=*..*
IONMODE=Positive
ORGANISM=HMDB
NAME=HMDB:HMDB03243-2218 Acetoin M+H
PI=HMDB
DATACOLLECTOR=HMDB
SMILES=CC(O)C(C)=O
INCHI=InChI=1S/C4H8O2/c1-3(5)4(2)6/h3,5H,1-2H3
INCHIAUX=N/A
PUBMED=N/A
SUBMITUSER=mwang87
TAGS=
LIBRARYQUALITY=3
SPECTRUMID=CCMSLIB00000426165
SCANS=1137
43.0 100.0 
71.0 74.61 
89.0 41.234 
END IONS

BEGIN IONS
PEPMASS=355.358
CHARGE=1+
MSLEVEL=2
SOURCE_INSTRUMENT=Positive-Quattro_QQQ:25eV
FILENAME=hmdb_intermediate.mgf
SEQ=*..*
IONMODE=Positive
ORGANISM=HMDB
NAME=HMDB:HMDB01160-1440 Tricosanoic acid M+H
PI=HMDB
DATACOLLECTOR=HMDB
SMILES=CCCCCCCCCCCCCCCCCCCCCCC(O)=O
INCHI=InChI=1S/C23H46O2/c1-2-3-4-5-6-7-8-9-10-11-12-13-14-15-16-17-18-19-20-21-22-23(24)25/h2-22H2,1H3,(H,24,25)
INCHIAUX=N/A
PUBMED=N/A
SUBMITUSER=mwang87
TAGS=
LIBRARYQUALITY=3
SPECTRUMID=CCMSLIB00000426166
SCANS=1138
73.0 52.79 
90.0 52.637 
106.0 63.278 
186.0 50.564 
218.0 45.907 
226.0 55.353 
270.0 100.0 
END IONS

BEGIN IONS
PEPMASS=104.071
CHARGE=1+
MSLEVEL=2
SOURCE_INSTRUMENT=Positive-Quattro_QQQ:40eV
FILENAME=hmdb_intermediate.mgf
SEQ=*..*
IONMODE=Positive
ORGANISM=HMDB
NAME=HMDB:HMDB00452-661 L-Alpha-aminobutyric acid M+H
PI=HMDB
DATACOLLECTOR=HMDB
SMILES=CC[C@H](N)C(O)=O
INCHI=InChI=1S/C4H9NO2/c1-2-3(5)4(6)7/h3H,2,5H2,1H3,(H,6,7)/t3-/m0/s1
INCHIAUX=N/A
PUBMED=N/A
SUBMITUSER=mwang87
TAGS=
LIBRARYQUALITY=3
SPECTRUMID=CCMSLIB00000426167
SCANS=1139
43.159 100.0 
45.235 39.766 
57.985 97.661 
103.949 26.462 
END IONS

BEGIN IONS
PEPMASS=259.022
CHARGE=1+
MSLEVEL=2
SOURCE_INSTRUMENT=Negative-Quattro_QQQ:40eV
FILENAME=hmdb_intermediate.mgf
SEQ=*..*
IONMODE=Negative
ORGANISM=HMDB
NAME=HMDB:HMDB01586-1659 Glucose 1-phosphate M-H
PI=HMDB
DATACOLLECTOR=HMDB
SMILES=OC[C@H]1OC(OP(O)(O)=O)[C@H](O)[C@@H](O)[C@@H]1O
INCHI=InChI=1S/C6H13O9P/c7-1-2-3(8)4(9)5(10)6(14-2)15-16(11,12)13/h2-10H,1H2,(H2,11,12,13)/t2-,3-,4+,5-,6?/m1/s1
INCHIAUX=N/A
PUBMED=N/A
SUBMITUSER=mwang87
TAGS=
LIBRARYQUALITY=3
SPECTRUMID=CCMSLIB00000426168
SCANS=1140
62.851 71.332 
78.67 77.698 
91.893 74.492 
121.185 77.698 
134.904 80.903 
148.995 71.332 
171.244 74.492 
210.306 100.0 
253.328 68.126 
274.345 71.332 
292.397 71.332 
END IONS

BEGIN IONS
PEPMASS=132.077
CHARGE=1+
MSLEVEL=2
SOURCE_INSTRUMENT=Positive-Quattro_QQQ:25eV
FILENAME=hmdb_intermediate.mgf
SEQ=*..*
IONMODE=Positive
ORGANISM=HMDB
NAME=HMDB:HMDB00064-106 Creatine M+H
PI=HMDB
DATACOLLECTOR=HMDB
SMILES=CN(CC(O)=O)C(N)=N
INCHI=InChI=1S/C4H9N3O2/c1-7(4(5)6)2-3(8)9/h2H2,1H3,(H3,5,6)(H,8,9)
INCHIAUX=N/A
PUBMED=N/A
SUBMITUSER=mwang87
TAGS=
LIBRARYQUALITY=3
SPECTRUMID=CCMSLIB00000426169
SCANS=1141
44.108 100.0 
72.11 2.289 
90.006 9.067 
131.777 5.348 
END IONS

BEGIN IONS
PEPMASS=250.025
CHARGE=1+
MSLEVEL=2
SOURCE_INSTRUMENT=Positive-Quattro_QQQ:10eV
FILENAME=hmdb_intermediate.mgf
SEQ=*..*
IONMODE=Positive
ORGANISM=HMDB
NAME=HMDB:HMDB01915-1828 Alendronic acid M+H
PI=HMDB
DATACOLLECTOR=HMDB
SMILES=NCCCC(O)(P(O)(O)=O)P(O)(O)=O
INCHI=InChI=1S/C4H13NO7P2/c5-3-1-2-4(6,13(7,8)9)14(10,11)12/h6H,1-3,5H2,(H2,7,8,9)(H2,10,11,12)
INCHIAUX=N/A
PUBMED=N/A
SUBMITUSER=mwang87
TAGS=
LIBRARYQUALITY=3
SPECTRUMID=CCMSLIB00000426170
SCANS=1142
52.223 6.382 
58.436 6.212 
73.224 5.871 
77.076 8.929 
94.473 15.047 
100.314 6.212 
119.204 25.923 
142.195 5.531 
156.861 5.531 
167.798 100.0 
184.08 6.212 
189.798 67.384 
209.934 37.646 
216.895 7.231 
226.342 5.022 
238.151 5.531 
248.095 5.531 
267.737 7.061 
290.115 6.72 
END IONS

BEGIN IONS
PEPMASS=105.019
CHARGE=1+
MSLEVEL=2
SOURCE_INSTRUMENT=Negative-Quattro_QQQ:10eV
FILENAME=hmdb_intermediate.mgf
SEQ=*..*
IONMODE=Negative
ORGANISM=HMDB
NAME=HMDB:HMDB00139-212 Glyceric acid M-H
PI=HMDB
DATACOLLECTOR=HMDB
SMILES=OC[C@@H](O)C(O)=O
INCHI=InChI=1S/C3H6O4/c4-1-2(5)3(6)7/h2,4-5H,1H2,(H,6,7)/t2-/m1/s1
INCHIAUX=N/A
PUBMED=N/A
SUBMITUSER=mwang87
TAGS=
LIBRARYQUALITY=3
SPECTRUMID=CCMSLIB00000426171
SCANS=1143
45.278 14.898 
59.177 17.078 
73.093 4.869 
75.051 55.523 
104.949 100.0 
END IONS

BEGIN IONS
PEPMASS=297.972
CHARGE=1+
MSLEVEL=2
SOURCE_INSTRUMENT=Positive-Quattro_QQQ:10eV
FILENAME=hmdb_intermediate.mgf
SEQ=*..*
IONMODE=Positive
ORGANISM=HMDB
NAME=HMDB:HMDB01928-1863 Hydrochlorothiazide M+H
PI=HMDB
DATACOLLECTOR=HMDB
SMILES=NS(=O)(=O)C1=C(Cl)C=C2NCNS(=O)(=O)C2=C1
INCHI=InChI=1S/C7H8ClN3O4S2/c8-4-1-5-7(2-6(4)16(9,12)13)17(14,15)11-3-10-5/h1-2,10-11H,3H2,(H2,9,12,13)
INCHIAUX=N/A
PUBMED=N/A
SUBMITUSER=mwang87
TAGS=
LIBRARYQUALITY=3
SPECTRUMID=CCMSLIB00000426172
SCANS=1144
224.735 17.945 
256.709 62.577 
276.433 12.117 
298.313 100.0 
END IONS

BEGIN IONS
PEPMASS=90.0555
CHARGE=1+
MSLEVEL=2
SOURCE_INSTRUMENT=Positive-Quattro_QQQ:25eV
FILENAME=hmdb_intermediate.mgf
SEQ=*..*
IONMODE=Positive
ORGANISM=HMDB
NAME=HMDB:HMDB00056-91 Beta-Alanine M+H
PI=HMDB
DATACOLLECTOR=HMDB
SMILES=NCCC(O)=O
INCHI=InChI=1S/C3H7NO2/c4-2-1-3(5)6/h1-2,4H2,(H,5,6)
INCHIAUX=N/A
PUBMED=N/A
SUBMITUSER=mwang87
TAGS=
LIBRARYQUALITY=3
SPECTRUMID=CCMSLIB00000426173
SCANS=1145
43.238 14.688 
45.182 73.125 
71.985 18.438 
89.818 100.0 
END IONS

BEGIN IONS
PEPMASS=138.092
CHARGE=1+
MSLEVEL=2
SOURCE_INSTRUMENT=Positive-Quattro_QQQ:10eV
FILENAME=hmdb_intermediate.mgf
SEQ=*..*
IONMODE=Positive
ORGANISM=HMDB
NAME=HMDB:HMDB00306-522 Tyramine M+H
PI=HMDB
DATACOLLECTOR=HMDB
SMILES=NCCC1=CC=C(O)C=C1
INCHI=InChI=1S/C8H11NO/c9-6-5-7-1-3-8(10)4-2-7/h1-4,10H,5-6,9H2
INCHIAUX=N/A
PUBMED=N/A
SUBMITUSER=mwang87
TAGS=
LIBRARYQUALITY=3
SPECTRUMID=CCMSLIB00000426174
SCANS=1146
93.088 2.941 
120.987 100.0 
137.967 5.417 
END IONS

BEGIN IONS
PEPMASS=239.092
CHARGE=1+
MSLEVEL=2
SOURCE_INSTRUMENT=Positive-Quattro_QQQ:25eV
FILENAME=hmdb_intermediate.mgf
SEQ=*..*
IONMODE=Positive
ORGANISM=HMDB
NAME=HMDB:HMDB02511-2114 3,4,5-Trimethoxycinnamic acid M+H
PI=HMDB
DATACOLLECTOR=HMDB
SMILES=COC1=CC(\C=C\C(O)=O)=CC(OC)=C1OC
INCHI=InChI=1S/C12H14O5/c1-15-9-6-8(4-5-11(13)14)7-10(16-2)12(9)17-3/h4-7H,1-3H3,(H,13,14)/b5-4+
INCHIAUX=N/A
PUBMED=N/A
SUBMITUSER=mwang87
TAGS=
LIBRARYQUALITY=3
SPECTRUMID=CCMSLIB00000426175
SCANS=1147
118.0 62.902 
137.0 100.0 
168.0 62.238 
END IONS

BEGIN IONS
PEPMASS=170.082
CHARGE=1+
MSLEVEL=2
SOURCE_INSTRUMENT=Positive-Quattro_QQQ:25eV
FILENAME=hmdb_intermediate.mgf
SEQ=*..*
IONMODE=Positive
ORGANISM=HMDB
NAME=HMDB:HMDB00239-404 Pyridoxine M+H
PI=HMDB
DATACOLLECTOR=HMDB
SMILES=CC1=NC=C(CO)C(CO)=C1O
INCHI=InChI=1S/C8H11NO3/c1-5-8(12)7(4-11)6(3-10)2-9-5/h2,10-12H,3-4H2,1H3
INCHIAUX=N/A
PUBMED=N/A
SUBMITUSER=mwang87
TAGS=
LIBRARYQUALITY=3
SPECTRUMID=CCMSLIB00000426176
SCANS=1148
65.223 3.039 
79.119 23.32 
94.055 4.669 
96.023 5.904 
106.071 10.573 
123.623 14.526 
133.968 100.0 
151.935 29.644 
END IONS

BEGIN IONS
PEPMASS=118.98
CHARGE=1+
MSLEVEL=2
SOURCE_INSTRUMENT=Negative-Quattro_QQQ:25eV
FILENAME=hmdb_intermediate.mgf
SEQ=*..*
IONMODE=Negative
ORGANISM=HMDB
NAME=HMDB:HMDB01368-1535 3-Mercaptopyruvic acid M-H
PI=HMDB
DATACOLLECTOR=HMDB
SMILES=OC(=O)C(=O)CS
INCHI=InChI=1S/C3H4O3S/c4-2(1-7)3(5)6/h7H,1H2,(H,5,6)
INCHIAUX=N/A
PUBMED=N/A
SUBMITUSER=mwang87
TAGS=
LIBRARYQUALITY=3
SPECTRUMID=CCMSLIB00000426177
SCANS=1149
33.0 100.0 
47.0 71.24 
END IONS

BEGIN IONS
PEPMASS=165.055
CHARGE=1+
MSLEVEL=2
SOURCE_INSTRUMENT=Positive-Quattro_QQQ:25eV
FILENAME=hmdb_intermediate.mgf
SEQ=*..*
IONMODE=Positive
ORGANISM=HMDB
NAME=HMDB:HMDB31629-329 Phenylpyruvic acid M+H
PI=HMDB
DATACOLLECTOR=HMDB
SMILES=OC(=O)C(=O)CC1=CC=CC=C1
INCHI=InChI=1S/C9H8O3/c10-8(9(11)12)6-7-4-2-1-3-5-7/h1-5H,6H2,(H,11,12)
INCHIAUX=N/A
PUBMED=N/A
SUBMITUSER=mwang87
TAGS=
LIBRARYQUALITY=3
SPECTRUMID=CCMSLIB00000426178
SCANS=1150
77.0 100.0 
105.0 27.689 
END IONS

BEGIN IONS
PEPMASS=222.098
CHARGE=1+
MSLEVEL=2
SOURCE_INSTRUMENT=Positive-Quattro_QQQ:40eV
FILENAME=hmdb_intermediate.mgf
SEQ=*..*
IONMODE=Positive
ORGANISM=HMDB
NAME=HMDB:HMDB01129-1429 N-Acetylmannosamine M+H
PI=HMDB
DATACOLLECTOR=HMDB
SMILES=[H][C@@]1(O)O[C@H](CO)[C@@H](O)[C@H](O)[C@@H]1NC(C)=O
INCHI=InChI=1S/C8H15NO6/c1-3(11)9-5-7(13)6(12)4(2-10)15-8(5)14/h4-8,10,12-14H,2H2,1H3,(H,9,11)/t4-,5+,6-,7-,8-/m1/s1
INCHIAUX=N/A
PUBMED=N/A
SUBMITUSER=mwang87
TAGS=
LIBRARYQUALITY=3
SPECTRUMID=CCMSLIB00000426179
SCANS=1151
61.0 10.128 
69.0 27.595 
84.0 100.0 
85.0 7.821 
96.0 66.97 
109.0 5.71 
126.0 7.484 
138.0 11.103 
END IONS

BEGIN IONS
PEPMASS=166.073
CHARGE=1+
MSLEVEL=2
SOURCE_INSTRUMENT=Positive-Quattro_QQQ:25eV
FILENAME=hmdb_intermediate.mgf
SEQ=*..*
IONMODE=Positive
ORGANISM=HMDB
NAME=HMDB:HMDB03282-2228 1-Methylguanine M+H
PI=HMDB
DATACOLLECTOR=HMDB
SMILES=CN1C(N)=NC2=C(NC=N2)C1=O
INCHI=InChI=1S/C6H7N5O/c1-11-5(12)3-4(9-2-8-3)10-6(11)7/h2H,1H3,(H2,7,10)(H,8,9)
INCHIAUX=N/A
PUBMED=N/A
SUBMITUSER=mwang87
TAGS=
LIBRARYQUALITY=3
SPECTRUMID=CCMSLIB00000426180
SCANS=1152
67.02 22.374 
81.97 11.566 
94.13 8.66 
110.15 19.534 
120.88 10.183 
134.76 100.0 
148.82 76.241 
165.79 12.299 
END IONS

BEGIN IONS
PEPMASS=210.077
CHARGE=1+
MSLEVEL=2
SOURCE_INSTRUMENT=Positive-Quattro_QQQ:25eV
FILENAME=hmdb_intermediate.mgf
SEQ=*..*
IONMODE=Positive
ORGANISM=HMDB
NAME=HMDB:HMDB00735-1042 Hydroxyphenylacetylglycine M+H
PI=HMDB
DATACOLLECTOR=HMDB
SMILES=OC(=O)CNC(=O)CC1=CC=C(O)C=C1
INCHI=InChI=1S/C10H11NO4/c12-8-3-1-7(2-4-8)5-9(13)11-6-10(14)15/h1-4,12H,5-6H2,(H,11,13)(H,14,15)
INCHIAUX=N/A
PUBMED=N/A
SUBMITUSER=mwang87
TAGS=
LIBRARYQUALITY=3
SPECTRUMID=CCMSLIB00000426181
SCANS=1153
75.0 11.893 
106.0 100.0 
END IONS

BEGIN IONS
PEPMASS=209.097
CHARGE=1+
MSLEVEL=2
SOURCE_INSTRUMENT=Positive-Quattro_QQQ:10eV
FILENAME=hmdb_intermediate.mgf
SEQ=*..*
IONMODE=Positive
ORGANISM=HMDB
NAME=HMDB:HMDB03066-2185 Chalcone M+H
PI=HMDB
DATACOLLECTOR=HMDB
SMILES=O=C(\C=C\C1=CC=CC=C1)C1=CC=CC=C1
INCHI=InChI=1S/C15H12O/c16-15(14-9-5-2-6-10-14)12-11-13-7-3-1-4-8-13/h1-12H/b12-11+
INCHIAUX=N/A
PUBMED=N/A
SUBMITUSER=mwang87
TAGS=
LIBRARYQUALITY=3
SPECTRUMID=CCMSLIB00000426182
SCANS=1154
130.88 19.104 
208.87 100.0 
END IONS

BEGIN IONS
PEPMASS=258.109
CHARGE=1+
MSLEVEL=2
SOURCE_INSTRUMENT=Positive-Quattro_QQQ:25eV
FILENAME=hmdb_intermediate.mgf
SEQ=*..*
IONMODE=Positive
ORGANISM=HMDB
NAME=HMDB:HMDB00982-1376 5-Methylcytidine M+H
PI=HMDB
DATACOLLECTOR=HMDB
SMILES=CC1=CN([C@@H]2O[C@H](CO)[C@@H](O)[C@H]2O)C(=O)N=C1N
INCHI=InChI=1S/C10H15N3O5/c1-4-2-13(10(17)12-8(4)11)9-7(16)6(15)5(3-14)18-9/h2,5-7,9,14-16H,3H2,1H3,(H2,11,12,17)/t5-,6-,7-,9-/m1/s1
INCHIAUX=N/A
PUBMED=N/A
SUBMITUSER=mwang87
TAGS=
LIBRARYQUALITY=3
SPECTRUMID=CCMSLIB00000426183
SCANS=1155
125.928 100.0 
END IONS

BEGIN IONS
PEPMASS=455.291
CHARGE=1+
MSLEVEL=2
SOURCE_INSTRUMENT=Positive-Quattro_QQQ:25eV
FILENAME=hmdb_intermediate.mgf
SEQ=*..*
IONMODE=Positive
ORGANISM=HMDB
NAME=HMDB:HMDB01850-1712 Verapamil M+H
PI=HMDB
DATACOLLECTOR=HMDB
SMILES=COC1=C(OC)C=C(CCN(C)CCCC(C#N)(C(C)C)C2=CC(OC)=C(OC)C=C2)C=C1
INCHI=InChI=1S/C27H38N2O4/c1-20(2)27(19-28,22-10-12-24(31-5)26(18-22)33-7)14-8-15-29(3)16-13-21-9-11-23(30-4)25(17-21)32-6/h9-12,17-18,20H,8,13-16H2,1-7H3
INCHIAUX=N/A
PUBMED=N/A
SUBMITUSER=mwang87
TAGS=
LIBRARYQUALITY=3
SPECTRUMID=CCMSLIB00000426184
SCANS=1156
53.547 30.636 
79.64 35.838 
137.256 29.48 
329.804 29.48 
340.324 36.994 
366.448 38.15 
387.568 38.15 
408.141 34.682 
490.706 100.0 
END IONS

BEGIN IONS
PEPMASS=777.695
CHARGE=1+
MSLEVEL=2
SOURCE_INSTRUMENT=Positive-Quattro_QQQ:25eV
FILENAME=hmdb_intermediate.mgf
SEQ=*..*
IONMODE=Positive
ORGANISM=HMDB
NAME=HMDB:HMDB00248-425 Thyroxine M+H
PI=HMDB
DATACOLLECTOR=HMDB
SMILES=N[C@@H](CC1=CC(I)=C(OC2=CC(I)=C(O)C(I)=C2)C(I)=C1)C(O)=O
INCHI=InChI=1S/C15H11I4NO4/c16-8-4-7(5-9(17)13(8)21)24-14-10(18)1-6(2-11(14)19)3-12(20)15(22)23/h1-2,4-5,12,21H,3,20H2,(H,22,23)/t12-/m0/s1
INCHIAUX=N/A
PUBMED=N/A
SUBMITUSER=mwang87
TAGS=
LIBRARYQUALITY=3
SPECTRUMID=CCMSLIB00000426185
SCANS=1157
57.336 19.998 
68.154 10.536 
75.45 16.558 
94.194 12.256 
109.164 13.118 
117.341 12.256 
125.267 12.256 
138.854 13.118 
152.694 13.976 
157.349 10.536 
170.685 11.398 
179.618 14.838 
193.584 12.256 
200.756 19.14 
207.047 16.558 
220.51 14.838 
238.755 19.14 
248.57 10.536 
256.749 13.118 
265.935 15.696 
275.373 16.558 
293.745 13.118 
302.805 13.976 
311.74 12.256 
320.297 13.976 
332.253 10.536 
338.419 14.838 
358.303 10.536 
369.126 12.256 
383.851 11.398 
391.402 39.784 
402.729 14.838 
414.685 16.558 
433.689 11.398 
443.758 11.398 
447.911 11.398 
461.63 15.696 
465.658 17.42 
484.789 12.256 
514.115 11.398 
523.932 19.998 
524.939 12.256 
539.665 13.976 
547.847 14.838 
557.287 18.278 
565.846 13.976 
589.005 13.118 
602.222 14.838 
611.032 12.256 
617.955 11.398 
631.549 11.398 
643.507 13.118 
648.164 14.838 
661.38 13.976 
668.051 100.0 
682.526 10.536 
692.848 13.976 
711.476 15.696 
720.413 11.398 
730.105 16.558 
738.664 11.398 
745.838 11.398 
755.656 15.696 
781.207 10.536 
789.766 12.256 
811.541 11.398 
823.246 13.976 
829.665 15.696 
838.979 18.278 
857.607 15.696 
END IONS

BEGIN IONS
PEPMASS=191.092
CHARGE=1+
MSLEVEL=2
SOURCE_INSTRUMENT=Positive-Quattro_QQQ:25eV
FILENAME=hmdb_intermediate.mgf
SEQ=*..*
IONMODE=Positive
ORGANISM=HMDB
NAME=HMDB:HMDB00325-538 3-Hydroxysuberic acid M+H
PI=HMDB
DATACOLLECTOR=HMDB
SMILES=OC(CCCCC(O)=O)CC(O)=O
INCHI=InChI=1S/C8H14O5/c9-6(5-8(12)13)3-1-2-4-7(10)11/h6,9H,1-5H2,(H,10,11)(H,12,13)
INCHIAUX=N/A
PUBMED=N/A
SUBMITUSER=mwang87
TAGS=
LIBRARYQUALITY=3
SPECTRUMID=CCMSLIB00000426186
SCANS=1158
67.0 23.125 
81.0 100.0 
85.0 16.722 
109.0 55.484 
137.0 11.058 
END IONS

BEGIN IONS
PEPMASS=131.13
CHARGE=1+
MSLEVEL=2
SOURCE_INSTRUMENT=Positive-Quattro_QQQ:40eV
FILENAME=hmdb_intermediate.mgf
SEQ=*..*
IONMODE=Positive
ORGANISM=HMDB
NAME=HMDB:HMDB01432-1579 Agmatine M+H
PI=HMDB
DATACOLLECTOR=HMDB
SMILES=NCCCCNC(N)=N
INCHI=InChI=1S/C5H14N4/c6-3-1-2-4-9-5(7)8/h1-4,6H2,(H4,7,8,9)
INCHIAUX=N/A
PUBMED=N/A
SUBMITUSER=mwang87
TAGS=
LIBRARYQUALITY=3
SPECTRUMID=CCMSLIB00000426187
SCANS=1159
72.0 100.0 
131.0 6.533 
END IONS

BEGIN IONS
PEPMASS=103.04
CHARGE=1+
MSLEVEL=2
SOURCE_INSTRUMENT=Negative-Quattro_QQQ:10eV
FILENAME=hmdb_intermediate.mgf
SEQ=*..*
IONMODE=Negative
ORGANISM=HMDB
NAME=HMDB:HMDB00357-573 3-Hydroxybutyric acid M-H
PI=HMDB
DATACOLLECTOR=HMDB
SMILES=CC(O)CC(O)=O
INCHI=InChI=1S/C4H8O3/c1-3(5)2-4(6)7/h3,5H,2H2,1H3,(H,6,7)
INCHIAUX=N/A
PUBMED=N/A
SUBMITUSER=mwang87
TAGS=
LIBRARYQUALITY=3
SPECTRUMID=CCMSLIB00000426188
SCANS=1160
59.185 100.0 
102.99 27.286 
END IONS

BEGIN IONS
PEPMASS=667.23
CHARGE=1+
MSLEVEL=2
SOURCE_INSTRUMENT=Positive-Quattro_QQQ:40eV
FILENAME=hmdb_intermediate.mgf
SEQ=*..*
IONMODE=Positive
ORGANISM=HMDB
NAME=HMDB:HMDB01296-1509 Maltotetraose M+H
PI=HMDB
DATACOLLECTOR=HMDB
SMILES=OC[C@H]1O[C@H](O[C@H]2[C@H](O)[C@@H](O)[C@@H](O[C@H]3[C@H](O)[C@@H](O)[C@@H](O[C@H]4[C@H](O)[C@@H](O)C(O)O[C@@H]4CO)O[C@@H]3CO)O[C@@H]2CO)[C@H](O)[C@@H](O)[C@@H]1O
INCHI=InChI=1S/C24H42O21/c25-1-5-9(29)10(30)15(35)22(40-5)44-19-7(3-27)42-24(17(37)12(19)32)45-20-8(4-28)41-23(16(36)13(20)33)43-18-6(2-26)39-21(38)14(34)11(18)31/h5-38H,1-4H2/t5-,6-,7-,8-,9-,10+,11-,12-,13-,14-,15-,16-,17-,18-,19-,20-,21?,22-,23-,24-/m1/s1
INCHIAUX=N/A
PUBMED=N/A
SUBMITUSER=mwang87
TAGS=
LIBRARYQUALITY=3
SPECTRUMID=CCMSLIB00000426189
SCANS=1161
85.0 100.0 
97.0 14.1 
109.0 8.017 
127.0 33.391 
144.0 14.438 
145.0 86.458 
163.0 80.89 
END IONS

BEGIN IONS
PEPMASS=125.06
CHARGE=1+
MSLEVEL=2
SOURCE_INSTRUMENT=Positive-Quattro_QQQ:25eV
FILENAME=hmdb_intermediate.mgf
SEQ=*..*
IONMODE=Positive
ORGANISM=HMDB
NAME=HMDB:HMDB00873-1233 4-Methylcatechol M+H
PI=HMDB
DATACOLLECTOR=HMDB
SMILES=CC1=CC(O)=C(O)C=C1
INCHI=InChI=1S/C7H8O2/c1-5-2-3-6(8)7(9)4-5/h2-4,8-9H,1H3
INCHIAUX=N/A
PUBMED=N/A
SUBMITUSER=mwang87
TAGS=
LIBRARYQUALITY=3
SPECTRUMID=CCMSLIB00000426190
SCANS=1162
51.269 4.741 
77.12 100.0 
106.992 10.259 
125.091 2.694 
END IONS

BEGIN IONS
PEPMASS=206.067
CHARGE=1+
MSLEVEL=2
SOURCE_INSTRUMENT=Positive-Quattro_QQQ:25eV
FILENAME=hmdb_intermediate.mgf
SEQ=*..*
IONMODE=Positive
ORGANISM=HMDB
NAME=HMDB:HMDB00962-1367 Lipoamide M+H
PI=HMDB
DATACOLLECTOR=HMDB
SMILES=NC(=O)CCCCC1CCSS1
INCHI=InChI=1S/C8H15NOS2/c9-8(10)4-2-1-3-7-5-6-11-12-7/h7H,1-6H2,(H2,9,10)
INCHIAUX=N/A
PUBMED=N/A
SUBMITUSER=mwang87
TAGS=
LIBRARYQUALITY=3
SPECTRUMID=CCMSLIB00000426191
SCANS=1163
55.0 23.968 
67.0 24.396 
81.0 51.37 
93.0 52.959 
101.0 100.0 
105.0 44.341 
123.0 9.269 
127.0 59.525 
137.0 11.824 
161.0 20.873 
END IONS

BEGIN IONS
PEPMASS=174.055
CHARGE=1+
MSLEVEL=2
SOURCE_INSTRUMENT=Positive-Quattro_QQQ:40eV
FILENAME=hmdb_intermediate.mgf
SEQ=*..*
IONMODE=Positive
ORGANISM=HMDB
NAME=HMDB:HMDB00842-1189 Quinaldic acid M+H
PI=HMDB
DATACOLLECTOR=HMDB
SMILES=OC(=O)C1=NC2=CC=CC=C2C=C1
INCHI=InChI=1S/C10H7NO2/c12-10(13)9-6-5-7-3-1-2-4-8(7)11-9/h1-6H,(H,12,13)
INCHIAUX=N/A
PUBMED=N/A
SUBMITUSER=mwang87
TAGS=
LIBRARYQUALITY=3
SPECTRUMID=CCMSLIB00000426192
SCANS=1164
41.332 7.91 
64.67 6.336 
79.099 7.404 
91.396 28.011 
106.454 24.609 
133.056 100.0 
147.237 11.424 
156.398 7.966 
173.34 54.072 
174.72 41.814 
END IONS

BEGIN IONS
PEPMASS=99.0446
CHARGE=1+
MSLEVEL=2
SOURCE_INSTRUMENT=Negative-Quattro_QQQ:40eV
FILENAME=hmdb_intermediate.mgf
SEQ=*..*
IONMODE=Negative
ORGANISM=HMDB
NAME=HMDB:HMDB00509-730 Senecioic acid M-H
PI=HMDB
DATACOLLECTOR=HMDB
SMILES=CC(C)=CC(O)=O
INCHI=InChI=1S/C5H8O2/c1-4(2)3-5(6)7/h3H,1-2H3,(H,6,7)
INCHIAUX=N/A
PUBMED=N/A
SUBMITUSER=mwang87
TAGS=
LIBRARYQUALITY=3
SPECTRUMID=CCMSLIB00000426193
SCANS=1165
55.501 58.58 
99.376 100.0 
END IONS

BEGIN IONS
PEPMASS=90.0555
CHARGE=1+
MSLEVEL=2
SOURCE_INSTRUMENT=Positive-Quattro_QQQ:40eV
FILENAME=hmdb_intermediate.mgf
SEQ=*..*
IONMODE=Positive
ORGANISM=HMDB
NAME=HMDB:HMDB00271-474 Sarcosine M+H
PI=HMDB
DATACOLLECTOR=HMDB
SMILES=CNCC(O)=O
INCHI=InChI=1S/C3H7NO2/c1-4-2-3(5)6/h4H,2H2,1H3,(H,5,6)
INCHIAUX=N/A
PUBMED=N/A
SUBMITUSER=mwang87
TAGS=
LIBRARYQUALITY=3
SPECTRUMID=CCMSLIB00000426194
SCANS=1166
44.216 100.0 
90.041 21.067 
END IONS

BEGIN IONS
PEPMASS=137.133
CHARGE=1+
MSLEVEL=2
SOURCE_INSTRUMENT=Positive-Quattro_QQQ:40eV
FILENAME=hmdb_intermediate.mgf
SEQ=*..*
IONMODE=Positive
ORGANISM=HMDB
NAME=HMDB:HMDB03375-2276 D-Limonene M+H
PI=HMDB
DATACOLLECTOR=HMDB
SMILES=CC(=C)[C@H]1CCC(C)=CC1
INCHI=InChI=1S/C10H16/c1-8(2)10-6-4-9(3)5-7-10/h4,10H,1,5-7H2,2-3H3/t10-/m1/s1
INCHIAUX=N/A
PUBMED=N/A
SUBMITUSER=mwang87
TAGS=
LIBRARYQUALITY=3
SPECTRUMID=CCMSLIB00000426195
SCANS=1167
42.0 72.603 
60.0 100.0 
76.0 97.022 
END IONS

BEGIN IONS
PEPMASS=220.118
CHARGE=1+
MSLEVEL=2
SOURCE_INSTRUMENT=Positive-Quattro_QQQ:25eV
FILENAME=hmdb_intermediate.mgf
SEQ=*..*
IONMODE=Positive
ORGANISM=HMDB
NAME=HMDB:HMDB00210-341 Pantothenic acid M+H
PI=HMDB
DATACOLLECTOR=HMDB
SMILES=CC(C)(CO)C(O)C(=O)NCCC(O)=O
INCHI=InChI=1S/C9H17NO5/c1-9(2,5-11)7(14)8(15)10-4-3-6(12)13/h7,11,14H,3-5H2,1-2H3,(H,10,15)(H,12,13)
INCHIAUX=N/A
PUBMED=N/A
SUBMITUSER=mwang87
TAGS=
LIBRARYQUALITY=3
SPECTRUMID=CCMSLIB00000426196
SCANS=1168
43.294 31.329 
45.292 7.437 
57.203 28.165 
72.135 100.0 
90.05 97.468 
98.013 52.848 
112.971 8.703 
123.995 32.278 
141.968 9.968 
END IONS

BEGIN IONS
PEPMASS=268.105
CHARGE=1+
MSLEVEL=2
SOURCE_INSTRUMENT=Positive-Quattro_QQQ:10eV
FILENAME=hmdb_intermediate.mgf
SEQ=*..*
IONMODE=Positive
ORGANISM=HMDB
NAME=HMDB:HMDB00085-135 Deoxyguanosine M+H
PI=HMDB
DATACOLLECTOR=HMDB
SMILES=NC1=NC2=C(N=CN2[C@H]2C[C@H](O)[C@@H](CO)O2)C(=O)N1
INCHI=InChI=1S/C10H13N5O4/c11-10-13-8-7(9(18)14-10)12-3-15(8)6-1-4(17)5(2-16)19-6/h3-6,16-17H,1-2H2,(H3,11,13,14,18)/t4-,5+,6+/m0/s1
INCHIAUX=N/A
PUBMED=N/A
SUBMITUSER=mwang87
TAGS=
LIBRARYQUALITY=3
SPECTRUMID=CCMSLIB00000426197
SCANS=1169
116.986 2.009 
151.942 100.0 
267.954 2.17 
END IONS

BEGIN IONS
PEPMASS=553.237
CHARGE=1+
MSLEVEL=2
SOURCE_INSTRUMENT=Negative-Quattro_QQQ:40eV
FILENAME=hmdb_intermediate.mgf
SEQ=*..*
IONMODE=Negative
ORGANISM=HMDB
NAME=HMDB:HMDB03828-2345 D-Pantethine M-H
PI=HMDB
DATACOLLECTOR=HMDB
SMILES=CC(C)(CO)[C@@H](O)C(=O)NCCC(=O)NCCSSCCNC(=O)CCNC(=O)[C@H](O)C(C)(C)CO
INCHI=InChI=1S/C22H42N4O8S2/c1-21(2,13-27)17(31)19(33)25-7-5-15(29)23-9-11-35-36-12-10-24-16(30)6-8-26-20(34)18(32)22(3,4)14-28/h17-18,27-28,31-32H,5-14H2,1-4H3,(H,23,29)(H,24,30)(H,25,33)(H,26,34)/t17-,18-/m0/s1
INCHIAUX=N/A
PUBMED=N/A
SUBMITUSER=mwang87
TAGS=
LIBRARYQUALITY=3
SPECTRUMID=CCMSLIB00000426198
SCANS=1170
26.0 2.662 
44.0 4.105 
70.0 8.873 
86.0 4.5 
100.0 3.083 
127.0 24.136 
145.0 100.0 
216.0 12.707 
274.0 5.507 
276.0 5.098 
END IONS

BEGIN IONS
PEPMASS=266.967
CHARGE=1+
MSLEVEL=2
SOURCE_INSTRUMENT=Positive-Quattro_QQQ:10eV
FILENAME=hmdb_intermediate.mgf
SEQ=*..*
IONMODE=Positive
ORGANISM=HMDB
NAME=HMDB:HMDB01294-1504 2,3-Diphosphoglyceric acid M+H
PI=HMDB
DATACOLLECTOR=HMDB
SMILES=OC(=O)[C@@H](COP(O)(O)=O)OP(O)(O)=O
INCHI=InChI=1S/C3H8O10P2/c4-3(5)2(13-15(9,10)11)1-12-14(6,7)8/h2H,1H2,(H,4,5)(H2,6,7,8)(H2,9,10,11)/t2-/m1/s1
INCHIAUX=N/A
PUBMED=N/A
SUBMITUSER=mwang87
TAGS=
LIBRARYQUALITY=3
SPECTRUMID=CCMSLIB00000426199
SCANS=1171
99.0 8.395 
123.0 4.504 
141.0 22.239 
169.0 100.0 
239.0 1.626 
249.0 11.789 
267.0 33.582 
END IONS

BEGIN IONS
PEPMASS=183.087
CHARGE=1+
MSLEVEL=2
SOURCE_INSTRUMENT=Positive-Quattro_QQQ:10eV
FILENAME=hmdb_intermediate.mgf
SEQ=*..*
IONMODE=Positive
ORGANISM=HMDB
NAME=HMDB:HMDB00247-421 Sorbitol M+H
PI=HMDB
DATACOLLECTOR=HMDB
SMILES=OC[C@H](O)[C@@H](O)[C@H](O)[C@H](O)CO
INCHI=InChI=1S/C6H14O6/c7-1-3(9)5(11)6(12)4(10)2-8/h3-12H,1-2H2/t3-,4+,5-,6-/m1/s1
INCHIAUX=N/A
PUBMED=N/A
SUBMITUSER=mwang87
TAGS=
LIBRARYQUALITY=3
SPECTRUMID=CCMSLIB00000426200
SCANS=1172
61.193 9.404 
69.14 100.0 
83.115 29.014 
85.091 22.133 
99.074 15.023 
111.035 31.651 
129.008 68.349 
147.006 60.092 
165.012 24.083 
182.987 37.156 
END IONS

BEGIN IONS
PEPMASS=191.019
CHARGE=1+
MSLEVEL=2
SOURCE_INSTRUMENT=Negative-Quattro_QQQ:10eV
FILENAME=hmdb_intermediate.mgf
SEQ=*..*
IONMODE=Negative
ORGANISM=HMDB
NAME=HMDB:HMDB00094-144 Citric acid M-H
PI=HMDB
DATACOLLECTOR=HMDB
SMILES=OC(=O)CC(O)(CC(O)=O)C(O)=O
INCHI=InChI=1S/C6H8O7/c7-3(8)1-6(13,5(11)12)2-4(9)10/h13H,1-2H2,(H,7,8)(H,9,10)(H,11,12)
INCHIAUX=N/A
PUBMED=N/A
SUBMITUSER=mwang87
TAGS=
LIBRARYQUALITY=3
SPECTRUMID=CCMSLIB00000426201
SCANS=1173
57.245 2.504 
87.067 26.821 
110.997 100.0 
128.984 6.829 
172.943 4.346 
190.922 48.344 
END IONS

BEGIN IONS
PEPMASS=239.092
CHARGE=1+
MSLEVEL=2
SOURCE_INSTRUMENT=Positive-Quattro_QQQ:10eV
FILENAME=hmdb_intermediate.mgf
SEQ=*..*
IONMODE=Positive
ORGANISM=HMDB
NAME=HMDB:HMDB02511-2113 3,4,5-Trimethoxycinnamic acid M+H
PI=HMDB
DATACOLLECTOR=HMDB
SMILES=COC1=CC(\C=C\C(O)=O)=CC(OC)=C1OC
INCHI=InChI=1S/C12H14O5/c1-15-9-6-8(4-5-11(13)14)7-10(16-2)12(9)17-3/h4-7H,1-3H3,(H,13,14)/b5-4+
INCHIAUX=N/A
PUBMED=N/A
SUBMITUSER=mwang87
TAGS=
LIBRARYQUALITY=3
SPECTRUMID=CCMSLIB00000426202
SCANS=1174
160.0 49.51 
168.0 33.964 
196.0 51.018 
238.0 100.0 
END IONS

BEGIN IONS
PEPMASS=101.097
CHARGE=1+
MSLEVEL=2
SOURCE_INSTRUMENT=Positive-Quattro_QQQ:40eV
FILENAME=hmdb_intermediate.mgf
SEQ=*..*
IONMODE=Positive
ORGANISM=HMDB
NAME=HMDB:HMDB00753-1079 3-Hexanone M+H
PI=HMDB
DATACOLLECTOR=HMDB
SMILES=CCCC(=O)CC
INCHI=InChI=1S/C6H12O/c1-3-5-6(7)4-2/h3-5H2,1-2H3
INCHIAUX=N/A
PUBMED=N/A
SUBMITUSER=mwang87
TAGS=
LIBRARYQUALITY=3
SPECTRUMID=CCMSLIB00000426203
SCANS=1175
59.04 100.0 
67.02 5.625606332 
END IONS

BEGIN IONS
PEPMASS=188.071
CHARGE=1+
MSLEVEL=2
SOURCE_INSTRUMENT=Positive-Quattro_QQQ:10eV
FILENAME=hmdb_intermediate.mgf
SEQ=*..*
IONMODE=Positive
ORGANISM=HMDB
NAME=HMDB:HMDB00734-1038 Indoleacrylic acid M+H
PI=HMDB
DATACOLLECTOR=HMDB
SMILES=OC(=O)\C=C\C1=CC2=C(N1)C=CC=C2
INCHI=InChI=1S/C11H9NO2/c13-11(14)6-5-9-7-8-3-1-2-4-10(8)12-9/h1-7,12H,(H,13,14)/b6-5+
INCHIAUX=N/A
PUBMED=N/A
SUBMITUSER=mwang87
TAGS=
LIBRARYQUALITY=3
SPECTRUMID=CCMSLIB00000426204
SCANS=1176
170.013 100.0 
188.08 12.055 
END IONS

BEGIN IONS
PEPMASS=117.055
CHARGE=1+
MSLEVEL=2
SOURCE_INSTRUMENT=Negative-Quattro_QQQ:10eV
FILENAME=hmdb_intermediate.mgf
SEQ=*..*
IONMODE=Negative
ORGANISM=HMDB
NAME=HMDB:HMDB00407-618 2-Hydroxy-3-methylbutyric acid M-H
PI=HMDB
DATACOLLECTOR=HMDB
SMILES=CC(C)C(O)C(O)=O
INCHI=InChI=1S/C5H10O3/c1-3(2)4(6)5(7)8/h3-4,6H,1-2H3,(H,7,8)
INCHIAUX=N/A
PUBMED=N/A
SUBMITUSER=mwang87
TAGS=
LIBRARYQUALITY=3
SPECTRUMID=CCMSLIB00000426205
SCANS=1177
45.598 20.408 
71.418 85.714 
117.231 100.0 
END IONS

BEGIN IONS
PEPMASS=121.05
CHARGE=1+
MSLEVEL=2
SOURCE_INSTRUMENT=Positive-Quattro_QQQ:10eV
FILENAME=hmdb_intermediate.mgf
SEQ=*..*
IONMODE=Positive
ORGANISM=HMDB
NAME=HMDB:HMDB02649-2119 Erythrose M+H
PI=HMDB
DATACOLLECTOR=HMDB
SMILES=O[C@@H]1COC(O)[C@@H]1O
INCHI=InChI=1S/C4H8O4/c5-2-1-8-4(7)3(2)6/h2-7H,1H2/t2-,3-,4?/m1/s1
INCHIAUX=N/A
PUBMED=N/A
SUBMITUSER=mwang87
TAGS=
LIBRARYQUALITY=3
SPECTRUMID=CCMSLIB00000426206
SCANS=1178
42.0 27.608 
92.0 21.281 
120.0 100.0 
END IONS

BEGIN IONS
PEPMASS=132.066
CHARGE=1+
MSLEVEL=2
SOURCE_INSTRUMENT=Positive-Quattro_QQQ:40eV
FILENAME=hmdb_intermediate.mgf
SEQ=*..*
IONMODE=Positive
ORGANISM=HMDB
NAME=HMDB:HMDB01149-1435 5-Aminolevulinic acid M+H
PI=HMDB
DATACOLLECTOR=HMDB
SMILES=NCC(=O)CCC(O)=O
INCHI=InChI=1S/C5H9NO3/c6-3-4(7)1-2-5(8)9/h1-3,6H2,(H,8,9)
INCHIAUX=N/A
PUBMED=N/A
SUBMITUSER=mwang87
TAGS=
LIBRARYQUALITY=3
SPECTRUMID=CCMSLIB00000426207
SCANS=1179
51.289 66.386 
55.148 30.182 
65.231 50.007 
78.55 100.0 
91.372 25.5 
103.322 23.099 
END IONS

BEGIN IONS
PEPMASS=168.99
CHARGE=1+
MSLEVEL=2
SOURCE_INSTRUMENT=Positive-Quattro_QQQ:40eV
FILENAME=hmdb_intermediate.mgf
SEQ=*..*
IONMODE=Positive
ORGANISM=HMDB
NAME=HMDB:HMDB00263-459 Phosphoenolpyruvic acid M+H
PI=HMDB
DATACOLLECTOR=HMDB
SMILES=OC(=O)C(=C)OP(O)(O)=O
INCHI=InChI=1S/C3H5O6P/c1-2(3(4)5)9-10(6,7)8/h1H2,(H,4,5)(H2,6,7,8)
INCHIAUX=N/A
PUBMED=N/A
SUBMITUSER=mwang87
TAGS=
LIBRARYQUALITY=3
SPECTRUMID=CCMSLIB00000426208
SCANS=1180
43.0 45.538 
52.0 10.44 
59.0 39.629 
81.0 100.0 
90.0 6.898 
99.0 14.761 
105.0 6.996 
123.0 6.347 
151.0 6.587 
169.0 10.624 
END IONS

BEGIN IONS
PEPMASS=192.102
CHARGE=1+
MSLEVEL=2
SOURCE_INSTRUMENT=Positive-Quattro_QQQ:40eV
FILENAME=hmdb_intermediate.mgf
SEQ=*..*
IONMODE=Positive
ORGANISM=HMDB
NAME=HMDB:HMDB01896-1815 5-Methoxytryptophol M+H
PI=HMDB
DATACOLLECTOR=HMDB
SMILES=COC1=CC=C2NC=C(CCO)C2=C1
INCHI=InChI=1S/C11H13NO2/c1-14-9-2-3-11-10(6-9)8(4-5-13)7-12-11/h2-3,6-7,12-13H,4-5H2,1H3
INCHIAUX=N/A
PUBMED=N/A
SUBMITUSER=mwang87
TAGS=
LIBRARYQUALITY=3
SPECTRUMID=CCMSLIB00000426209
SCANS=1181
78.0 9.115 
103.0 14.612 
117.0 17.868 
130.0 100.0 
145.0 8.433 
END IONS

BEGIN IONS
PEPMASS=253.094
CHARGE=1+
MSLEVEL=2
SOURCE_INSTRUMENT=Positive-Quattro_QQQ:40eV
FILENAME=hmdb_intermediate.mgf
SEQ=*..*
IONMODE=Positive
ORGANISM=HMDB
NAME=HMDB:HMDB00071-116 Deoxyinosine M+H
PI=HMDB
DATACOLLECTOR=HMDB
SMILES=OC[C@H]1O[C@H](C[C@@H]1O)N1C=NC2=C1N=CN=C2O
INCHI=InChI=1S/C10H12N4O4/c15-2-6-5(16)1-7(18-6)14-4-13-8-9(14)11-3-12-10(8)17/h3-7,15-16H,1-2H2,(H,11,12,17)/t5-,6+,7+/m0/s1
INCHIAUX=N/A
PUBMED=N/A
SUBMITUSER=mwang87
TAGS=
LIBRARYQUALITY=3
SPECTRUMID=CCMSLIB00000426210
SCANS=1182
43.634 17.697 
45.59 16.011 
73.35 15.028 
82.291 8.708 
94.25 12.5 
99.24 4.916 
110.173 27.669 
119.18 21.91 
137.096 100.0 
END IONS

BEGIN IONS
PEPMASS=105.066
CHARGE=1+
MSLEVEL=2
SOURCE_INSTRUMENT=Positive-Quattro_QQQ:25eV
FILENAME=hmdb_intermediate.mgf
SEQ=*..*
IONMODE=Positive
ORGANISM=HMDB
NAME=HMDB:HMDB02006-1945 2,3-Diaminopropionic acid M+H
PI=HMDB
DATACOLLECTOR=HMDB
SMILES=NC[C@H](N)C(O)=O
INCHI=InChI=1S/C3H8N2O2/c4-1-2(5)3(6)7/h2H,1,4-5H2,(H,6,7)/t2-/m0/s1
INCHIAUX=N/A
PUBMED=N/A
SUBMITUSER=mwang87
TAGS=
LIBRARYQUALITY=3
SPECTRUMID=CCMSLIB00000426211
SCANS=1183
70.0 100.0 
76.0 22.617 
88.0 46.348 
104.0 7.031 
105.0 20.18 
END IONS

BEGIN IONS
PEPMASS=142.027
CHARGE=1+
MSLEVEL=2
SOURCE_INSTRUMENT=Positive-Quattro_QQQ:40eV
FILENAME=hmdb_intermediate.mgf
SEQ=*..*
IONMODE=Positive
ORGANISM=HMDB
NAME=HMDB:HMDB60151-372 O-Phosphoethanolamine M+H
PI=HMDB
DATACOLLECTOR=HMDB
SMILES=NCCOP(O)(O)=O
INCHI=InChI=1S/C2H8NO4P/c3-1-2-7-8(4,5)6/h1-3H2,(H2,4,5,6)
INCHIAUX=N/A
PUBMED=N/A
SUBMITUSER=mwang87
TAGS=
LIBRARYQUALITY=3
SPECTRUMID=CCMSLIB00000426212
SCANS=1184
42.665 5.922 
44.628 100.0 
63.366 4.967 
81.259 25.655 
99.188 3.739 
142.179 3.248 
END IONS

BEGIN IONS
PEPMASS=103.04
CHARGE=1+
MSLEVEL=2
SOURCE_INSTRUMENT=Negative-Quattro_QQQ:25eV
FILENAME=hmdb_intermediate.mgf
SEQ=*..*
IONMODE=Negative
ORGANISM=HMDB
NAME=HMDB:HMDB00008-11 2-Hydroxybutyric acid M-H
PI=HMDB
DATACOLLECTOR=HMDB
SMILES=CCC(O)C(O)=O
INCHI=InChI=1S/C4H8O3/c1-2-3(5)4(6)7/h3,5H,2H2,1H3,(H,6,7)
INCHIAUX=N/A
PUBMED=N/A
SUBMITUSER=mwang87
TAGS=
LIBRARYQUALITY=3
SPECTRUMID=CCMSLIB00000426213
SCANS=1185
45.535 79.444 
57.501 100.0 
103.1 46.111 
END IONS

BEGIN IONS
PEPMASS=131.034
CHARGE=1+
MSLEVEL=2
SOURCE_INSTRUMENT=Negative-Quattro_QQQ:40eV
FILENAME=hmdb_intermediate.mgf
SEQ=*..*
IONMODE=Negative
ORGANISM=HMDB
NAME=HMDB:HMDB00622-845 Ethylmalonic acid M-H
PI=HMDB
DATACOLLECTOR=HMDB
SMILES=CCC(C(O)=O)C(O)=O
INCHI=InChI=1S/C5H8O4/c1-2-3(4(6)7)5(8)9/h3H,2H2,1H3,(H,6,7)(H,8,9)
INCHIAUX=N/A
PUBMED=N/A
SUBMITUSER=mwang87
TAGS=
LIBRARYQUALITY=3
SPECTRUMID=CCMSLIB00000426214
SCANS=1186
41.65 100.0 
45.63 18.883 
87.358 9.441 
END IONS

BEGIN IONS
PEPMASS=113.024
CHARGE=1+
MSLEVEL=2
SOURCE_INSTRUMENT=Positive-Quattro_QQQ:25eV
FILENAME=hmdb_intermediate.mgf
SEQ=*..*
IONMODE=Positive
ORGANISM=HMDB
NAME=HMDB:HMDB00444-648 3-Furoic acid M+H
PI=HMDB
DATACOLLECTOR=HMDB
SMILES=OC(=O)C1=COC=C1
INCHI=InChI=1S/C5H4O3/c6-5(7)4-1-2-8-3-4/h1-3H,(H,6,7)
INCHIAUX=N/A
PUBMED=N/A
SUBMITUSER=mwang87
TAGS=
LIBRARYQUALITY=3
SPECTRUMID=CCMSLIB00000426215
SCANS=1187
67.04 30.738 
81.4 16.452 
94.42 33.649 
95.1 100.0 
111.89 16.44 
END IONS

BEGIN IONS
PEPMASS=199.17
CHARGE=1+
MSLEVEL=2
SOURCE_INSTRUMENT=Positive-Quattro_QQQ:25eV
FILENAME=hmdb_intermediate.mgf
SEQ=*..*
IONMODE=Positive
ORGANISM=HMDB
NAME=HMDB:HMDB00529-750 5-Dodecenoic acid M+H
PI=HMDB
DATACOLLECTOR=HMDB
SMILES=CCCCCC\C=C/CCCC(O)=O
INCHI=InChI=1S/C12H22O2/c1-2-3-4-5-6-7-8-9-10-11-12(13)14/h7-8H,2-6,9-11H2,1H3,(H,13,14)/b8-7-
INCHIAUX=N/A
PUBMED=N/A
SUBMITUSER=mwang87
TAGS=
LIBRARYQUALITY=3
SPECTRUMID=CCMSLIB00000426216
SCANS=1188
43.0 24.182 
54.0 100.0 
56.0 30.466 
68.0 29.743 
82.0 26.143 
92.0 8.867 
96.0 19.93 
END IONS

BEGIN IONS
PEPMASS=465.304
CHARGE=1+
MSLEVEL=2
SOURCE_INSTRUMENT=Negative-Quattro_QQQ:40eV
FILENAME=hmdb_intermediate.mgf
SEQ=*..*
IONMODE=Negative
ORGANISM=HMDB
NAME=HMDB:HMDB00653-893 Cholesterol sulfate M-H
PI=HMDB
DATACOLLECTOR=HMDB
SMILES=[H][C@@]12CC[C@H]([C@H](C)CCCC(C)C)[C@@]1(C)CC[C@@]1([H])[C@@]2([H])CC=C2C[C@H](CC[C@]12C)OS(O)(=O)=O
INCHI=InChI=1S/C27H46O4S/c1-18(2)7-6-8-19(3)23-11-12-24-22-10-9-20-17-21(31-32(28,29)30)13-15-26(20,4)25(22)14-16-27(23,24)5/h9,18-19,21-25H,6-8,10-17H2,1-5H3,(H,28,29,30)/t19-,21+,22+,23-,24+,25+,26+,27-/m1/s1
INCHIAUX=N/A
PUBMED=N/A
SUBMITUSER=mwang87
TAGS=
LIBRARYQUALITY=3
SPECTRUMID=CCMSLIB00000426217
SCANS=1189
97.08 22.7176226115 
465.72 100.0 
END IONS

BEGIN IONS
PEPMASS=173.081
CHARGE=1+
MSLEVEL=2
SOURCE_INSTRUMENT=Positive-Quattro_QQQ:10eV
FILENAME=hmdb_intermediate.mgf
SEQ=*..*
IONMODE=Positive
ORGANISM=HMDB
NAME=HMDB:HMDB00341-549 2-Octenedioic acid M+H
PI=HMDB
DATACOLLECTOR=HMDB
SMILES=OC(=O)CCCC\C=C\C(O)=O
INCHI=InChI=1S/C8H12O4/c9-7(10)5-3-1-2-4-6-8(11)12/h3,5H,1-2,4,6H2,(H,9,10)(H,11,12)/b5-3+
INCHIAUX=N/A
PUBMED=N/A
SUBMITUSER=mwang87
TAGS=
LIBRARYQUALITY=3
SPECTRUMID=CCMSLIB00000426218
SCANS=1190
81.0 28.432 
85.0 6.12 
109.0 36.18 
127.0 19.201 
137.0 100.0 
155.0 9.492 
173.0 29.739 
END IONS

BEGIN IONS
PEPMASS=343.124
CHARGE=1+
MSLEVEL=2
SOURCE_INSTRUMENT=Positive-Quattro_QQQ:40eV
FILENAME=hmdb_intermediate.mgf
SEQ=*..*
IONMODE=Positive
ORGANISM=HMDB
NAME=HMDB:HMDB00975-1374 Trehalose M+H
PI=HMDB
DATACOLLECTOR=HMDB
SMILES=OC[C@H]1O[C@H](O[C@H]2O[C@H](CO)[C@@H](O)[C@H](O)[C@H]2O)[C@H](O)[C@@H](O)[C@@H]1O
INCHI=InChI=1S/C12H22O11/c13-1-3-5(15)7(17)9(19)11(21-3)23-12-10(20)8(18)6(16)4(2-14)22-12/h3-20H,1-2H2/t3-,4-,5-,6-,7+,8+,9-,10-,11-,12-/m1/s1
INCHIAUX=N/A
PUBMED=N/A
SUBMITUSER=mwang87
TAGS=
LIBRARYQUALITY=3
SPECTRUMID=CCMSLIB00000426219
SCANS=1191
61.0 22.443 
69.0 36.874 
85.0 100.0 
97.0 20.298 
END IONS

BEGIN IONS
PEPMASS=170.093
CHARGE=1+
MSLEVEL=2
SOURCE_INSTRUMENT=Positive-Quattro_QQQ:25eV
FILENAME=hmdb_intermediate.mgf
SEQ=*..*
IONMODE=Positive
ORGANISM=HMDB
NAME=HMDB:HMDB00479-696 3-Methylhistidine M+H
PI=HMDB
DATACOLLECTOR=HMDB
SMILES=CN1C=NC=C1C[C@H](N)C(O)=O
INCHI=InChI=1S/C7H11N3O2/c1-10-4-9-3-5(10)2-6(8)7(11)12/h3-4,6H,2,8H2,1H3,(H,11,12)/t6-/m0/s1
INCHIAUX=N/A
PUBMED=N/A
SUBMITUSER=mwang87
TAGS=
LIBRARYQUALITY=3
SPECTRUMID=CCMSLIB00000426220
SCANS=1192
41.372 4.116 
55.105 6.099 
67.971 18.474 
82.906 12.048 
95.843 100.0 
109.014 28.112 
124.95 5.07 
169.824 5.346 
END IONS

BEGIN IONS
PEPMASS=118.087
CHARGE=1+
MSLEVEL=2
SOURCE_INSTRUMENT=Positive-Quattro_QQQ:40eV
FILENAME=hmdb_intermediate.mgf
SEQ=*..*
IONMODE=Positive
ORGANISM=HMDB
NAME=HMDB:HMDB03355-2264 5-Aminopentanoic acid M+H
PI=HMDB
DATACOLLECTOR=HMDB
SMILES=NCCCCC(O)=O
INCHI=InChI=1S/C5H11NO2/c6-4-2-1-3-5(7)8/h1-4,6H2,(H,7,8)
INCHIAUX=N/A
PUBMED=N/A
SUBMITUSER=mwang87
TAGS=
LIBRARYQUALITY=3
SPECTRUMID=CCMSLIB00000426221
SCANS=1193
72.0 18.625 
83.0 63.694 
101.0 70.23 
118.0 100.0 
END IONS

BEGIN IONS
PEPMASS=113.035
CHARGE=1+
MSLEVEL=2
SOURCE_INSTRUMENT=Positive-Quattro_QQQ:10eV
FILENAME=hmdb_intermediate.mgf
SEQ=*..*
IONMODE=Positive
ORGANISM=HMDB
NAME=HMDB:HMDB00300-510 Uracil M+H
PI=HMDB
DATACOLLECTOR=HMDB
SMILES=O=C1NC=CC(=O)N1
INCHI=InChI=1S/C4H4N2O2/c7-3-1-2-5-4(8)6-3/h1-2H,(H2,5,6,7,8)
INCHIAUX=N/A
PUBMED=N/A
SUBMITUSER=mwang87
TAGS=
LIBRARYQUALITY=3
SPECTRUMID=CCMSLIB00000426222
SCANS=1194
70.093 22.84 
95.873 13.272 
112.944 100.0 
END IONS

BEGIN IONS
PEPMASS=289.18
CHARGE=1+
MSLEVEL=2
SOURCE_INSTRUMENT=Positive-Quattro_QQQ:10eV
FILENAME=hmdb_intermediate.mgf
SEQ=*..*
IONMODE=Positive
ORGANISM=HMDB
NAME=HMDB:HMDB00338-543 2-Hydroxyestradiol M+H
PI=HMDB
DATACOLLECTOR=HMDB
SMILES=[H][C@@]12CC[C@H](O)[C@@]1(C)CC[C@]1([H])C3=C(CC[C@@]21[H])C=C(O)C(O)=C3
INCHI=InChI=1S/C18H24O3/c1-18-7-6-11-12(14(18)4-5-17(18)21)3-2-10-8-15(19)16(20)9-13(10)11/h8-9,11-12,14,17,19-21H,2-7H2,1H3/t11-,12+,14-,17-,18-/m0/s1
INCHIAUX=N/A
PUBMED=N/A
SUBMITUSER=mwang87
TAGS=
LIBRARYQUALITY=3
SPECTRUMID=CCMSLIB00000426223
SCANS=1195
67.414 29.847 
81.405 23.485 
88.769 14.335 
96.378 35.511 
123.381 100.0 
131.359 57.819 
134.673 69.759 
149.894 37.341 
163.273 18.257 
174.935 47.361 
188.806 17.472 
203.537 18.082 
206.729 11.808 
230.055 11.634 
243.314 22.614 
245.892 11.634 
270.448 35.074 
289.725 53.027 
END IONS

BEGIN IONS
PEPMASS=263.023
CHARGE=1+
MSLEVEL=2
SOURCE_INSTRUMENT=Negative-Quattro_QQQ:10eV
FILENAME=hmdb_intermediate.mgf
SEQ=*..*
IONMODE=Negative
ORGANISM=HMDB
NAME=HMDB:HMDB03332-2248 3-Methoxy-4-Hydroxyphenylglycol sulfate M-H
PI=HMDB
DATACOLLECTOR=HMDB
SMILES=COC1=C(O)C=CC(=C1)C(CO)OS(O)(=O)=O
INCHI=InChI=1S/C9H12O7S/c1-15-8-4-6(2-3-7(8)11)9(5-10)16-17(12,13)14/h2-4,9-11H,5H2,1H3,(H,12,13,14)
INCHIAUX=N/A
PUBMED=N/A
SUBMITUSER=mwang87
TAGS=
LIBRARYQUALITY=3
SPECTRUMID=CCMSLIB00000426224
SCANS=1196
79.0 1.983 
149.0 3.173 
164.0 9.173 
165.0 5.662 
182.0 4.685 
202.0 3.235 
262.0 100.0 
END IONS

BEGIN IONS
PEPMASS=138.092
CHARGE=1+
MSLEVEL=2
SOURCE_INSTRUMENT=Positive-Quattro_QQQ:10eV
FILENAME=hmdb_intermediate.mgf
SEQ=*..*
IONMODE=Positive
ORGANISM=HMDB
NAME=HMDB:HMDB01065-1409 2-Hydroxyphenethylamine M+H
PI=HMDB
DATACOLLECTOR=HMDB
SMILES=NCC(O)C1=CC=CC=C1
INCHI=InChI=1S/C8H11NO/c9-6-8(10)7-4-2-1-3-5-7/h1-5,8,10H,6,9H2
INCHIAUX=N/A
PUBMED=N/A
SUBMITUSER=mwang87
TAGS=
LIBRARYQUALITY=3
SPECTRUMID=CCMSLIB00000426225
SCANS=1197
465.72 100.0 
END IONS

BEGIN IONS
PEPMASS=308.092
CHARGE=1+
MSLEVEL=2
SOURCE_INSTRUMENT=Positive-Quattro_QQQ:40eV
FILENAME=hmdb_intermediate.mgf
SEQ=*..*
IONMODE=Positive
ORGANISM=HMDB
NAME=HMDB:HMDB00125-188 Glutathione M+H
PI=HMDB
DATACOLLECTOR=HMDB
SMILES=N[C@@H](CCC(=O)N[C@@H](CS)C(=O)NCC(O)=O)C(O)=O
INCHI=InChI=1S/C10H17N3O6S/c11-5(10(18)19)1-2-7(14)13-6(4-20)9(17)12-3-8(15)16/h5-6,20H,1-4,11H2,(H,12,17)(H,13,14)(H,15,16)(H,18,19)/t5-,6-/m0/s1
INCHIAUX=N/A
PUBMED=N/A
SUBMITUSER=mwang87
TAGS=
LIBRARYQUALITY=3
SPECTRUMID=CCMSLIB00000426226
SCANS=1198
56.281 10.021 
74.057 4.483 
84.089 100.0 
85.315 16.561 
113.289 3.27 
115.967 6.382 
130.146 6.013 
END IONS

BEGIN IONS
PEPMASS=118.087
CHARGE=1+
MSLEVEL=2
SOURCE_INSTRUMENT=Positive-Quattro_QQQ:10eV
FILENAME=hmdb_intermediate.mgf
SEQ=*..*
IONMODE=Positive
ORGANISM=HMDB
NAME=HMDB:HMDB00043-72 Betaine M+H
PI=HMDB
DATACOLLECTOR=HMDB
SMILES=C[N+](C)(C)CC([O-])=O
INCHI=InChI=1S/C5H11NO2/c1-6(2,3)4-5(7)8/h4H2,1-3H3
INCHIAUX=N/A
PUBMED=N/A
SUBMITUSER=mwang87
TAGS=
LIBRARYQUALITY=3
SPECTRUMID=CCMSLIB00000426227
SCANS=1199
59.049 7.613 
118.024 100.0 
END IONS

BEGIN IONS
PEPMASS=104.071
CHARGE=1+
MSLEVEL=2
SOURCE_INSTRUMENT=Positive-Quattro_QQQ:10eV
FILENAME=hmdb_intermediate.mgf
SEQ=*..*
IONMODE=Positive
ORGANISM=HMDB
NAME=HMDB:HMDB00092-141 Dimethylglycine M+H
PI=HMDB
DATACOLLECTOR=HMDB
SMILES=CN(C)CC(O)=O
INCHI=InChI=1S/C4H9NO2/c1-5(2)3-4(6)7/h3H2,1-2H3,(H,6,7)
INCHIAUX=N/A
PUBMED=N/A
SUBMITUSER=mwang87
TAGS=
LIBRARYQUALITY=3
SPECTRUMID=CCMSLIB00000426228
SCANS=1200
58.201 100.0 
104.321 31.084 
104.572 22.517 
END IONS

BEGIN IONS
PEPMASS=324.06
CHARGE=1+
MSLEVEL=2
SOURCE_INSTRUMENT=Positive-Quattro_QQQ:25eV
FILENAME=hmdb_intermediate.mgf
SEQ=*..*
IONMODE=Positive
ORGANISM=HMDB
NAME=HMDB:HMDB00095-148 Cytidine monophosphate M+H
PI=HMDB
DATACOLLECTOR=HMDB
SMILES=NC1=NC(=O)N(C=C1)[C@@H]1O[C@H](COP(O)(O)=O)[C@@H](O)[C@H]1O
INCHI=InChI=1S/C9H14N3O8P/c10-5-1-2-12(9(15)11-5)8-7(14)6(13)4(20-8)3-19-21(16,17)18/h1-2,4,6-8,13-14H,3H2,(H2,10,11,15)(H2,16,17,18)/t4-,6-,7-,8-/m1/s1
INCHIAUX=N/A
PUBMED=N/A
SUBMITUSER=mwang87
TAGS=
LIBRARYQUALITY=3
SPECTRUMID=CCMSLIB00000426229
SCANS=1201
97.0 6.441 
112.0 100.0 
END IONS

BEGIN IONS
PEPMASS=343.124
CHARGE=1+
MSLEVEL=2
SOURCE_INSTRUMENT=Positive-Quattro_QQQ:25eV
FILENAME=hmdb_intermediate.mgf
SEQ=*..*
IONMODE=Positive
ORGANISM=HMDB
NAME=HMDB:HMDB00163-258 D-Maltose M+H
PI=HMDB
DATACOLLECTOR=HMDB
SMILES=OC[C@H]1O[C@H](O[C@H]2[C@H](O)[C@H](O)[C@@H](O)O[C@@H]2CO)[C@H](O)[C@@H](O)[C@@H]1O
INCHI=InChI=1S/C12H22O11/c13-1-3-5(15)6(16)9(19)12(22-3)23-10-4(2-14)21-11(20)8(18)7(10)17/h3-20H,1-2H2/t3-,4-,5-,6+,7-,8+,9-,10-,11+,12-/m1/s1
INCHIAUX=N/A
PUBMED=N/A
SUBMITUSER=mwang87
TAGS=
LIBRARYQUALITY=3
SPECTRUMID=CCMSLIB00000426230
SCANS=1202
84.48 78.753 
104.75 46.839 
121.45 56.783 
140.87 62.452 
158.57 48.86 
171.15 45.96 
182.66 65.896 
192.52 100.0 
200.1 48.837 
215.68 54.046 
231.27 45.541 
239.55 51.581 
295.8 42.189 
342.27 41.764 
END IONS

BEGIN IONS
PEPMASS=208.097
CHARGE=1+
MSLEVEL=2
SOURCE_INSTRUMENT=Positive-Quattro_QQQ:40eV
FILENAME=hmdb_intermediate.mgf
SEQ=*..*
IONMODE=Positive
ORGANISM=HMDB
NAME=HMDB:HMDB00860-1216 Phenylpropionylglycine M+H
PI=HMDB
DATACOLLECTOR=HMDB
SMILES=OC(=O)CNC(=O)CCC1=CC=CC=C1
INCHI=InChI=1S/C11H13NO3/c13-10(12-8-11(14)15)7-6-9-4-2-1-3-5-9/h1-5H,6-8H2,(H,12,13)(H,14,15)
INCHIAUX=N/A
PUBMED=N/A
SUBMITUSER=mwang87
TAGS=
LIBRARYQUALITY=3
SPECTRUMID=CCMSLIB00000426231
SCANS=1203
65.411 12.319 
77.258 85.145 
91.273 100.0 
103.233 33.333 
105.23 91.304 
END IONS

BEGIN IONS
PEPMASS=179.034
CHARGE=1+
MSLEVEL=2
SOURCE_INSTRUMENT=Negative-Quattro_QQQ:10eV
FILENAME=hmdb_intermediate.mgf
SEQ=*..*
IONMODE=Negative
ORGANISM=HMDB
NAME=HMDB:HMDB00707-990 4-Hydroxyphenylpyruvic acid M-H
PI=HMDB
DATACOLLECTOR=HMDB
SMILES=OC(=O)C(=O)CC1=CC=C(O)C=C1
INCHI=InChI=1S/C9H8O4/c10-7-3-1-6(2-4-7)5-8(11)9(12)13/h1-4,10H,5H2,(H,12,13)
INCHIAUX=N/A
PUBMED=N/A
SUBMITUSER=mwang87
TAGS=
LIBRARYQUALITY=3
SPECTRUMID=CCMSLIB00000426232
SCANS=1204
106.959 100.0 
120.919 2.269 
178.888 6.713 
END IONS

BEGIN IONS
PEPMASS=133.05
CHARGE=1+
MSLEVEL=2
SOURCE_INSTRUMENT=Positive-Quattro_QQQ:40eV
FILENAME=hmdb_intermediate.mgf
SEQ=*..*
IONMODE=Positive
ORGANISM=HMDB
NAME=HMDB:HMDB01844-1698 Methylsuccinic acid M+H
PI=HMDB
DATACOLLECTOR=HMDB
SMILES=CC(CC(O)=O)C(O)=O
INCHI=InChI=1S/C5H8O4/c1-3(5(8)9)2-4(6)7/h3H,2H2,1H3,(H,6,7)(H,8,9)
INCHIAUX=N/A
PUBMED=N/A
SUBMITUSER=mwang87
TAGS=
LIBRARYQUALITY=3
SPECTRUMID=CCMSLIB00000426233
SCANS=1205
53.5 28.12500118 
59.0 54.1666694987 
69.0 67.7083330973 
87.0 100.0 
121.3 26.0416683187 
END IONS

BEGIN IONS
PEPMASS=153.055
CHARGE=1+
MSLEVEL=2
SOURCE_INSTRUMENT=Positive-Quattro_QQQ:10eV
FILENAME=hmdb_intermediate.mgf
SEQ=*..*
IONMODE=Positive
ORGANISM=HMDB
NAME=HMDB:HMDB01101-1421 p-Anisic acid M+H
PI=HMDB
DATACOLLECTOR=HMDB
SMILES=COC1=CC=C(C=C1)C(O)=O
INCHI=InChI=1S/C8H8O3/c1-11-7-4-2-6(3-5-7)8(9)10/h2-5H,1H3,(H,9,10)
INCHIAUX=N/A
PUBMED=N/A
SUBMITUSER=mwang87
TAGS=
LIBRARYQUALITY=3
SPECTRUMID=CCMSLIB00000426234
SCANS=1206
108.88 100.0 
134.81 39.947 
152.8 49.143 
END IONS

BEGIN IONS
PEPMASS=364.066
CHARGE=1+
MSLEVEL=2
SOURCE_INSTRUMENT=Positive-Quattro_QQQ:40eV
FILENAME=hmdb_intermediate.mgf
SEQ=*..*
IONMODE=Positive
ORGANISM=HMDB
NAME=HMDB:HMDB01397-1555 Guanosine monophosphate M+H
PI=HMDB
DATACOLLECTOR=HMDB
SMILES=NC1=NC2=C(N=CN2[C@@H]2O[C@H](COP(O)(O)=O)[C@@H](O)[C@H]2O)C(=O)N1
INCHI=InChI=1S/C10H14N5O8P/c11-10-13-7-4(8(18)14-10)12-2-15(7)9-6(17)5(16)3(23-9)1-22-24(19,20)21/h2-3,5-6,9,16-17H,1H2,(H2,19,20,21)(H3,11,13,14,18)/t3-,5-,6-,9-/m1/s1
INCHIAUX=N/A
PUBMED=N/A
SUBMITUSER=mwang87
TAGS=
LIBRARYQUALITY=3
SPECTRUMID=CCMSLIB00000426235
SCANS=1207
97.0 12.683 
110.0 15.044 
134.0 4.658 
135.0 49.044 
152.0 100.0 
END IONS

BEGIN IONS
PEPMASS=315.232
CHARGE=1+
MSLEVEL=2
SOURCE_INSTRUMENT=Positive-Quattro_QQQ:25eV
FILENAME=hmdb_intermediate.mgf
SEQ=*..*
IONMODE=Positive
ORGANISM=HMDB
NAME=HMDB:HMDB01830-1685 Progesterone M+H
PI=HMDB
DATACOLLECTOR=HMDB
SMILES=[H][C@@]12CC[C@H](C(C)=O)[C@@]1(C)CC[C@@]1([H])[C@@]2([H])CCC2=CC(=O)CC[C@]12C
INCHI=InChI=1S/C21H30O2/c1-13(22)17-6-7-18-16-5-4-14-12-15(23)8-10-20(14,2)19(16)9-11-21(17,18)3/h12,16-19H,4-11H2,1-3H3/t16-,17+,18-,19-,20-,21+/m0/s1
INCHIAUX=N/A
PUBMED=N/A
SUBMITUSER=mwang87
TAGS=
LIBRARYQUALITY=3
SPECTRUMID=CCMSLIB00000426236
SCANS=1208
43.572 3.413 
81.335 5.452 
85.312 3.901 
97.265 100.0 
109.219 90.071 
123.203 8.023 
133.195 2.97 
145.178 3.546 
159.183 3.502 
173.158 3.103 
177.154 1.917 
END IONS

BEGIN IONS
PEPMASS=289.18
CHARGE=1+
MSLEVEL=2
SOURCE_INSTRUMENT=Positive-Quattro_QQQ:40eV
FILENAME=hmdb_intermediate.mgf
SEQ=*..*
IONMODE=Positive
ORGANISM=HMDB
NAME=HMDB:HMDB00338-545 2-Hydroxyestradiol M+H
PI=HMDB
DATACOLLECTOR=HMDB
SMILES=[H][C@@]12CC[C@H](O)[C@@]1(C)CC[C@]1([H])C3=C(CC[C@@]21[H])C=C(O)C(O)=C3
INCHI=InChI=1S/C18H24O3/c1-18-7-6-11-12(14(18)4-5-17(18)21)3-2-10-8-15(19)16(20)9-13(10)11/h8-9,11-12,14,17,19-21H,2-7H2,1H3/t11-,12+,14-,17-,18-/m0/s1
INCHIAUX=N/A
PUBMED=N/A
SUBMITUSER=mwang87
TAGS=
LIBRARYQUALITY=3
SPECTRUMID=CCMSLIB00000426237
SCANS=1209
53.668 15.088 
68.518 26.34 
76.864 30.944 
91.96 100.0 
102.638 32.994 
113.071 13.044 
123.994 13.554 
126.94 15.088 
144.002 23.271 
154.435 58.566 
157.013 11.509 
167.079 14.063 
176.776 45.78 
187.21 12.528 
195.312 18.157 
205.133 10.484 
222.689 13.554 
232.51 17.648 
243.682 18.157 
250.312 15.088 
257.924 12.528 
267.133 17.132 
280.27 15.598 
288.497 12.528 
303.477 18.157 
310.108 16.623 
323.615 10.484 
330.123 12.019 
340.07 17.648 
348.298 12.019 
END IONS

BEGIN IONS
PEPMASS=130.998
CHARGE=1+
MSLEVEL=2
SOURCE_INSTRUMENT=Negative-Quattro_QQQ:10eV
FILENAME=hmdb_intermediate.mgf
SEQ=*..*
IONMODE=Negative
ORGANISM=HMDB
NAME=HMDB:HMDB00223-367 Oxalacetic acid M-H
PI=HMDB
DATACOLLECTOR=HMDB
SMILES=OC(=O)CC(=O)C(O)=O
INCHI=InChI=1S/C4H4O5/c5-2(4(8)9)1-3(6)7/h1H2,(H,6,7)(H,8,9)
INCHIAUX=N/A
PUBMED=N/A
SUBMITUSER=mwang87
TAGS=
LIBRARYQUALITY=3
SPECTRUMID=CCMSLIB00000426238
SCANS=1210
43.62 7.995 
87.288 100.0 
131.13 5.377 
END IONS

BEGIN IONS
PEPMASS=142.027
CHARGE=1+
MSLEVEL=2
SOURCE_INSTRUMENT=Positive-Quattro_QQQ:25eV
FILENAME=hmdb_intermediate.mgf
SEQ=*..*
IONMODE=Positive
ORGANISM=HMDB
NAME=HMDB:HMDB00224-371 O-Phosphoethanolamine M+H
PI=HMDB
DATACOLLECTOR=HMDB
SMILES=NCCOP(O)(O)=O
INCHI=InChI=1S/C2H8NO4P/c3-1-2-7-8(4,5)6/h1-3H2,(H2,4,5,6)
INCHIAUX=N/A
PUBMED=N/A
SUBMITUSER=mwang87
TAGS=
LIBRARYQUALITY=3
SPECTRUMID=CCMSLIB00000426239
SCANS=1211
44.621 100.0 
END IONS

BEGIN IONS
PEPMASS=165.019
CHARGE=1+
MSLEVEL=2
SOURCE_INSTRUMENT=Negative-Quattro_QQQ:25eV
FILENAME=hmdb_intermediate.mgf
SEQ=*..*
IONMODE=Negative
ORGANISM=HMDB
NAME=HMDB:HMDB02428-2105 Terephthalic acid M-H
PI=HMDB
DATACOLLECTOR=HMDB
SMILES=OC(=O)C1=CC=C(C=C1)C(O)=O
INCHI=InChI=1S/C8H6O4/c9-7(10)5-1-2-6(4-3-5)8(11)12/h1-4H,(H,9,10)(H,11,12)
INCHIAUX=N/A
PUBMED=N/A
SUBMITUSER=mwang87
TAGS=
LIBRARYQUALITY=3
SPECTRUMID=CCMSLIB00000426240
SCANS=1212
76.0 100.0 
120.0 88.38 
END IONS

BEGIN IONS
PEPMASS=105.066
CHARGE=1+
MSLEVEL=2
SOURCE_INSTRUMENT=Positive-Quattro_QQQ:10eV
FILENAME=hmdb_intermediate.mgf
SEQ=*..*
IONMODE=Positive
ORGANISM=HMDB
NAME=HMDB:HMDB02006-1944 2,3-Diaminopropionic acid M+H
PI=HMDB
DATACOLLECTOR=HMDB
SMILES=NC[C@H](N)C(O)=O
INCHI=InChI=1S/C3H8N2O2/c4-1-2(5)3(6)7/h2H,1,4-5H2,(H,6,7)/t2-/m0/s1
INCHIAUX=N/A
PUBMED=N/A
SUBMITUSER=mwang87
TAGS=
LIBRARYQUALITY=3
SPECTRUMID=CCMSLIB00000426241
SCANS=1213
70.0 19.108 
76.0 3.956 
88.0 100.0 
105.0 19.269 
END IONS

BEGIN IONS
PEPMASS=302.055
CHARGE=1+
MSLEVEL=2
SOURCE_INSTRUMENT=Positive-Quattro_QQQ:25eV
FILENAME=hmdb_intermediate.mgf
SEQ=*..*
IONMODE=Positive
ORGANISM=HMDB
NAME=HMDB:HMDB00781-1111 N-Acetylgalactosamine 4-sulphate M+H
PI=HMDB
DATACOLLECTOR=HMDB
SMILES=CC(=O)N[C@H]1[C@H](O)O[C@H](CO)[C@H](OS(O)(=O)=O)[C@@H]1O
INCHI=InChI=1S/C8H15NO9S/c1-3(11)9-5-6(12)7(18-19(14,15)16)4(2-10)17-8(5)13/h4-8,10,12-13H,2H2,1H3,(H,9,11)(H,14,15,16)/t4-,5-,6-,7+,8-/m1/s1
INCHIAUX=N/A
PUBMED=N/A
SUBMITUSER=mwang87
TAGS=
LIBRARYQUALITY=3
SPECTRUMID=CCMSLIB00000426242
SCANS=1214
84.0 76.265 
96.0 15.529 
126.0 100.0 
138.0 38.296 
186.0 5.943 
204.0 5.126 
END IONS

BEGIN IONS
PEPMASS=176.056
CHARGE=1+
MSLEVEL=2
SOURCE_INSTRUMENT=Positive-Quattro_QQQ:25eV
FILENAME=hmdb_intermediate.mgf
SEQ=*..*
IONMODE=Positive
ORGANISM=HMDB
NAME=HMDB:HMDB00812-1162 N-Acetyl-L-aspartic acid M+H
PI=HMDB
DATACOLLECTOR=HMDB
SMILES=CC(=O)N[C@@H](CC(O)=O)C(O)=O
INCHI=InChI=1S/C6H9NO5/c1-3(8)7-4(6(11)12)2-5(9)10/h4H,2H2,1H3,(H,7,8)(H,9,10)(H,11,12)/t4-/m0/s1
INCHIAUX=N/A
PUBMED=N/A
SUBMITUSER=mwang87
TAGS=
LIBRARYQUALITY=3
SPECTRUMID=CCMSLIB00000426243
SCANS=1215
43.315 31.952 
46.306 9.893 
74.106 100.0 
88.074 71.658 
98.864 7.186 
115.986 9.225 
133.905 10.963 
END IONS

BEGIN IONS
PEPMASS=516.299
CHARGE=1+
MSLEVEL=2
SOURCE_INSTRUMENT=Positive-Quattro_QQQ:10eV
FILENAME=hmdb_intermediate.mgf
SEQ=*..*
IONMODE=Positive
ORGANISM=HMDB
NAME=HMDB:HMDB00036-60 Taurocholic acid M+H
PI=HMDB
DATACOLLECTOR=HMDB
SMILES=[H][C@@]12C[C@H](O)CCC1(C)C1C[C@H](O)C3(C)C(CCC3C1[C@H](O)C2)C(C)CCC(=O)NCCS(O)(=O)=O
INCHI=InChI=1S/C26H45NO7S/c1-15(4-7-23(31)27-10-11-35(32,33)34)18-5-6-19-24-20(14-22(30)26(18,19)3)25(2)9-8-17(28)12-16(25)13-21(24)29/h15-22,24,28-30H,4-14H2,1-3H3,(H,27,31)(H,32,33,34)/t15?,16-,17+,18?,19?,20?,21+,22-,24?,25?,26?/m0/s1
INCHIAUX=N/A
PUBMED=N/A
SUBMITUSER=mwang87
TAGS=
LIBRARYQUALITY=3
SPECTRUMID=CCMSLIB00000426244
SCANS=1216
336.77 7.77 
461.85 67.263 
479.83 62.893 
497.94 76.838 
515.84 100.0 
END IONS

BEGIN IONS
PEPMASS=397.405
CHARGE=1+
MSLEVEL=2
SOURCE_INSTRUMENT=Positive-Quattro_QQQ:10eV
FILENAME=hmdb_intermediate.mgf
SEQ=*..*
IONMODE=Positive
ORGANISM=HMDB
NAME=HMDB:HMDB60125-2076 Hexacosanoic acid M+H
PI=HMDB
DATACOLLECTOR=HMDB
SMILES=CCCCCCCCCCCCCCCCCCCCCCCCCC(O)=O
INCHI=InChI=1S/C26H52O2/c1-2-3-4-5-6-7-8-9-10-11-12-13-14-15-16-17-18-19-20-21-22-23-24-25-26(27)28/h2-25H2,1H3,(H,27,28)
INCHIAUX=N/A
PUBMED=N/A
SUBMITUSER=mwang87
TAGS=
LIBRARYQUALITY=3
SPECTRUMID=CCMSLIB00000426245
SCANS=1217
105.71 45.41 
158.7 56.201 
226.28 34.766 
270.2 31.512 
310.46 52.79 
338.85 40.967 
347.05 42.969 
356.45 100.0 
380.19 36.72 
388.7 50.367 
396.99 82.061 
END IONS

BEGIN IONS
PEPMASS=137.133
CHARGE=1+
MSLEVEL=2
SOURCE_INSTRUMENT=Positive-Quattro_QQQ:10eV
FILENAME=hmdb_intermediate.mgf
SEQ=*..*
IONMODE=Positive
ORGANISM=HMDB
NAME=HMDB:HMDB05806-2451 Gamma-terpinene M+H
PI=HMDB
DATACOLLECTOR=HMDB
SMILES=CC(C)C1=CCC(C)=CC1
INCHI=InChI=1S/C10H16/c1-8(2)10-6-4-9(3)5-7-10/h4,7-8H,5-6H2,1-3H3
INCHIAUX=N/A
PUBMED=N/A
SUBMITUSER=mwang87
TAGS=
LIBRARYQUALITY=3
SPECTRUMID=CCMSLIB00000426246
SCANS=1218
80.7 68.547 
94.71 48.61 
136.66 100.0 
END IONS

BEGIN IONS
PEPMASS=188.071
CHARGE=1+
MSLEVEL=2
SOURCE_INSTRUMENT=Positive-Quattro_QQQ:40eV
FILENAME=hmdb_intermediate.mgf
SEQ=*..*
IONMODE=Positive
ORGANISM=HMDB
NAME=HMDB:HMDB00734-1040 Indoleacrylic acid M+H
PI=HMDB
DATACOLLECTOR=HMDB
SMILES=OC(=O)\C=C\C1=CC2=C(N1)C=CC=C2
INCHI=InChI=1S/C11H9NO2/c13-11(14)6-5-9-7-8-3-1-2-4-10(8)12-9/h1-7,12H,(H,13,14)/b6-5+
INCHIAUX=N/A
PUBMED=N/A
SUBMITUSER=mwang87
TAGS=
LIBRARYQUALITY=3
SPECTRUMID=CCMSLIB00000426247
SCANS=1219
52.779 16.825 
68.443 29.878 
79.938 22.799 
93.075 65.273 
102.929 22.908 
105.455 16.493 
119.731 100.0 
128.447 16.05 
146.892 25.453 
END IONS

BEGIN IONS
PEPMASS=273.185
CHARGE=1+
MSLEVEL=2
SOURCE_INSTRUMENT=Positive-Quattro_QQQ:40eV
FILENAME=hmdb_intermediate.mgf
SEQ=*..*
IONMODE=Positive
ORGANISM=HMDB
NAME=HMDB:HMDB00151-232 Estradiol M+H
PI=HMDB
DATACOLLECTOR=HMDB
SMILES=[H][C@@]12CC[C@H](O)[C@@]1(C)CC[C@]1([H])C3=C(CC[C@@]21[H])C=C(O)C=C3
INCHI=InChI=1S/C18H24O2/c1-18-9-8-14-13-5-3-12(19)10-11(13)2-4-15(14)16(18)6-7-17(18)20/h3,5,10,14-17,19-20H,2,4,6-9H2,1H3/t14-,15-,16+,17+,18+/m1/s1
INCHIAUX=N/A
PUBMED=N/A
SUBMITUSER=mwang87
TAGS=
LIBRARYQUALITY=3
SPECTRUMID=CCMSLIB00000426248
SCANS=1220
55.209 6.539 
67.145 13.368 
79.082 26.157 
93.064 15.046 
94.945 5.208 
107.0 100.0 
132.936 5.787 
144.07 5.208 
END IONS

BEGIN IONS
PEPMASS=117.055
CHARGE=1+
MSLEVEL=2
SOURCE_INSTRUMENT=Positive-Quattro_QQQ:10eV
FILENAME=hmdb_intermediate.mgf
SEQ=*..*
IONMODE=Positive
ORGANISM=HMDB
NAME=HMDB:HMDB00720-1011 Levulinic acid M+H
PI=HMDB
DATACOLLECTOR=HMDB
SMILES=CC(=O)CCC(O)=O
INCHI=InChI=1S/C5H8O3/c1-4(6)2-3-5(7)8/h2-3H2,1H3,(H,7,8)
INCHIAUX=N/A
PUBMED=N/A
SUBMITUSER=mwang87
TAGS=
LIBRARYQUALITY=3
SPECTRUMID=CCMSLIB00000426249
SCANS=1221
71.164 100.0 
97.058 11.796 
115.005 51.056 
END IONS

BEGIN IONS
PEPMASS=313.311
CHARGE=1+
MSLEVEL=2
SOURCE_INSTRUMENT=Positive-Quattro_QQQ:25eV
FILENAME=hmdb_intermediate.mgf
SEQ=*..*
IONMODE=Positive
ORGANISM=HMDB
NAME=HMDB:HMDB02212-2035 Arachidic acid M+H
PI=HMDB
DATACOLLECTOR=HMDB
SMILES=CCCCCCCCCCCCCCCCCCCC(O)=O
INCHI=InChI=1S/C20H40O2/c1-2-3-4-5-6-7-8-9-10-11-12-13-14-15-16-17-18-19-20(21)22/h2-19H2,1H3,(H,21,22)
INCHIAUX=N/A
PUBMED=N/A
SUBMITUSER=mwang87
TAGS=
LIBRARYQUALITY=3
SPECTRUMID=CCMSLIB00000426250
SCANS=1222
54.0 13.195 
57.0 100.0 
70.0 39.74 
82.0 20.628 
88.0 23.183 
96.0 19.194 
123.0 9.661 
138.0 13.134 
149.0 7.923 
166.0 9.046 
179.0 7.961 
188.0 19.072 
251.0 14.104 
313.0 16.392 
END IONS

BEGIN IONS
PEPMASS=667.23
CHARGE=1+
MSLEVEL=2
SOURCE_INSTRUMENT=Positive-Quattro_QQQ:25eV
FILENAME=hmdb_intermediate.mgf
SEQ=*..*
IONMODE=Positive
ORGANISM=HMDB
NAME=HMDB:HMDB01296-1508 Maltotetraose M+H
PI=HMDB
DATACOLLECTOR=HMDB
SMILES=OC[C@H]1O[C@H](O[C@H]2[C@H](O)[C@@H](O)[C@@H](O[C@H]3[C@H](O)[C@@H](O)[C@@H](O[C@H]4[C@H](O)[C@@H](O)C(O)O[C@@H]4CO)O[C@@H]3CO)O[C@@H]2CO)[C@H](O)[C@@H](O)[C@@H]1O
INCHI=InChI=1S/C24H42O21/c25-1-5-9(29)10(30)15(35)22(40-5)44-19-7(3-27)42-24(17(37)12(19)32)45-20-8(4-28)41-23(16(36)13(20)33)43-18-6(2-26)39-21(38)14(34)11(18)31/h5-38H,1-4H2/t5-,6-,7-,8-,9-,10+,11-,12-,13-,14-,15-,16-,17-,18-,19-,20-,21?,22-,23-,24-/m1/s1
INCHIAUX=N/A
PUBMED=N/A
SUBMITUSER=mwang87
TAGS=
LIBRARYQUALITY=3
SPECTRUMID=CCMSLIB00000426251
SCANS=1223
85.0 9.716 
145.0 20.039 
163.0 100.0 
325.0 39.249 
END IONS

BEGIN IONS
PEPMASS=167.071
CHARGE=1+
MSLEVEL=2
SOURCE_INSTRUMENT=Positive-Quattro_QQQ:10eV
FILENAME=hmdb_intermediate.mgf
SEQ=*..*
IONMODE=Positive
ORGANISM=HMDB
NAME=HMDB:HMDB02229-2040 3-Phenoxypropionic acid M+H
PI=HMDB
DATACOLLECTOR=HMDB
SMILES=OC(=O)CCOC1=CC=CC=C1
INCHI=InChI=1S/C9H10O3/c10-9(11)6-7-12-8-4-2-1-3-5-8/h1-5H,6-7H2,(H,10,11)
INCHIAUX=N/A
PUBMED=N/A
SUBMITUSER=mwang87
TAGS=
LIBRARYQUALITY=3
SPECTRUMID=CCMSLIB00000426252
SCANS=1224
85.0 15.276 
103.0 46.552 
107.0 19.503 
119.0 45.486 
134.0 13.619 
135.0 27.926 
149.0 100.0 
167.0 11.527 
END IONS

BEGIN IONS
PEPMASS=261.038
CHARGE=1+
MSLEVEL=2
SOURCE_INSTRUMENT=Positive-Quattro_QQQ:10eV
FILENAME=hmdb_intermediate.mgf
SEQ=*..*
IONMODE=Positive
ORGANISM=HMDB
NAME=HMDB:HMDB00124-183 Fructose 6-phosphate M+H
PI=HMDB
DATACOLLECTOR=HMDB
SMILES=OCC(=O)[C@@H](O)[C@H](O)[C@H](O)COP(O)(O)=O
INCHI=InChI=1S/C6H13O9P/c7-1-3(8)5(10)6(11)4(9)2-15-16(12,13)14/h4-7,9-11H,1-2H2,(H2,12,13,14)/t4-,5-,6-/m1/s1
INCHIAUX=N/A
PUBMED=N/A
SUBMITUSER=mwang87
TAGS=
LIBRARYQUALITY=3
SPECTRUMID=CCMSLIB00000426253
SCANS=1225
70.019 38.561 
74.715 45.609 
220.195 36.936 
261.364 100.0 
END IONS

BEGIN IONS
PEPMASS=343.124
CHARGE=1+
MSLEVEL=2
SOURCE_INSTRUMENT=Positive-Quattro_QQQ:40eV
FILENAME=hmdb_intermediate.mgf
SEQ=*..*
IONMODE=Positive
ORGANISM=HMDB
NAME=HMDB:HMDB00055-89 Cellobiose M+H
PI=HMDB
DATACOLLECTOR=HMDB
SMILES=OC[C@H]1O[C@@H](O[C@H]2[C@H](O)[C@@H](O)[C@H](O)O[C@@H]2CO)[C@H](O)[C@@H](O)[C@@H]1O
INCHI=InChI=1S/C12H22O11/c13-1-3-5(15)6(16)9(19)12(22-3)23-10-4(2-14)21-11(20)8(18)7(10)17/h3-20H,1-2H2/t3-,4-,5-,6+,7-,8-,9-,10-,11-,12+/m1/s1
INCHIAUX=N/A
PUBMED=N/A
SUBMITUSER=mwang87
TAGS=
LIBRARYQUALITY=3
SPECTRUMID=CCMSLIB00000426254
SCANS=1226
43.573 8.984 
53.487 4.297 
61.367 17.448 
69.325 29.948 
81.23 11.458 
85.245 100.0 
97.183 15.234 
109.107 6.738 
127.078 8.984 
145.02 6.543 
163.028 3.646 
END IONS

BEGIN IONS
PEPMASS=179.034
CHARGE=1+
MSLEVEL=2
SOURCE_INSTRUMENT=Negative-Quattro_QQQ:40eV
FILENAME=hmdb_intermediate.mgf
SEQ=*..*
IONMODE=Negative
ORGANISM=HMDB
NAME=HMDB:HMDB00707-992 4-Hydroxyphenylpyruvic acid M-H
PI=HMDB
DATACOLLECTOR=HMDB
SMILES=OC(=O)C(=O)CC1=CC=C(O)C=C1
INCHI=InChI=1S/C9H8O4/c10-7-3-1-6(2-4-7)5-8(11)9(12)13/h1-4,10H,5H2,(H,12,13)
INCHIAUX=N/A
PUBMED=N/A
SUBMITUSER=mwang87
TAGS=
LIBRARYQUALITY=3
SPECTRUMID=CCMSLIB00000426255
SCANS=1227
41.281 9.835 
77.058 88.235 
89.04 11.857 
104.036 56.618 
106.932 94.118 
115.988 29.412 
131.984 100.0 
178.917 38.603 
END IONS

BEGIN IONS
PEPMASS=241.13
CHARGE=1+
MSLEVEL=2
SOURCE_INSTRUMENT=Positive-Quattro_QQQ:10eV
FILENAME=hmdb_intermediate.mgf
SEQ=*..*
IONMODE=Positive
ORGANISM=HMDB
NAME=HMDB:HMDB00194-313 Anserine M+H
PI=HMDB
DATACOLLECTOR=HMDB
SMILES=CN1C=NC=C1C[C@H](NC(=O)CCN)C(O)=O
INCHI=InChI=1S/C10H16N4O3/c1-14-6-12-5-7(14)4-8(10(16)17)13-9(15)2-3-11/h5-6,8H,2-4,11H2,1H3,(H,13,15)(H,16,17)/t8-/m0/s1
INCHIAUX=N/A
PUBMED=N/A
SUBMITUSER=mwang87
TAGS=
LIBRARYQUALITY=3
SPECTRUMID=CCMSLIB00000426256
SCANS=1228
94.73 24.129 
120.668 35.225 
158.887 100.0 
172.547 31.483 
182.196 18.193 
197.862 19.483 
241.352 24.645 
END IONS

BEGIN IONS
PEPMASS=235.108
CHARGE=1+
MSLEVEL=2
SOURCE_INSTRUMENT=Positive-Quattro_QQQ:40eV
FILENAME=hmdb_intermediate.mgf
SEQ=*..*
IONMODE=Positive
ORGANISM=HMDB
NAME=HMDB:HMDB02339-2066 5-Methoxytryptophan M+H
PI=HMDB
DATACOLLECTOR=HMDB
SMILES=COC1=CC2=C(NC=C2C[C@H](N)C(O)=O)C=C1
INCHI=InChI=1S/C12H14N2O3/c1-17-8-2-3-11-9(5-8)7(6-14-11)4-10(13)12(15)16/h2-3,5-6,10,14H,4,13H2,1H3,(H,15,16)/t10-/m0/s1
INCHIAUX=N/A
PUBMED=N/A
SUBMITUSER=mwang87
TAGS=
LIBRARYQUALITY=3
SPECTRUMID=CCMSLIB00000426257
SCANS=1229
76.0 22.672 
90.0 19.396 
104.0 52.302 
114.0 28.148 
116.0 73.259 
129.0 100.0 
144.0 29.318 
145.0 28.393 
157.0 42.308 
172.0 12.664 
END IONS

BEGIN IONS
PEPMASS=93.0552
CHARGE=1+
MSLEVEL=2
SOURCE_INSTRUMENT=Positive-Quattro_QQQ:25eV
FILENAME=hmdb_intermediate.mgf
SEQ=*..*
IONMODE=Positive
ORGANISM=HMDB
NAME=HMDB:HMDB00131-201 Glycerol M+H
PI=HMDB
DATACOLLECTOR=HMDB
SMILES=OCC(O)CO
INCHI=InChI=1S/C3H8O3/c4-1-3(6)2-5/h3-6H,1-2H2
INCHIAUX=N/A
PUBMED=N/A
SUBMITUSER=mwang87
TAGS=
LIBRARYQUALITY=3
SPECTRUMID=CCMSLIB00000426258
SCANS=1230
57.14 100.0 
75.314 18.775 
93.363 44.051 
END IONS

BEGIN IONS
PEPMASS=193.035
CHARGE=1+
MSLEVEL=2
SOURCE_INSTRUMENT=Positive-Quattro_QQQ:40eV
FILENAME=hmdb_intermediate.mgf
SEQ=*..*
IONMODE=Positive
ORGANISM=HMDB
NAME=HMDB:HMDB00193-312 Isocitric acid M+H
PI=HMDB
DATACOLLECTOR=HMDB
SMILES=OC(C(CC(O)=O)C(O)=O)C(O)=O
INCHI=InChI=1S/C6H8O7/c7-3(8)1-2(5(10)11)4(9)6(12)13/h2,4,9H,1H2,(H,7,8)(H,10,11)(H,12,13)
INCHIAUX=N/A
PUBMED=N/A
SUBMITUSER=mwang87
TAGS=
LIBRARYQUALITY=3
SPECTRUMID=CCMSLIB00000426259
SCANS=1231
55.044 51.575 
67.406 42.475 
79.642 56.125 
84.814 68.011 
98.187 74.03 
110.928 100.0 
122.913 66.839 
151.552 32.644 
END IONS

BEGIN IONS
PEPMASS=94.0657
CHARGE=1+
MSLEVEL=2
SOURCE_INSTRUMENT=Positive-Quattro_QQQ:25eV
FILENAME=hmdb_intermediate.mgf
SEQ=*..*
IONMODE=Positive
ORGANISM=HMDB
NAME=HMDB:HMDB03012-2183 Aniline M+H
PI=HMDB
DATACOLLECTOR=HMDB
SMILES=NC1=CC=CC=C1
INCHI=InChI=1S/C6H7N/c7-6-4-2-1-3-5-6/h1-5H,7H2
INCHIAUX=N/A
PUBMED=N/A
SUBMITUSER=mwang87
TAGS=
LIBRARYQUALITY=3
SPECTRUMID=CCMSLIB00000426260
SCANS=1232
51.0 41.826 
77.0 100.0 
94.0 6.904 
END IONS

BEGIN IONS
PEPMASS=1347.58
CHARGE=1+
MSLEVEL=2
SOURCE_INSTRUMENT=Positive-Quattro_QQQ:40eV
FILENAME=hmdb_intermediate.mgf
SEQ=*..*
IONMODE=Positive
ORGANISM=HMDB
NAME=HMDB:HMDB02308-2054 Hydroxycobalamin M+H
PI=HMDB
DATACOLLECTOR=HMDB
SMILES=[Co++].O.OC[C@H]1O[C@@]([H])([C@H](O)[C@]1([H])OP(=O)([O-])O[C@H](C)CNC(=O)CC[C@]1(C)[C@@H](CC(=O)N)[C@@]2([H])[N-]\C1=C(C)/C1=N/C(=C\C3=N\C(=C(C)/C4=N[C@]2(C)[C@@](C)(CC(=O)N)[C@@H]4CCC(=O)N)\[C@@](C)(CC(=O)N)[C@@H]3CCC(=O)N)/C(C)(C)[C@@H]1CCC(=O)N)N1C=NC2=C1C=C(C)C(C)=C2
INCHI=InChI=1S/C62H90N13O14P.Co.H2O/c1-29-20-39-40(21-30(29)2)75(28-70-39)57-52(84)53(41(27-76)87-57)89-90(85,86)88-31(3)26-69-49(83)18-19-59(8)37(22-46(66)80)56-62(11)61(10,25-48(68)82)36(14-17-45(65)79)51(74-62)33(5)55-60(9,24-47(67)81)34(12-15-43(63)77)38(71-55)23-42-58(6,7)35(13-16-44(64)78)50(72-42)32(4)54(59)73-56;;/h20-21,23,28,31,34-37,41,52-53,56-57,76,84H,12-19,22,24-27H2,1-11H3,(H15,63,64,65,66,67,68,69,71,72,73,74,77,78,79,80,81,82,83,85,86);;1H2/q;+2;/p-2/t31-,34-,35-,36-,37+,41-,52-,53-,56-,57+,59-,60+,61+,62+;;/m1../s1
INCHIAUX=N/A
PUBMED=N/A
SUBMITUSER=mwang87
TAGS=
LIBRARYQUALITY=3
SPECTRUMID=CCMSLIB00000426261
SCANS=1233
359.0 8.27 
515.0 17.134 
572.0 10.695 
620.0 7.917 
628.0 11.672 
652.0 10.902 
668.0 9.15 
731.0 13.252 
747.0 7.798 
765.0 13.375 
775.0 7.975 
800.0 7.923 
819.0 11.547 
829.0 8.045 
844.0 9.481 
857.0 13.089 
874.0 9.624 
878.0 20.782 
901.0 9.469 
932.0 8.861 
953.0 8.34 
959.0 10.047 
972.0 20.074 
990.0 100.0 
1008.0 53.989 
1059.0 10.107 
1069.0 11.931 
1085.0 38.421 
1124.0 8.535 
1126.0 23.01 
1143.0 8.018 
1150.0 12.968 
1184.0 23.11 
1202.0 86.104 
END IONS

BEGIN IONS
PEPMASS=103.076
CHARGE=1+
MSLEVEL=2
SOURCE_INSTRUMENT=Positive-Quattro_QQQ:10eV
FILENAME=hmdb_intermediate.mgf
SEQ=*..*
IONMODE=Positive
ORGANISM=HMDB
NAME=HMDB:HMDB00892-1253 Valeric acid M+H
PI=HMDB
DATACOLLECTOR=HMDB
SMILES=CCCCC(O)=O
INCHI=InChI=1S/C5H10O2/c1-2-3-4-5(6)7/h2-4H2,1H3,(H,6,7)
INCHIAUX=N/A
PUBMED=N/A
SUBMITUSER=mwang87
TAGS=
LIBRARYQUALITY=3
SPECTRUMID=CCMSLIB00000426262
SCANS=1234
43.0 45.694 
57.0 41.585 
71.0 30.13 
75.0 100.0 
85.0 42.146 
103.0 95.598 
END IONS

BEGIN IONS
PEPMASS=225.088
CHARGE=1+
MSLEVEL=2
SOURCE_INSTRUMENT=Positive-Quattro_QQQ:40eV
FILENAME=hmdb_intermediate.mgf
SEQ=*..*
IONMODE=Positive
ORGANISM=HMDB
NAME=HMDB:HMDB00732-1034 Hydroxykynurenine M+H
PI=HMDB
DATACOLLECTOR=HMDB
SMILES=NC(CC(=O)C1=C(N)C(O)=CC=C1)C(O)=O
INCHI=InChI=1S/C10H12N2O4/c11-6(10(15)16)4-8(14)5-2-1-3-7(13)9(5)12/h1-3,6,13H,4,11-12H2,(H,15,16)
INCHIAUX=N/A
PUBMED=N/A
SUBMITUSER=mwang87
TAGS=
LIBRARYQUALITY=3
SPECTRUMID=CCMSLIB00000426263
SCANS=1235
43.279 24.167 
53.222 17.014 
74.095 50.278 
79.887 100.0 
92.096 77.778 
98.958 11.111 
109.965 52.778 
116.07 39.167 
133.801 24.444 
135.925 41.944 
161.839 31.667 
END IONS

BEGIN IONS
PEPMASS=195.05
CHARGE=1+
MSLEVEL=2
SOURCE_INSTRUMENT=Positive-Quattro_QQQ:25eV
FILENAME=hmdb_intermediate.mgf
SEQ=*..*
IONMODE=Positive
ORGANISM=HMDB
NAME=HMDB:HMDB02545-2117 Galacturonic acid M+H
PI=HMDB
DATACOLLECTOR=HMDB
SMILES=O[C@@H](C=O)[C@@H](O)[C@@H](O)[C@H](O)C(O)=O
INCHI=InChI=1S/C6H10O7/c7-1-2(8)3(9)4(10)5(11)6(12)13/h1-5,8-11H,(H,12,13)/t2-,3+,4+,5-/m0/s1
INCHIAUX=N/A
PUBMED=N/A
SUBMITUSER=mwang87
TAGS=
LIBRARYQUALITY=3
SPECTRUMID=CCMSLIB00000426264
SCANS=1236
44.0 11.988 
45.0 13.85 
57.0 76.858 
73.0 54.43 
77.0 21.575 
88.0 17.837 
101.0 100.0 
117.0 72.418 
133.0 14.431 
138.0 22.036 
163.0 31.497 
195.0 14.885 
END IONS

BEGIN IONS
PEPMASS=257.175
CHARGE=1+
MSLEVEL=2
SOURCE_INSTRUMENT=Negative-Quattro_QQQ:10eV
FILENAME=hmdb_intermediate.mgf
SEQ=*..*
IONMODE=Negative
ORGANISM=HMDB
NAME=HMDB:HMDB00872-1229 Tetradecanedioic acid M-H
PI=HMDB
DATACOLLECTOR=HMDB
SMILES=OC(=O)CCCCCCCCCCCCC(O)=O
INCHI=InChI=1S/C14H26O4/c15-13(16)11-9-7-5-3-1-2-4-6-8-10-12-14(17)18/h1-12H2,(H,15,16)(H,17,18)
INCHIAUX=N/A
PUBMED=N/A
SUBMITUSER=mwang87
TAGS=
LIBRARYQUALITY=3
SPECTRUMID=CCMSLIB00000426265
SCANS=1237
195.057 4.828 
239.048 11.552 
257.064 100.0 
END IONS

BEGIN IONS
PEPMASS=138.055
CHARGE=1+
MSLEVEL=2
SOURCE_INSTRUMENT=Positive-Quattro_QQQ:40eV
FILENAME=hmdb_intermediate.mgf
SEQ=*..*
IONMODE=Positive
ORGANISM=HMDB
NAME=HMDB:HMDB01392-1552 p-Aminobenzoic acid M+H
PI=HMDB
DATACOLLECTOR=HMDB
SMILES=NC1=CC=C(C=C1)C(O)=O
INCHI=InChI=1S/C7H7NO2/c8-6-3-1-5(2-4-6)7(9)10/h1-4H,8H2,(H,9,10)
INCHIAUX=N/A
PUBMED=N/A
SUBMITUSER=mwang87
TAGS=
LIBRARYQUALITY=3
SPECTRUMID=CCMSLIB00000426266
SCANS=1238
51.205 21.131 
65.164 100.0 
77.071 34.524 
92.045 32.143 
119.802 7.961 
137.792 6.027 
END IONS

BEGIN IONS
PEPMASS=81.9725
CHARGE=1+
MSLEVEL=2
SOURCE_INSTRUMENT=Positive-Quattro_QQQ:40eV
FILENAME=hmdb_intermediate.mgf
SEQ=*..*
IONMODE=Positive
ORGANISM=HMDB
NAME=HMDB:HMDB01033-1395 Hydrogen sulfite M+H
PI=HMDB
DATACOLLECTOR=HMDB
SMILES=OS([O-])=O
INCHI=InChI=1S/H2O3S/c1-4(2)3/h(H2,1,2,3)/p-1
INCHIAUX=N/A
PUBMED=N/A
SUBMITUSER=mwang87
TAGS=
LIBRARYQUALITY=3
SPECTRUMID=CCMSLIB00000426267
SCANS=1239
41.0 100.0 
81.0 51.977 
END IONS

BEGIN IONS
PEPMASS=137.045
CHARGE=1+
MSLEVEL=2
SOURCE_INSTRUMENT=Positive-Quattro_QQQ:40eV
FILENAME=hmdb_intermediate.mgf
SEQ=*..*
IONMODE=Positive
ORGANISM=HMDB
NAME=HMDB:HMDB00943-1338 Threonic acid M+H
PI=HMDB
DATACOLLECTOR=HMDB
SMILES=OC[C@@H](O)[C@H](O)C(O)=O
INCHI=InChI=1S/C4H8O5/c5-1-2(6)3(7)4(8)9/h2-3,5-7H,1H2,(H,8,9)/t2-,3+/m1/s1
INCHIAUX=N/A
PUBMED=N/A
SUBMITUSER=mwang87
TAGS=
LIBRARYQUALITY=3
SPECTRUMID=CCMSLIB00000426268
SCANS=1240
51.514 62.547 
55.004 84.652 
66.967 68.767 
77.809 12.25 
93.262 38.192 
95.007 100.0 
137.007 75.914 
173.651 15.029 
END IONS

BEGIN IONS
PEPMASS=209.093
CHARGE=1+
MSLEVEL=2
SOURCE_INSTRUMENT=Positive-Quattro_QQQ:10eV
FILENAME=hmdb_intermediate.mgf
SEQ=*..*
IONMODE=Positive
ORGANISM=HMDB
NAME=HMDB:HMDB00684-948 L-Kynurenine M+H
PI=HMDB
DATACOLLECTOR=HMDB
SMILES=N[C@@H](CC(=O)C1=CC=CC=C1N)C(O)=O
INCHI=InChI=1S/C10H12N2O3/c11-7-4-2-1-3-6(7)9(13)5-8(12)10(14)15/h1-4,8H,5,11-12H2,(H,14,15)/t8-/m0/s1
INCHIAUX=N/A
PUBMED=N/A
SUBMITUSER=mwang87
TAGS=
LIBRARYQUALITY=3
SPECTRUMID=CCMSLIB00000426269
SCANS=1241
74.049 3.023 
94.049 38.072 
98.943 2.584 
119.952 3.799 
135.957 14.216 
145.943 16.34 
163.059 10.09 
173.912 10.784 
191.904 100.0 
208.92 23.366 
END IONS

BEGIN IONS
PEPMASS=137.024
CHARGE=1+
MSLEVEL=2
SOURCE_INSTRUMENT=Negative-Quattro_QQQ:10eV
FILENAME=hmdb_intermediate.mgf
SEQ=*..*
IONMODE=Negative
ORGANISM=HMDB
NAME=HMDB:HMDB00500-716 4-Hydroxybenzoic acid M-H
PI=HMDB
DATACOLLECTOR=HMDB
SMILES=OC(=O)C1=CC=C(O)C=C1
INCHI=InChI=1S/C7H6O3/c8-6-3-1-5(2-4-6)7(9)10/h1-4,8H,(H,9,10)
INCHIAUX=N/A
PUBMED=N/A
SUBMITUSER=mwang87
TAGS=
LIBRARYQUALITY=3
SPECTRUMID=CCMSLIB00000426270
SCANS=1242
93.042 100.0 
136.921 55.0 
END IONS

BEGIN IONS
PEPMASS=464.301
CHARGE=1+
MSLEVEL=2
SOURCE_INSTRUMENT=Negative-Quattro_QQQ:25eV
FILENAME=hmdb_intermediate.mgf
SEQ=*..*
IONMODE=Negative
ORGANISM=HMDB
NAME=HMDB:HMDB00138-210 Glycocholic acid M-H
PI=HMDB
DATACOLLECTOR=HMDB
SMILES=[H][C@@]12CC[C@H]([C@H](C)CCC(=O)NCC(O)=O)[C@@]1(C)[C@@H](O)C[C@@]1([H])[C@@]2([H])[C@H](O)CC2C[C@H](O)CC[C@]12C
INCHI=InChI=1S/C26H43NO6/c1-14(4-7-22(31)27-13-23(32)33)17-5-6-18-24-19(12-21(30)26(17,18)3)25(2)9-8-16(28)10-15(25)11-20(24)29/h14-21,24,28-30H,4-13H2,1-3H3,(H,27,31)(H,32,33)/t14-,15?,16-,17-,18+,19+,20-,21+,24+,25+,26-/m1/s1
INCHIAUX=N/A
PUBMED=N/A
SUBMITUSER=mwang87
TAGS=
LIBRARYQUALITY=3
SPECTRUMID=CCMSLIB00000426271
SCANS=1243
74.151 51.316 
402.36 1.563 
464.352 100.0 
END IONS

BEGIN IONS
PEPMASS=333.243
CHARGE=1+
MSLEVEL=2
SOURCE_INSTRUMENT=Positive-Quattro_QQQ:25eV
FILENAME=hmdb_intermediate.mgf
SEQ=*..*
IONMODE=Positive
ORGANISM=HMDB
NAME=HMDB:HMDB00363-577 17a-Hydroxypregnenolone M+H
PI=HMDB
DATACOLLECTOR=HMDB
SMILES=[H][C@@]12CC[C@](O)(C(C)=O)[C@@]1(C)CC[C@@]1([H])[C@@]2([H])CC=C2C[C@@H](O)CC[C@]12C
INCHI=InChI=1S/C21H32O3/c1-13(22)21(24)11-8-18-16-5-4-14-12-15(23)6-9-19(14,2)17(16)7-10-20(18,21)3/h4,15-18,23-24H,5-12H2,1-3H3/t15-,16+,17-,18-,19-,20-,21-/m0/s1
INCHIAUX=N/A
PUBMED=N/A
SUBMITUSER=mwang87
TAGS=
LIBRARYQUALITY=3
SPECTRUMID=CCMSLIB00000426272
SCANS=1244
158.0 100.0 
END IONS

BEGIN IONS
PEPMASS=206.067
CHARGE=1+
MSLEVEL=2
SOURCE_INSTRUMENT=Positive-Quattro_QQQ:40eV
FILENAME=hmdb_intermediate.mgf
SEQ=*..*
IONMODE=Positive
ORGANISM=HMDB
NAME=HMDB:HMDB00962-1368 Lipoamide M+H
PI=HMDB
DATACOLLECTOR=HMDB
SMILES=NC(=O)CCCCC1CCSS1
INCHI=InChI=1S/C8H15NOS2/c9-8(10)4-2-1-3-7-5-6-11-12-7/h7H,1-6H2,(H2,9,10)
INCHIAUX=N/A
PUBMED=N/A
SUBMITUSER=mwang87
TAGS=
LIBRARYQUALITY=3
SPECTRUMID=CCMSLIB00000426273
SCANS=1245
41.0 32.274 
55.0 90.875 
67.0 81.04 
79.0 100.0 
91.0 45.786 
101.0 21.373 
105.0 27.951 
END IONS

BEGIN IONS
PEPMASS=76.0399
CHARGE=1+
MSLEVEL=2
SOURCE_INSTRUMENT=Positive-Quattro_QQQ:40eV
FILENAME=hmdb_intermediate.mgf
SEQ=*..*
IONMODE=Positive
ORGANISM=HMDB
NAME=HMDB:HMDB00123-182 Glycine M+H
PI=HMDB
DATACOLLECTOR=HMDB
SMILES=NCC(O)=O
INCHI=InChI=1S/C2H5NO2/c3-1-2(4)5/h1,3H2,(H,4,5)
INCHIAUX=N/A
PUBMED=N/A
SUBMITUSER=mwang87
TAGS=
LIBRARYQUALITY=3
SPECTRUMID=CCMSLIB00000426274
SCANS=1246
30.305 100.0 
74.142 9.276 
76.046 42.632 
END IONS

BEGIN IONS
PEPMASS=73.0653
CHARGE=1+
MSLEVEL=2
SOURCE_INSTRUMENT=Positive-Quattro_QQQ:40eV
FILENAME=hmdb_intermediate.mgf
SEQ=*..*
IONMODE=Positive
ORGANISM=HMDB
NAME=HMDB:HMDB00474-694 Butanone M+H
PI=HMDB
DATACOLLECTOR=HMDB
SMILES=CCC(C)=O
INCHI=InChI=1S/C4H8O/c1-3-4(2)5/h3H2,1-2H3
INCHIAUX=N/A
PUBMED=N/A
SUBMITUSER=mwang87
TAGS=
LIBRARYQUALITY=3
SPECTRUMID=CCMSLIB00000426275
SCANS=1247
31.0 25.481 
43.0 61.283 
45.0 18.557 
58.0 19.714 
73.0 100.0 
END IONS

BEGIN IONS
PEPMASS=147.077
CHARGE=1+
MSLEVEL=2
SOURCE_INSTRUMENT=Positive-Quattro_QQQ:10eV
FILENAME=hmdb_intermediate.mgf
SEQ=*..*
IONMODE=Positive
ORGANISM=HMDB
NAME=HMDB:HMDB03423-2301 D-Glutamine M+H
PI=HMDB
DATACOLLECTOR=HMDB
SMILES=N[C@H](CCC(N)=O)C(O)=O
INCHI=InChI=1S/C5H10N2O3/c6-3(5(9)10)1-2-4(7)8/h3H,1-2,6H2,(H2,7,8)(H,9,10)/t3-/m1/s1
INCHIAUX=N/A
PUBMED=N/A
SUBMITUSER=mwang87
TAGS=
LIBRARYQUALITY=3
SPECTRUMID=CCMSLIB00000426276
SCANS=1248
83.95 43.985 
129.86 100.0 
146.86 30.734 
END IONS

BEGIN IONS
PEPMASS=160.134
CHARGE=1+
MSLEVEL=2
SOURCE_INSTRUMENT=Positive-Quattro_QQQ:40eV
FILENAME=hmdb_intermediate.mgf
SEQ=*..*
IONMODE=Positive
ORGANISM=HMDB
NAME=HMDB:HMDB00991-1383 DL-2-Aminooctanoic acid M+H
PI=HMDB
DATACOLLECTOR=HMDB
SMILES=CCCCCCC(N)C(O)=O
INCHI=InChI=1S/C8H17NO2/c1-2-3-4-5-6-7(9)8(10)11/h7H,2-6,9H2,1H3,(H,10,11)
INCHIAUX=N/A
PUBMED=N/A
SUBMITUSER=mwang87
TAGS=
LIBRARYQUALITY=3
SPECTRUMID=CCMSLIB00000426277
SCANS=1249
43.159 100.0 
45.243 38.624 
57.993 86.243 
103.995 19.974 
END IONS

BEGIN IONS
PEPMASS=131.071
CHARGE=1+
MSLEVEL=2
SOURCE_INSTRUMENT=Positive-Quattro_QQQ:10eV
FILENAME=hmdb_intermediate.mgf
SEQ=*..*
IONMODE=Positive
ORGANISM=HMDB
NAME=HMDB:HMDB00408-621 2-Methyl-3-ketovaleric acid M+H
PI=HMDB
DATACOLLECTOR=HMDB
SMILES=CCC(=O)C(C)C(O)=O
INCHI=InChI=1S/C6H10O3/c1-3-5(7)4(2)6(8)9/h4H,3H2,1-2H3,(H,8,9)
INCHIAUX=N/A
PUBMED=N/A
SUBMITUSER=mwang87
TAGS=
LIBRARYQUALITY=3
SPECTRUMID=CCMSLIB00000426278
SCANS=1250
84.64 31.886 
130.81 100.0 
END IONS

BEGIN IONS
PEPMASS=786.165
CHARGE=1+
MSLEVEL=2
SOURCE_INSTRUMENT=Positive-Quattro_QQQ:40eV
FILENAME=hmdb_intermediate.mgf
SEQ=*..*
IONMODE=Positive
ORGANISM=HMDB
NAME=HMDB:HMDB01248-1483 FAD M+H
PI=HMDB
DATACOLLECTOR=HMDB
SMILES=CC1=CC2=C(C=C1C)N(C[C@H](O)[C@H](O)[C@H](O)COP(O)(=O)OP(O)(=O)OC[C@H]1O[C@H]([C@H](O)[C@@H]1O)N1C=NC3=C1N=CN=C3N)C1=NC(=O)NC(=O)C1=N2
INCHI=InChI=1S/C27H33N9O15P2/c1-10-3-12-13(4-11(10)2)35(24-18(32-12)25(42)34-27(43)33-24)5-14(37)19(39)15(38)6-48-52(44,45)51-53(46,47)49-7-16-20(40)21(41)26(50-16)36-9-31-17-22(28)29-8-30-23(17)36/h3-4,8-9,14-16,19-21,26,37-41H,5-7H2,1-2H3,(H,44,45)(H,46,47)(H2,28,29,30)(H,34,42,43)/t14-,15+,16+,19-,20+,21+,26+/m0/s1
INCHIAUX=N/A
PUBMED=N/A
SUBMITUSER=mwang87
TAGS=
LIBRARYQUALITY=3
SPECTRUMID=CCMSLIB00000426279
SCANS=1251
135.0 100.0 
242.0 40.693 
249.0 6.358 
348.0 15.488 
359.0 9.0 
421.0 10.306 
439.0 80.013 
END IONS

BEGIN IONS
PEPMASS=127.062
CHARGE=1+
MSLEVEL=2
SOURCE_INSTRUMENT=Positive-Quattro_QQQ:25eV
FILENAME=hmdb_intermediate.mgf
SEQ=*..*
IONMODE=Positive
ORGANISM=HMDB
NAME=HMDB:HMDB02128-2014 2,4-Diamino-6-hydroxypyrimidine M+H
PI=HMDB
DATACOLLECTOR=HMDB
SMILES=NC1=CC(=O)N=C(N)N1
INCHI=InChI=1S/C4H6N4O/c5-2-1-3(9)8-4(6)7-2/h1H,(H5,5,6,7,8,9)
INCHIAUX=N/A
PUBMED=N/A
SUBMITUSER=mwang87
TAGS=
LIBRARYQUALITY=3
SPECTRUMID=CCMSLIB00000426280
SCANS=1252
68.0 100.0 
85.0 25.429 
127.0 3.83 
END IONS

BEGIN IONS
PEPMASS=222.098
CHARGE=1+
MSLEVEL=2
SOURCE_INSTRUMENT=Positive-Quattro_QQQ:10eV
FILENAME=hmdb_intermediate.mgf
SEQ=*..*
IONMODE=Positive
ORGANISM=HMDB
NAME=HMDB:HMDB01129-1427 N-Acetylmannosamine M+H
PI=HMDB
DATACOLLECTOR=HMDB
SMILES=[H][C@@]1(O)O[C@H](CO)[C@@H](O)[C@H](O)[C@@H]1NC(C)=O
INCHI=InChI=1S/C8H15NO6/c1-3(11)9-5-7(13)6(12)4(2-10)15-8(5)14/h4-8,10,12-14H,2H2,1H3,(H,9,11)/t4-,5+,6-,7-,8-/m1/s1
INCHIAUX=N/A
PUBMED=N/A
SUBMITUSER=mwang87
TAGS=
LIBRARYQUALITY=3
SPECTRUMID=CCMSLIB00000426281
SCANS=1253
84.0 12.499 
126.0 100.0 
138.0 37.189 
168.0 26.744 
186.0 31.131 
204.0 42.787 
222.0 5.279 
END IONS

BEGIN IONS
PEPMASS=283.264
CHARGE=1+
MSLEVEL=2
SOURCE_INSTRUMENT=Negative-Quattro_QQQ:25eV
FILENAME=hmdb_intermediate.mgf
SEQ=*..*
IONMODE=Negative
ORGANISM=HMDB
NAME=HMDB:HMDB00827-1177 Stearic acid M-H
PI=HMDB
DATACOLLECTOR=HMDB
SMILES=CCCCCCCCCCCCCCCCCC(O)=O
INCHI=InChI=1S/C18H36O2/c1-2-3-4-5-6-7-8-9-10-11-12-13-14-15-16-17-18(19)20/h2-17H2,1H3,(H,19,20)
INCHIAUX=N/A
PUBMED=N/A
SUBMITUSER=mwang87
TAGS=
LIBRARYQUALITY=3
SPECTRUMID=CCMSLIB00000426282
SCANS=1254
45.298 1.859 
265.232 4.411 
283.243 100.0 
END IONS

BEGIN IONS
PEPMASS=183.066
CHARGE=1+
MSLEVEL=2
SOURCE_INSTRUMENT=Positive-Quattro_QQQ:10eV
FILENAME=hmdb_intermediate.mgf
SEQ=*..*
IONMODE=Positive
ORGANISM=HMDB
NAME=HMDB:HMDB00423-626 3,4-Dihydroxyhydrocinnamic acid M+H
PI=HMDB
DATACOLLECTOR=HMDB
SMILES=OC(=O)CCC1=CC=C(O)C(O)=C1
INCHI=InChI=1S/C9H10O4/c10-7-3-1-6(5-8(7)11)2-4-9(12)13/h1,3,5,10-11H,2,4H2,(H,12,13)
INCHIAUX=N/A
PUBMED=N/A
SUBMITUSER=mwang87
TAGS=
LIBRARYQUALITY=3
SPECTRUMID=CCMSLIB00000426283
SCANS=1255
93.0 5.73 
113.0 8.381 
119.0 5.358 
133.0 5.09 
141.0 100.0 
151.0 9.361 
163.0 3.651 
165.0 24.49 
183.0 30.912 
END IONS

BEGIN IONS
PEPMASS=187.097
CHARGE=1+
MSLEVEL=2
SOURCE_INSTRUMENT=Negative-Quattro_QQQ:25eV
FILENAME=hmdb_intermediate.mgf
SEQ=*..*
IONMODE=Negative
ORGANISM=HMDB
NAME=HMDB:HMDB00784-1120 Azelaic acid M-H
PI=HMDB
DATACOLLECTOR=HMDB
SMILES=OC(=O)CCCCCCCC(O)=O
INCHI=InChI=1S/C9H16O4/c10-8(11)6-4-2-1-3-5-7-9(12)13/h1-7H2,(H,10,11)(H,12,13)
INCHIAUX=N/A
PUBMED=N/A
SUBMITUSER=mwang87
TAGS=
LIBRARYQUALITY=3
SPECTRUMID=CCMSLIB00000426284
SCANS=1256
54.201 5.872 
57.16 56.044 
69.086 8.791 
80.06 18.956 
97.023 100.0 
122.995 58.791 
124.986 56.593 
168.905 28.571 
186.56 17.033 
END IONS

BEGIN IONS
PEPMASS=343.124
CHARGE=1+
MSLEVEL=2
SOURCE_INSTRUMENT=Positive-Quattro_QQQ:10eV
FILENAME=hmdb_intermediate.mgf
SEQ=*..*
IONMODE=Positive
ORGANISM=HMDB
NAME=HMDB:HMDB00258-448 Sucrose M+H
PI=HMDB
DATACOLLECTOR=HMDB
SMILES=OC[C@H]1O[C@@](CO)(O[C@H]2O[C@H](CO)[C@@H](O)[C@H](O)[C@H]2O)[C@@H](O)[C@@H]1O
INCHI=InChI=1S/C12H22O11/c13-1-4-6(16)8(18)9(19)11(21-4)23-12(3-15)10(20)7(17)5(2-14)22-12/h4-11,13-20H,1-3H2/t4-,5-,6-,7-,8+,9-,10+,11-,12+/m1/s1
INCHIAUX=N/A
PUBMED=N/A
SUBMITUSER=mwang87
TAGS=
LIBRARYQUALITY=3
SPECTRUMID=CCMSLIB00000426285
SCANS=1257
85.051 9.403 
97.019 5.42 
126.974 16.15 
144.947 38.496 
162.967 100.0 
180.941 6.112 
258.977 5.448 
289.015 6.499 
324.921 10.398 
END IONS

BEGIN IONS
PEPMASS=131.13
CHARGE=1+
MSLEVEL=2
SOURCE_INSTRUMENT=Positive-Quattro_QQQ:25eV
FILENAME=hmdb_intermediate.mgf
SEQ=*..*
IONMODE=Positive
ORGANISM=HMDB
NAME=HMDB:HMDB01432-1578 Agmatine M+H
PI=HMDB
DATACOLLECTOR=HMDB
SMILES=NCCCCNC(N)=N
INCHI=InChI=1S/C5H14N4/c6-3-1-2-4-9-5(7)8/h1-4,6H2,(H4,7,8,9)
INCHIAUX=N/A
PUBMED=N/A
SUBMITUSER=mwang87
TAGS=
LIBRARYQUALITY=3
SPECTRUMID=CCMSLIB00000426286
SCANS=1258
72.0 100.0 
97.0 3.833 
END IONS

BEGIN IONS
PEPMASS=147.029
CHARGE=1+
MSLEVEL=2
SOURCE_INSTRUMENT=Negative-Quattro_QQQ:25eV
FILENAME=hmdb_intermediate.mgf
SEQ=*..*
IONMODE=Negative
ORGANISM=HMDB
NAME=HMDB:HMDB00426-630 Citramalic acid M-H
PI=HMDB
DATACOLLECTOR=HMDB
SMILES=CC(O)(CC(O)=O)C(O)=O
INCHI=InChI=1S/C5H8O5/c1-5(10,4(8)9)2-3(6)7/h10H,2H2,1H3,(H,6,7)(H,8,9)
INCHIAUX=N/A
PUBMED=N/A
SUBMITUSER=mwang87
TAGS=
LIBRARYQUALITY=3
SPECTRUMID=CCMSLIB00000426287
SCANS=1259
43.6 78.161 
45.548 10.704 
57.46 70.402 
87.245 100.0 
END IONS

BEGIN IONS
PEPMASS=243.098
CHARGE=1+
MSLEVEL=2
SOURCE_INSTRUMENT=Positive-Quattro_QQQ:25eV
FILENAME=hmdb_intermediate.mgf
SEQ=*..*
IONMODE=Positive
ORGANISM=HMDB
NAME=HMDB:HMDB00273-479 Thymidine M+H
PI=HMDB
DATACOLLECTOR=HMDB
SMILES=CC1=CN([C@H]2C[C@H](O)[C@@H](CO)O2)C(=O)NC1=O
INCHI=InChI=1S/C10H14N2O5/c1-5-3-12(10(16)11-9(5)15)8-2-6(14)7(4-13)17-8/h3,6-8,13-14H,2,4H2,1H3,(H,11,15,16)/t6-,7+,8+/m0/s1
INCHIAUX=N/A
PUBMED=N/A
SUBMITUSER=mwang87
TAGS=
LIBRARYQUALITY=3
SPECTRUMID=CCMSLIB00000426288
SCANS=1260
43.377 12.852 
45.423 7.658 
73.159 20.423 
81.13 6.074 
99.125 13.38 
110.095 14.789 
117.894 11.796 
127.919 100.0 
END IONS

BEGIN IONS
PEPMASS=411.399
CHARGE=1+
MSLEVEL=2
SOURCE_INSTRUMENT=Positive-Quattro_QQQ:40eV
FILENAME=hmdb_intermediate.mgf
SEQ=*..*
IONMODE=Positive
ORGANISM=HMDB
NAME=HMDB:HMDB00256-444 Squalene M+H
PI=HMDB
DATACOLLECTOR=HMDB
SMILES=CC(C)=CCC\C(C)=C/CC\C(C)=C\CC\C=C(/C)CC\C=C(/C)CCC=C(C)C
INCHI=InChI=1S/C30H50/c1-25(2)15-11-19-29(7)23-13-21-27(5)17-9-10-18-28(6)22-14-24-30(8)20-12-16-26(3)4/h15-18,23-24H,9-14,19-22H2,1-8H3/b27-17+,28-18+,29-23-,30-24+
INCHIAUX=N/A
PUBMED=N/A
SUBMITUSER=mwang87
TAGS=
LIBRARYQUALITY=3
SPECTRUMID=CCMSLIB00000426289
SCANS=1261
54.352 7.317 
64.415 6.911 
64.538 8.13 
74.969 8.537 
93.133 7.724 
101.111 6.098 
109.825 10.569 
124.431 6.504 
129.34 6.098 
136.091 100.0 
151.557 26.829 
164.568 15.854 
179.421 5.285 
194.397 6.911 
199.553 11.382 
214.162 6.504 
224.351 11.382 
224.719 8.943 
244.239 8.537 
249.273 5.691 
257.008 8.13 
272.846 5.691 
279.107 10.163 
289.667 6.504 
304.278 6.504 
314.469 8.13 
320.24 5.691 
329.573 8.537 
342.957 6.504 
353.886 6.098 
359.781 7.724 
366.412 6.504 
383.604 9.756 
388.762 9.756 
397.85 12.195 
412.833 6.911 
424.009 6.098 
433.589 7.724 
437.519 8.943 
452.38 6.911 
463.803 6.504 
466.259 8.537 
478.664 7.317 
493.772 7.317 
496.352 7.724 
END IONS

BEGIN IONS
PEPMASS=89.1079
CHARGE=1+
MSLEVEL=2
SOURCE_INSTRUMENT=Positive-Quattro_QQQ:10eV
FILENAME=hmdb_intermediate.mgf
SEQ=*..*
IONMODE=Positive
ORGANISM=HMDB
NAME=HMDB:HMDB60243-1568 Putrescine M+H
PI=HMDB
DATACOLLECTOR=HMDB
SMILES=NCCCCN
INCHI=InChI=1S/C4H12N2/c5-3-1-2-4-6/h1-6H2
INCHIAUX=N/A
PUBMED=N/A
SUBMITUSER=mwang87
TAGS=
LIBRARYQUALITY=3
SPECTRUMID=CCMSLIB00000426290
SCANS=1262
72.141 100.0 
89.1 4.985 
END IONS

BEGIN IONS
PEPMASS=337.131
CHARGE=1+
MSLEVEL=2
SOURCE_INSTRUMENT=Positive-Quattro_QQQ:10eV
FILENAME=hmdb_intermediate.mgf
SEQ=*..*
IONMODE=Positive
ORGANISM=HMDB
NAME=HMDB:HMDB03409-2289 Berberine M+H
PI=HMDB
DATACOLLECTOR=HMDB
SMILES=COC1=C(OC)C2=C[N+]3=C(C=C2C=C1)C1=CC2=C(OCO2)C=C1CC3
INCHI=InChI=1S/C20H18NO4/c1-22-17-4-3-12-7-16-14-9-19-18(24-11-25-19)8-13(14)5-6-21(16)10-15(12)20(17)23-2/h3-4,7-10H,5-6,11H2,1-2H3/q+1
INCHIAUX=N/A
PUBMED=N/A
SUBMITUSER=mwang87
TAGS=
LIBRARYQUALITY=3
SPECTRUMID=CCMSLIB00000426291
SCANS=1263
336.95 100.0 
END IONS

BEGIN IONS
PEPMASS=181.061
CHARGE=1+
MSLEVEL=2
SOURCE_INSTRUMENT=Positive-Quattro_QQQ:40eV
FILENAME=hmdb_intermediate.mgf
SEQ=*..*
IONMODE=Positive
ORGANISM=HMDB
NAME=HMDB:HMDB03269-2226 Nicotinuric acid M+H
PI=HMDB
DATACOLLECTOR=HMDB
SMILES=OC(=O)CNC(=O)C1=CN=CC=C1
INCHI=InChI=1S/C8H8N2O3/c11-7(12)5-10-8(13)6-2-1-3-9-4-6/h1-4H,5H2,(H,10,13)(H,11,12)
INCHIAUX=N/A
PUBMED=N/A
SUBMITUSER=mwang87
TAGS=
LIBRARYQUALITY=3
SPECTRUMID=CCMSLIB00000426292
SCANS=1264
53.0 12.347 
65.0 2.86 
79.0 100.0 
107.0 5.268 
117.0 3.672 
135.0 3.233 
END IONS

BEGIN IONS
PEPMASS=337.131
CHARGE=1+
MSLEVEL=2
SOURCE_INSTRUMENT=Positive-Quattro_QQQ:40eV
FILENAME=hmdb_intermediate.mgf
SEQ=*..*
IONMODE=Positive
ORGANISM=HMDB
NAME=HMDB:HMDB03409-2291 Berberine M+H
PI=HMDB
DATACOLLECTOR=HMDB
SMILES=COC1=C(OC)C2=C[N+]3=C(C=C2C=C1)C1=CC2=C(OCO2)C=C1CC3
INCHI=InChI=1S/C20H18NO4/c1-22-17-4-3-12-7-16-14-9-19-18(24-11-25-19)8-13(14)5-6-21(16)10-15(12)20(17)23-2/h3-4,7-10H,5-6,11H2,1-2H3/q+1
INCHIAUX=N/A
PUBMED=N/A
SUBMITUSER=mwang87
TAGS=
LIBRARYQUALITY=3
SPECTRUMID=CCMSLIB00000426293
SCANS=1265
279.18 70.601 
292.88 76.205 
304.94 21.828 
320.93 100.0 
END IONS

BEGIN IONS
PEPMASS=250.025
CHARGE=1+
MSLEVEL=2
SOURCE_INSTRUMENT=Positive-Quattro_QQQ:25eV
FILENAME=hmdb_intermediate.mgf
SEQ=*..*
IONMODE=Positive
ORGANISM=HMDB
NAME=HMDB:HMDB01915-1829 Alendronic acid M+H
PI=HMDB
DATACOLLECTOR=HMDB
SMILES=NCCCC(O)(P(O)(O)=O)P(O)(O)=O
INCHI=InChI=1S/C4H13NO7P2/c5-3-1-2-4(6,13(7,8)9)14(10,11)12/h6H,1-3,5H2,(H2,7,8,9)(H2,10,11,12)
INCHIAUX=N/A
PUBMED=N/A
SUBMITUSER=mwang87
TAGS=
LIBRARYQUALITY=3
SPECTRUMID=CCMSLIB00000426294
SCANS=1266
120.198 16.986 
128.649 23.152 
134.863 100.0 
149.777 15.789 
180.973 12.936 
190.17 7.046 
249.587 11.187 
END IONS

BEGIN IONS
PEPMASS=181.05
CHARGE=1+
MSLEVEL=2
SOURCE_INSTRUMENT=Positive-Quattro_QQQ:40eV
FILENAME=hmdb_intermediate.mgf
SEQ=*..*
IONMODE=Positive
ORGANISM=HMDB
NAME=HMDB:HMDB01879-1779 Aspirin M+H
PI=HMDB
DATACOLLECTOR=HMDB
SMILES=CC(=O)OC1=CC=CC=C1C(O)=O
INCHI=InChI=1S/C9H8O4/c1-6(10)13-8-5-3-2-4-7(8)9(11)12/h2-5H,1H3,(H,11,12)
INCHIAUX=N/A
PUBMED=N/A
SUBMITUSER=mwang87
TAGS=
LIBRARYQUALITY=3
SPECTRUMID=CCMSLIB00000426295
SCANS=1267
41.0 39.946 
65.0 7.87 
84.0 15.573 
85.0 100.0 
117.0 4.238 
END IONS

BEGIN IONS
PEPMASS=117.019
CHARGE=1+
MSLEVEL=2
SOURCE_INSTRUMENT=Negative-Quattro_QQQ:10eV
FILENAME=hmdb_intermediate.mgf
SEQ=*..*
IONMODE=Negative
ORGANISM=HMDB
NAME=HMDB:HMDB00254-439 Succinic acid M-H
PI=HMDB
DATACOLLECTOR=HMDB
SMILES=OC(=O)CCC(O)=O
INCHI=InChI=1S/C4H6O4/c5-3(6)1-2-4(7)8/h1-2H2,(H,5,6)(H,7,8)
INCHIAUX=N/A
PUBMED=N/A
SUBMITUSER=mwang87
TAGS=
LIBRARYQUALITY=3
SPECTRUMID=CCMSLIB00000426296
SCANS=1268
73.114 100.0 
99.016 7.334 
116.955 42.857 
END IONS

BEGIN IONS
PEPMASS=145.086
CHARGE=1+
MSLEVEL=2
SOURCE_INSTRUMENT=Positive-Quattro_QQQ:10eV
FILENAME=hmdb_intermediate.mgf
SEQ=*..*
IONMODE=Positive
ORGANISM=HMDB
NAME=HMDB:HMDB01988-1929 4-Hydroxycyclohexylcarboxylic acid M+H
PI=HMDB
DATACOLLECTOR=HMDB
SMILES=OC1CCC(CC1)C(O)=O
INCHI=InChI=1S/C7H12O3/c8-6-3-1-5(2-4-6)7(9)10/h5-6,8H,1-4H2,(H,9,10)
INCHIAUX=N/A
PUBMED=N/A
SUBMITUSER=mwang87
TAGS=
LIBRARYQUALITY=3
SPECTRUMID=CCMSLIB00000426297
SCANS=1269
81.0 81.916 
104.0 15.779 
109.0 77.436 
127.0 100.0 
145.0 12.636 
END IONS

BEGIN IONS
PEPMASS=139.051
CHARGE=1+
MSLEVEL=2
SOURCE_INSTRUMENT=Positive-Quattro_QQQ:10eV
FILENAME=hmdb_intermediate.mgf
SEQ=*..*
IONMODE=Positive
ORGANISM=HMDB
NAME=HMDB:HMDB00301-513 Urocanic acid M+H
PI=HMDB
DATACOLLECTOR=HMDB
SMILES=OC(=O)\C=C\C1=CNC=N1
INCHI=InChI=1S/C6H6N2O2/c9-6(10)2-1-5-3-7-4-8-5/h1-4H,(H,7,8)(H,9,10)/b2-1+
INCHIAUX=N/A
PUBMED=N/A
SUBMITUSER=mwang87
TAGS=
LIBRARYQUALITY=3
SPECTRUMID=CCMSLIB00000426298
SCANS=1270
93.01 15.969 
95.016 21.99 
120.924 100.0 
END IONS

BEGIN IONS
PEPMASS=165.055
CHARGE=1+
MSLEVEL=2
SOURCE_INSTRUMENT=Positive-Quattro_QQQ:10eV
FILENAME=hmdb_intermediate.mgf
SEQ=*..*
IONMODE=Positive
ORGANISM=HMDB
NAME=HMDB:HMDB31629-328 Phenylpyruvic acid M+H
PI=HMDB
DATACOLLECTOR=HMDB
SMILES=OC(=O)C(=O)CC1=CC=CC=C1
INCHI=InChI=1S/C9H8O3/c10-8(9(11)12)6-7-4-2-1-3-5-7/h1-5H,6H2,(H,11,12)
INCHIAUX=N/A
PUBMED=N/A
SUBMITUSER=mwang87
TAGS=
LIBRARYQUALITY=3
SPECTRUMID=CCMSLIB00000426299
SCANS=1271
105.0 70.424 
137.0 13.312 
165.0 100.0 
END IONS

BEGIN IONS
PEPMASS=104.071
CHARGE=1+
MSLEVEL=2
SOURCE_INSTRUMENT=Positive-Quattro_QQQ:40eV
FILENAME=hmdb_intermediate.mgf
SEQ=*..*
IONMODE=Positive
ORGANISM=HMDB
NAME=HMDB:HMDB00112-164 Gamma-Aminobutyric acid M+H
PI=HMDB
DATACOLLECTOR=HMDB
SMILES=NCCCC(O)=O
INCHI=InChI=1S/C4H9NO2/c5-3-1-2-4(6)7/h1-3,5H2,(H,6,7)
INCHIAUX=N/A
PUBMED=N/A
SUBMITUSER=mwang87
TAGS=
LIBRARYQUALITY=3
SPECTRUMID=CCMSLIB00000426300
SCANS=1272
41.294 53.2 
45.195 100.0 
68.957 10.8 
87.181 10.3 
103.986 20.9 
END IONS

BEGIN IONS
PEPMASS=148.076
CHARGE=1+
MSLEVEL=2
SOURCE_INSTRUMENT=Positive-Quattro_QQQ:25eV
FILENAME=hmdb_intermediate.mgf
SEQ=*..*
IONMODE=Positive
ORGANISM=HMDB
NAME=HMDB:HMDB05785-2443 Indole-3-carbinol M+H
PI=HMDB
DATACOLLECTOR=HMDB
SMILES=OCC1=CNC2=CC=CC=C12
INCHI=InChI=1S/C9H9NO/c11-6-7-5-10-9-4-2-1-3-8(7)9/h1-5,10-11H,6H2
INCHIAUX=N/A
PUBMED=N/A
SUBMITUSER=mwang87
TAGS=
LIBRARYQUALITY=3
SPECTRUMID=CCMSLIB00000426301
SCANS=1273
64.0 40.645 
65.0 42.262 
77.0 10.967 
90.0 100.0 
104.0 9.078 
132.0 5.099 
END IONS

BEGIN IONS
PEPMASS=80.05
CHARGE=1+
MSLEVEL=2
SOURCE_INSTRUMENT=Positive-Quattro_QQQ:40eV
FILENAME=hmdb_intermediate.mgf
SEQ=*..*
IONMODE=Positive
ORGANISM=HMDB
NAME=HMDB:HMDB00926-1317 Pyridine M+H
PI=HMDB
DATACOLLECTOR=HMDB
SMILES=C1=CC=NC=C1
INCHI=InChI=1S/C5H5N/c1-2-4-6-5-3-1/h1-5H
INCHIAUX=N/A
PUBMED=N/A
SUBMITUSER=mwang87
TAGS=
LIBRARYQUALITY=3
SPECTRUMID=CCMSLIB00000426302
SCANS=1274
53.149 66.484 
79.843 100.0 
END IONS

BEGIN IONS
PEPMASS=428.037
CHARGE=1+
MSLEVEL=2
SOURCE_INSTRUMENT=Positive-Quattro_QQQ:25eV
FILENAME=hmdb_intermediate.mgf
SEQ=*..*
IONMODE=Positive
ORGANISM=HMDB
NAME=HMDB:HMDB01341-1523 ADP M+H
PI=HMDB
DATACOLLECTOR=HMDB
SMILES=NC1=NC=NC2=C1N=CN2[C@@H]1O[C@H](COP(O)(=O)OP(O)(O)=O)[C@@H](O)[C@H]1O
INCHI=InChI=1S/C10H15N5O10P2/c11-8-5-9(13-2-12-8)15(3-14-5)10-7(17)6(16)4(24-10)1-23-27(21,22)25-26(18,19)20/h2-4,6-7,10,16-17H,1H2,(H,21,22)(H2,11,12,13)(H2,18,19,20)/t4-,6-,7-,10-/m1/s1
INCHIAUX=N/A
PUBMED=N/A
SUBMITUSER=mwang87
TAGS=
LIBRARYQUALITY=3
SPECTRUMID=CCMSLIB00000426303
SCANS=1275
96.0 4.3 
135.0 100.0 
231.0 1.201 
347.0 4.539 
END IONS

BEGIN IONS
PEPMASS=167.034
CHARGE=1+
MSLEVEL=2
SOURCE_INSTRUMENT=Positive-Quattro_QQQ:40eV
FILENAME=hmdb_intermediate.mgf
SEQ=*..*
IONMODE=Positive
ORGANISM=HMDB
NAME=HMDB:HMDB02107-2006 Phthalic acid M+H
PI=HMDB
DATACOLLECTOR=HMDB
SMILES=OC(=O)C1=CC=CC=C1C(O)=O
INCHI=InChI=1S/C8H6O4/c9-7(10)5-3-1-2-4-6(5)8(11)12/h1-4H,(H,9,10)(H,11,12)
INCHIAUX=N/A
PUBMED=N/A
SUBMITUSER=mwang87
TAGS=
LIBRARYQUALITY=3
SPECTRUMID=CCMSLIB00000426304
SCANS=1276
65.0 100.0 
93.0 12.616 
121.0 2.07 
149.0 2.241 
END IONS

BEGIN IONS
PEPMASS=406.234
CHARGE=1+
MSLEVEL=2
SOURCE_INSTRUMENT=Positive-Quattro_QQQ:10eV
FILENAME=hmdb_intermediate.mgf
SEQ=*..*
IONMODE=Positive
ORGANISM=HMDB
NAME=HMDB:HMDB01938-1890 Lisinopril M+H
PI=HMDB
DATACOLLECTOR=HMDB
SMILES=NCCCC[C@H](N[C@@H](CCC1=CC=CC=C1)C(O)=O)C(=O)N1CCC[C@H]1C(O)=O
INCHI=InChI=1S/C21H31N3O5/c22-13-5-4-9-16(19(25)24-14-6-10-18(24)21(28)29)23-17(20(26)27)12-11-15-7-2-1-3-8-15/h1-3,7-8,16-18,23H,4-6,9-14,22H2,(H,26,27)(H,28,29)/t16-,17-,18-/m0/s1
INCHIAUX=N/A
PUBMED=N/A
SUBMITUSER=mwang87
TAGS=
LIBRARYQUALITY=3
SPECTRUMID=CCMSLIB00000426305
SCANS=1277
107.961 69.524 
208.385 100.0 
239.741 55.238 
285.827 75.238 
313.768 56.19 
365.43 75.238 
383.269 62.857 
406.748 74.286 
END IONS

BEGIN IONS
PEPMASS=162.055
CHARGE=1+
MSLEVEL=2
SOURCE_INSTRUMENT=Positive-Quattro_QQQ:40eV
FILENAME=hmdb_intermediate.mgf
SEQ=*..*
IONMODE=Positive
ORGANISM=HMDB
NAME=HMDB:HMDB03320-2244 Indole-3-carboxylic acid M+H
PI=HMDB
DATACOLLECTOR=HMDB
SMILES=OC(=O)C1=CNC2=CC=CC=C12
INCHI=InChI=1S/C9H7NO2/c11-9(12)7-5-10-8-4-2-1-3-6(7)8/h1-5,10H,(H,11,12)
INCHIAUX=N/A
PUBMED=N/A
SUBMITUSER=mwang87
TAGS=
LIBRARYQUALITY=3
SPECTRUMID=CCMSLIB00000426306
SCANS=1278
64.0 51.151 
65.0 28.767 
77.0 10.53 
89.0 100.0 
116.0 69.184 
END IONS

BEGIN IONS
PEPMASS=206.082
CHARGE=1+
MSLEVEL=2
SOURCE_INSTRUMENT=Positive-Quattro_QQQ:25eV
FILENAME=hmdb_intermediate.mgf
SEQ=*..*
IONMODE=Positive
ORGANISM=HMDB
NAME=HMDB:HMDB00671-925 Indolelactic acid M+H
PI=HMDB
DATACOLLECTOR=HMDB
SMILES=OC(CC1=CNC2=C1C=CC=C2)C(O)=O
INCHI=InChI=1S/C11H11NO3/c13-10(11(14)15)5-7-6-12-9-4-2-1-3-8(7)9/h1-4,6,10,12-13H,5H2,(H,14,15)
INCHIAUX=N/A
PUBMED=N/A
SUBMITUSER=mwang87
TAGS=
LIBRARYQUALITY=3
SPECTRUMID=CCMSLIB00000426307
SCANS=1279
91.09 8.008 
117.893 100.0 
130.058 83.984 
142.168 20.996 
146.002 16.992 
159.978 6.348 
169.989 22.754 
187.886 5.933 
END IONS

BEGIN IONS
PEPMASS=170.045
CHARGE=1+
MSLEVEL=2
SOURCE_INSTRUMENT=Positive-Quattro_QQQ:25eV
FILENAME=hmdb_intermediate.mgf
SEQ=*..*
IONMODE=Positive
ORGANISM=HMDB
NAME=HMDB:HMDB00439-639 2-Furoylglycine M+H
PI=HMDB
DATACOLLECTOR=HMDB
SMILES=OC(=O)CNC(=O)C1=CC=CO1
INCHI=InChI=1S/C7H7NO4/c9-6(10)4-8-7(11)5-2-1-3-12-5/h1-3H,4H2,(H,8,11)(H,9,10)
INCHIAUX=N/A
PUBMED=N/A
SUBMITUSER=mwang87
TAGS=
LIBRARYQUALITY=3
SPECTRUMID=CCMSLIB00000426308
SCANS=1280
67.151 3.69 
95.031 100.0 
END IONS

BEGIN IONS
PEPMASS=163.061
CHARGE=1+
MSLEVEL=2
SOURCE_INSTRUMENT=Positive-Quattro_QQQ:10eV
FILENAME=hmdb_intermediate.mgf
SEQ=*..*
IONMODE=Positive
ORGANISM=HMDB
NAME=HMDB:HMDB00640-876 Levoglucosan M+H
PI=HMDB
DATACOLLECTOR=HMDB
SMILES=[H][C@@]12OC[C@@H](O1)[C@@H](O)[C@H](O)[C@H]2O
INCHI=InChI=1S/C6H10O5/c7-3-2-1-10-6(11-2)5(9)4(3)8/h2-9H,1H2/t2-,3-,4+,5-,6-/m1/s1
INCHIAUX=N/A
PUBMED=N/A
SUBMITUSER=mwang87
TAGS=
LIBRARYQUALITY=3
SPECTRUMID=CCMSLIB00000426309
SCANS=1281
43.332 3.565 
61.179 10.387 
69.166 11.444 
81.095 4.886 
85.085 100.0 
97.07 13.732 
109.023 6.998 
114.98 5.194 
126.997 16.725 
144.986 12.5 
162.953 6.734 
END IONS

BEGIN IONS
PEPMASS=406.234
CHARGE=1+
MSLEVEL=2
SOURCE_INSTRUMENT=Positive-Quattro_QQQ:40eV
FILENAME=hmdb_intermediate.mgf
SEQ=*..*
IONMODE=Positive
ORGANISM=HMDB
NAME=HMDB:HMDB01938-1892 Lisinopril M+H
PI=HMDB
DATACOLLECTOR=HMDB
SMILES=NCCCC[C@H](N[C@@H](CCC1=CC=CC=C1)C(O)=O)C(=O)N1CCC[C@H]1C(O)=O
INCHI=InChI=1S/C21H31N3O5/c22-13-5-4-9-16(19(25)24-14-6-10-18(24)21(28)29)23-17(20(26)27)12-11-15-7-2-1-3-8-15/h1-3,7-8,16-18,23H,4-6,9-14,22H2,(H,26,27)(H,28,29)/t16-,17-,18-/m0/s1
INCHIAUX=N/A
PUBMED=N/A
SUBMITUSER=mwang87
TAGS=
LIBRARYQUALITY=3
SPECTRUMID=CCMSLIB00000426310
SCANS=1282
83.968 100.0 
84.655 50.0 
END IONS

BEGIN IONS
PEPMASS=310.114
CHARGE=1+
MSLEVEL=2
SOURCE_INSTRUMENT=Positive-Quattro_QQQ:25eV
FILENAME=hmdb_intermediate.mgf
SEQ=*..*
IONMODE=Positive
ORGANISM=HMDB
NAME=HMDB:HMDB00230-386 N-Acetylneuraminic acid M+H
PI=HMDB
DATACOLLECTOR=HMDB
SMILES=CC(=O)N[C@@H]1[C@@H](O)C[C@](O)(O[C@H]1[C@H](O)[C@H](O)CO)C(O)=O
INCHI=InChI=1S/C11H19NO9/c1-4(14)12-7-5(15)2-11(20,10(18)19)21-9(7)8(17)6(16)3-13/h5-9,13,15-17,20H,2-3H2,1H3,(H,12,14)(H,18,19)/t5-,6+,7+,8+,9+,11-/m0/s1
INCHIAUX=N/A
PUBMED=N/A
SUBMITUSER=mwang87
TAGS=
LIBRARYQUALITY=3
SPECTRUMID=CCMSLIB00000426311
SCANS=1283
45.337 4.831 
60.246 19.522 
68.17 14.044 
84.134 24.004 
94.04 8.964 
103.034 17.729 
112.035 22.51 
120.951 100.0 
130.0 18.924 
136.012 11.554 
150.276 17.43 
167.071 22.311 
178.416 9.861 
197.133 13.845 
214.016 6.225 
231.977 5.304 
END IONS

BEGIN IONS
PEPMASS=367.358
CHARGE=1+
MSLEVEL=2
SOURCE_INSTRUMENT=Positive-Quattro_QQQ:10eV
FILENAME=hmdb_intermediate.mgf
SEQ=*..*
IONMODE=Positive
ORGANISM=HMDB
NAME=HMDB:HMDB02368-2086 Nervonic acid M+H
PI=HMDB
DATACOLLECTOR=HMDB
SMILES=CCCCCCCC\C=C/CCCCCCCCCCCCCC(O)=O
INCHI=InChI=1S/C24H46O2/c1-2-3-4-5-6-7-8-9-10-11-12-13-14-15-16-17-18-19-20-21-22-23-24(25)26/h9-10H,2-8,11-23H2,1H3,(H,25,26)/b10-9-
INCHIAUX=N/A
PUBMED=N/A
SUBMITUSER=mwang87
TAGS=
LIBRARYQUALITY=3
SPECTRUMID=CCMSLIB00000426312
SCANS=1284
57.0 1.447 
70.0 3.02 
84.0 3.753 
85.0 2.112 
98.0 2.302 
112.0 1.504 
126.0 1.467 
142.0 1.538 
184.0 1.605 
198.0 1.764 
212.0 2.101 
227.0 1.694 
240.0 2.047 
330.0 3.898 
349.0 10.313 
366.0 100.0 
END IONS

BEGIN IONS
PEPMASS=334.905
CHARGE=1+
MSLEVEL=2
SOURCE_INSTRUMENT=Negative-Quattro_QQQ:10eV
FILENAME=hmdb_intermediate.mgf
SEQ=*..*
IONMODE=Negative
ORGANISM=HMDB
NAME=HMDB:HMDB04122-2367 Selenocystine M-H
PI=HMDB
DATACOLLECTOR=HMDB
SMILES=NC(C[Se][Se]CC(N)C(O)=O)C(O)=O
INCHI=InChI=1S/C6H12N2O4Se2/c7-3(5(9)10)1-13-14-2-4(8)6(11)12/h3-4H,1-2,7-8H2,(H,9,10)(H,11,12)
INCHIAUX=N/A
PUBMED=N/A
SUBMITUSER=mwang87
TAGS=
LIBRARYQUALITY=3
SPECTRUMID=CCMSLIB00000426313
SCANS=1285
160.0 17.244 
167.0 9.084 
247.0 100.0 
334.0 18.378 
335.0 7.087 
END IONS

BEGIN IONS
PEPMASS=109.029
CHARGE=1+
MSLEVEL=2
SOURCE_INSTRUMENT=Positive-Quattro_QQQ:40eV
FILENAME=hmdb_intermediate.mgf
SEQ=*..*
IONMODE=Positive
ORGANISM=HMDB
NAME=HMDB:HMDB03364-2270 Quinone M+H
PI=HMDB
DATACOLLECTOR=HMDB
SMILES=O=C1C=CC(=O)C=C1
INCHI=InChI=1S/C6H4O2/c7-5-1-2-6(8)4-3-5/h1-4H
INCHIAUX=N/A
PUBMED=N/A
SUBMITUSER=mwang87
TAGS=
LIBRARYQUALITY=3
SPECTRUMID=CCMSLIB00000426314
SCANS=1286
29.0 15.531 
39.0 68.608 
50.0 34.139 
64.0 69.341 
65.0 100.0 
76.0 47.784 
93.0 29.166 
108.0 14.174 
END IONS

BEGIN IONS
PEPMASS=106.05
CHARGE=1+
MSLEVEL=2
SOURCE_INSTRUMENT=Positive-Quattro_QQQ:10eV
FILENAME=hmdb_intermediate.mgf
SEQ=*..*
IONMODE=Positive
ORGANISM=HMDB
NAME=HMDB:HMDB00187-295 L-Serine M+H
PI=HMDB
DATACOLLECTOR=HMDB
SMILES=N[C@@H](CO)C(O)=O
INCHI=InChI=1S/C3H7NO3/c4-2(1-5)3(6)7/h2,5H,1,4H2,(H,6,7)/t2-/m0/s1
INCHIAUX=N/A
PUBMED=N/A
SUBMITUSER=mwang87
TAGS=
LIBRARYQUALITY=3
SPECTRUMID=CCMSLIB00000426315
SCANS=1287
60.154 100.0 
70.081 9.706 
88.016 19.412 
105.937 24.265 
END IONS

BEGIN IONS
PEPMASS=147.029
CHARGE=1+
MSLEVEL=2
SOURCE_INSTRUMENT=Negative-Quattro_QQQ:10eV
FILENAME=hmdb_intermediate.mgf
SEQ=*..*
IONMODE=Negative
ORGANISM=HMDB
NAME=HMDB:HMDB00426-629 Citramalic acid M-H
PI=HMDB
DATACOLLECTOR=HMDB
SMILES=CC(O)(CC(O)=O)C(O)=O
INCHI=InChI=1S/C5H8O5/c1-5(10,4(8)9)2-3(6)7/h10H,2H2,1H3,(H,6,7)(H,8,9)
INCHIAUX=N/A
PUBMED=N/A
SUBMITUSER=mwang87
TAGS=
LIBRARYQUALITY=3
SPECTRUMID=CCMSLIB00000426316
SCANS=1288
57.467 7.378 
87.261 65.278 
101.222 7.943 
129.122 17.708 
147.093 100.0 
END IONS

BEGIN IONS
PEPMASS=227.128
CHARGE=1+
MSLEVEL=2
SOURCE_INSTRUMENT=Negative-Quattro_QQQ:10eV
FILENAME=hmdb_intermediate.mgf
SEQ=*..*
IONMODE=Negative
ORGANISM=HMDB
NAME=HMDB:HMDB00933-1327 Traumatic acid M-H
PI=HMDB
DATACOLLECTOR=HMDB
SMILES=OC(=O)CCCCCCCC\C=C\C(O)=O
INCHI=InChI=1S/C12H20O4/c13-11(14)9-7-5-3-1-2-4-6-8-10-12(15)16/h7,9H,1-6,8,10H2,(H,13,14)(H,15,16)/b9-7+
INCHIAUX=N/A
PUBMED=N/A
SUBMITUSER=mwang87
TAGS=
LIBRARYQUALITY=3
SPECTRUMID=CCMSLIB00000426317
SCANS=1289
78.0 19.856 
110.0 32.719 
142.0 5.503 
152.0 42.168 
166.0 5.191 
212.0 32.476 
224.0 5.141 
225.0 4.501 
242.0 6.871 
254.0 27.805 
255.0 5.307 
268.0 9.11 
287.0 100.0 
END IONS

BEGIN IONS
PEPMASS=181.073
CHARGE=1+
MSLEVEL=2
SOURCE_INSTRUMENT=Positive-Quattro_QQQ:10eV
FILENAME=hmdb_intermediate.mgf
SEQ=*..*
IONMODE=Positive
ORGANISM=HMDB
NAME=HMDB:HMDB01860-1735 Paraxanthine M+H
PI=HMDB
DATACOLLECTOR=HMDB
SMILES=CN1C=NC2=C1C(=O)N(C)C(=O)N2
INCHI=InChI=1S/C7H8N4O2/c1-10-3-8-5-4(10)6(12)11(2)7(13)9-5/h3H,1-2H3,(H,9,13)
INCHIAUX=N/A
PUBMED=N/A
SUBMITUSER=mwang87
TAGS=
LIBRARYQUALITY=3
SPECTRUMID=CCMSLIB00000426318
SCANS=1290
124.007 15.871 
124.505 11.01 
180.966 100.0 
END IONS

BEGIN IONS
PEPMASS=158.082
CHARGE=1+
MSLEVEL=2
SOURCE_INSTRUMENT=Positive-Quattro_QQQ:40eV
FILENAME=hmdb_intermediate.mgf
SEQ=*..*
IONMODE=Positive
ORGANISM=HMDB
NAME=HMDB:HMDB00459-670 3-Methylcrotonylglycine M+H
PI=HMDB
DATACOLLECTOR=HMDB
SMILES=CC(C)=CC(=O)NCC(O)=O
INCHI=InChI=1S/C7H11NO3/c1-5(2)3-6(9)8-4-7(10)11/h3H,4H2,1-2H3,(H,8,9)(H,10,11)
INCHIAUX=N/A
PUBMED=N/A
SUBMITUSER=mwang87
TAGS=
LIBRARYQUALITY=3
SPECTRUMID=CCMSLIB00000426319
SCANS=1291
53.575 12.095 
55.562 100.0 
83.336 51.62 
END IONS

BEGIN IONS
PEPMASS=649.592
CHARGE=1+
MSLEVEL=2
SOURCE_INSTRUMENT=Positive-Quattro_QQQ:40eV
FILENAME=hmdb_intermediate.mgf
SEQ=*..*
IONMODE=Positive
ORGANISM=HMDB
NAME=HMDB:HMDB00610-830 CE(18:2(9Z,12Z)) M+H
PI=HMDB
DATACOLLECTOR=HMDB
SMILES=CCCCC\C=C/C\C=C/CCCCCCCC(=O)O[C@H]1CC[C@@]2(C)C(=CC[C@@]3([H])[C@]4([H])CC[C@]([H])([C@H](C)CCCC(C)C)[C@@]4(C)CC[C@]23[H])C1
INCHI=InChI=1S/C45H76O2/c1-7-8-9-10-11-12-13-14-15-16-17-18-19-20-21-25-43(46)47-38-30-32-44(5)37(34-38)26-27-39-41-29-28-40(36(4)24-22-23-35(2)3)45(41,6)33-31-42(39)44/h11-12,14-15,26,35-36,38-42H,7-10,13,16-25,27-34H2,1-6H3/b12-11-,15-14-/t36-,38+,39+,40-,41+,42+,44+,45-/m1/s1
INCHIAUX=N/A
PUBMED=N/A
SUBMITUSER=mwang87
TAGS=
LIBRARYQUALITY=3
SPECTRUMID=CCMSLIB00000426320
SCANS=1292
123.0 75.624 
249.0 73.839 
267.0 89.298 
434.0 70.568 
649.0 100.0 
END IONS

BEGIN IONS
PEPMASS=201.185
CHARGE=1+
MSLEVEL=2
SOURCE_INSTRUMENT=Positive-Quattro_QQQ:25eV
FILENAME=hmdb_intermediate.mgf
SEQ=*..*
IONMODE=Positive
ORGANISM=HMDB
NAME=HMDB:HMDB00638-871 Dodecanoic acid M+H
PI=HMDB
DATACOLLECTOR=HMDB
SMILES=CCCCCCCCCCCC(O)=O
INCHI=InChI=1S/C12H24O2/c1-2-3-4-5-6-7-8-9-10-11-12(13)14/h2-11H2,1H3,(H,13,14)
INCHIAUX=N/A
PUBMED=N/A
SUBMITUSER=mwang87
TAGS=
LIBRARYQUALITY=3
SPECTRUMID=CCMSLIB00000426321
SCANS=1293
43.0 100.0 
55.0 96.263 
69.0 63.136 
83.0 51.922 
129.0 52.292 
143.0 36.194 
156.0 37.651 
202.0 40.642 
END IONS

BEGIN IONS
PEPMASS=159.052
CHARGE=1+
MSLEVEL=2
SOURCE_INSTRUMENT=Positive-Quattro_QQQ:25eV
FILENAME=hmdb_intermediate.mgf
SEQ=*..*
IONMODE=Positive
ORGANISM=HMDB
NAME=HMDB:HMDB00462-672 Allantoin M+H
PI=HMDB
DATACOLLECTOR=HMDB
SMILES=NC(=O)NC1NC(=O)NC1=O
INCHI=InChI=1S/C4H6N4O3/c5-3(10)6-1-2(9)8-4(11)7-1/h1H,(H3,5,6,10)(H2,7,8,9,11)
INCHIAUX=N/A
PUBMED=N/A
SUBMITUSER=mwang87
TAGS=
LIBRARYQUALITY=3
SPECTRUMID=CCMSLIB00000426322
SCANS=1294
44.307 29.734 
45.4 11.095 
61.149 100.0 
73.075 47.929 
98.958 64.497 
115.921 5.954 
END IONS

BEGIN IONS
PEPMASS=118.062
CHARGE=1+
MSLEVEL=2
SOURCE_INSTRUMENT=Positive-Quattro_QQQ:10eV
FILENAME=hmdb_intermediate.mgf
SEQ=*..*
IONMODE=Positive
ORGANISM=HMDB
NAME=HMDB:HMDB00128-194 Guanidoacetic acid M+H
PI=HMDB
DATACOLLECTOR=HMDB
SMILES=NC(=N)NCC(O)=O
INCHI=InChI=1S/C3H7N3O2/c4-3(5)6-1-2(7)8/h1H2,(H,7,8)(H4,4,5,6)
INCHIAUX=N/A
PUBMED=N/A
SUBMITUSER=mwang87
TAGS=
LIBRARYQUALITY=3
SPECTRUMID=CCMSLIB00000426323
SCANS=1295
72.194 37.069 
76.105 66.379 
101.02 44.181 
118.002 100.0 
END IONS

BEGIN IONS
PEPMASS=305.098
CHARGE=1+
MSLEVEL=2
SOURCE_INSTRUMENT=Positive-Quattro_QQQ:10eV
FILENAME=hmdb_intermediate.mgf
SEQ=*..*
IONMODE=Positive
ORGANISM=HMDB
NAME=HMDB:HMDB01067-1412 N-Acetylaspartylglutamic acid M+H
PI=HMDB
DATACOLLECTOR=HMDB
SMILES=CC(=O)NC(CC(O)=O)C(=O)NC(CCC(O)=O)C(O)=O
INCHI=InChI=1S/C11H16N2O8/c1-5(14)12-7(4-9(17)18)10(19)13-6(11(20)21)2-3-8(15)16/h6-7H,2-4H2,1H3,(H,12,14)(H,13,19)(H,15,16)(H,17,18)(H,20,21)
INCHIAUX=N/A
PUBMED=N/A
SUBMITUSER=mwang87
TAGS=
LIBRARYQUALITY=3
SPECTRUMID=CCMSLIB00000426324
SCANS=1296
130.0 7.283 
148.0 100.0 
158.0 10.474 
305.0 8.159 
END IONS

BEGIN IONS
PEPMASS=347.222
CHARGE=1+
MSLEVEL=2
SOURCE_INSTRUMENT=Positive-Quattro_QQQ:10eV
FILENAME=hmdb_intermediate.mgf
SEQ=*..*
IONMODE=Positive
ORGANISM=HMDB
NAME=HMDB:HMDB01547-1646 Corticosterone M+H
PI=HMDB
DATACOLLECTOR=HMDB
SMILES=[H][C@@]12CC[C@H](C(=O)CO)[C@@]1(C)C[C@H](O)[C@@]1([H])[C@@]2([H])CCC2=CC(=O)CC[C@]12C
INCHI=InChI=1S/C21H30O4/c1-20-8-7-13(23)9-12(20)3-4-14-15-5-6-16(18(25)11-22)21(15,2)10-17(24)19(14)20/h9,14-17,19,22,24H,3-8,10-11H2,1-2H3/t14-,15-,16+,17-,19+,20-,21-/m0/s1
INCHIAUX=N/A
PUBMED=N/A
SUBMITUSER=mwang87
TAGS=
LIBRARYQUALITY=3
SPECTRUMID=CCMSLIB00000426325
SCANS=1297
97.097 0.829 
121.033 1.947 
252.956 0.706 
268.958 0.706 
293.115 1.635 
311.15 1.995 
329.201 6.442 
347.3 100.0 
END IONS

BEGIN IONS
PEPMASS=768.123
CHARGE=1+
MSLEVEL=2
SOURCE_INSTRUMENT=Positive-Quattro_QQQ:10eV
FILENAME=hmdb_intermediate.mgf
SEQ=*..*
IONMODE=Positive
ORGANISM=HMDB
NAME=HMDB:HMDB01423-1571 Coenzyme A M+H
PI=HMDB
DATACOLLECTOR=HMDB
SMILES=CC(C)(COP(O)(=O)OP(O)(=O)OC[C@H]1O[C@H]([C@H](O)[C@@H]1OP(O)(O)=O)N1C=NC2=C1N=CN=C2N)C(O)C(=O)NCCC(=O)NCCS
INCHI=InChI=1S/C21H36N7O16P3S/c1-21(2,16(31)19(32)24-4-3-12(29)23-5-6-48)8-41-47(38,39)44-46(36,37)40-7-11-15(43-45(33,34)35)14(30)20(42-11)28-10-27-13-17(22)25-9-26-18(13)28/h9-11,14-16,20,30-31,48H,3-8H2,1-2H3,(H,23,29)(H,24,32)(H,36,37)(H,38,39)(H2,22,25,26)(H2,33,34,35)/t11-,14-,15-,16?,20-/m1/s1
INCHIAUX=N/A
PUBMED=N/A
SUBMITUSER=mwang87
TAGS=
LIBRARYQUALITY=3
SPECTRUMID=CCMSLIB00000426326
SCANS=1298
261.0 6.728 
341.0 0.617 
410.0 0.58 
428.0 2.182 
768.0 100.0 
END IONS

BEGIN IONS
PEPMASS=76.0762
CHARGE=1+
MSLEVEL=2
SOURCE_INSTRUMENT=Positive-Quattro_QQQ:40eV
FILENAME=hmdb_intermediate.mgf
SEQ=*..*
IONMODE=Positive
ORGANISM=HMDB
NAME=HMDB:HMDB00925-1314 Trimethylamine N-oxide M+H
PI=HMDB
DATACOLLECTOR=HMDB
SMILES=C[N+](C)(C)[O-]
INCHI=InChI=1S/C3H9NO/c1-4(2,3)5/h1-3H3
INCHIAUX=N/A
PUBMED=N/A
SUBMITUSER=mwang87
TAGS=
LIBRARYQUALITY=3
SPECTRUMID=CCMSLIB00000426327
SCANS=1299
42.288 91.818 
58.114 100.0 
76.111 32.5 
END IONS

BEGIN IONS
PEPMASS=163.04
CHARGE=1+
MSLEVEL=2
SOURCE_INSTRUMENT=Negative-Quattro_QQQ:10eV
FILENAME=hmdb_intermediate.mgf
SEQ=*..*
IONMODE=Negative
ORGANISM=HMDB
NAME=HMDB:HMDB01713-1675 m-Coumaric acid M-H
PI=HMDB
DATACOLLECTOR=HMDB
SMILES=OC(=O)\C=C\C1=CC=CC(O)=C1
INCHI=InChI=1S/C9H8O3/c10-8-3-1-2-7(6-8)4-5-9(11)12/h1-6,10H,(H,11,12)/b5-4+
INCHIAUX=N/A
PUBMED=N/A
SUBMITUSER=mwang87
TAGS=
LIBRARYQUALITY=3
SPECTRUMID=CCMSLIB00000426328
SCANS=1300
119.203 97.59 
163.111 100.0 
END IONS

BEGIN IONS
PEPMASS=160.097
CHARGE=1+
MSLEVEL=2
SOURCE_INSTRUMENT=Positive-Quattro_QQQ:40eV
FILENAME=hmdb_intermediate.mgf
SEQ=*..*
IONMODE=Positive
ORGANISM=HMDB
NAME=HMDB:HMDB00339-548 2-Methylbutyrylglycine M+H
PI=HMDB
DATACOLLECTOR=HMDB
SMILES=CCC(C)C(=O)NCC(O)=O
INCHI=InChI=1S/C7H13NO3/c1-3-5(2)7(11)8-4-6(9)10/h5H,3-4H2,1-2H3,(H,8,11)(H,9,10)
INCHIAUX=N/A
PUBMED=N/A
SUBMITUSER=mwang87
TAGS=
LIBRARYQUALITY=3
SPECTRUMID=CCMSLIB00000426329
SCANS=1301
41.69 74.747 
57.529 100.0 
69.436 2.525 
76.356 3.772 
85.437 3.804 
100.311 2.715 
END IONS

BEGIN IONS
PEPMASS=297.972
CHARGE=1+
MSLEVEL=2
SOURCE_INSTRUMENT=Positive-Quattro_QQQ:25eV
FILENAME=hmdb_intermediate.mgf
SEQ=*..*
IONMODE=Positive
ORGANISM=HMDB
NAME=HMDB:HMDB01928-1864 Hydrochlorothiazide M+H
PI=HMDB
DATACOLLECTOR=HMDB
SMILES=NS(=O)(=O)C1=C(Cl)C=C2NCNS(=O)(=O)C2=C1
INCHI=InChI=1S/C7H8ClN3O4S2/c8-4-1-5-7(2-6(4)16(9,12)13)17(14,15)11-3-10-5/h1-2,10-11H,3H2,(H2,9,12,13)
INCHIAUX=N/A
PUBMED=N/A
SUBMITUSER=mwang87
TAGS=
LIBRARYQUALITY=3
SPECTRUMID=CCMSLIB00000426330
SCANS=1302
130.665 18.824 
140.914 45.0 
149.618 39.118 
156.441 100.0 
171.64 98.824 
179.696 31.176 
186.956 26.176 
203.171 16.176 
204.975 72.059 
252.82 63.529 
263.072 55.294 
269.428 28.529 
END IONS

BEGIN IONS
PEPMASS=132.066
CHARGE=1+
MSLEVEL=2
SOURCE_INSTRUMENT=Positive-Quattro_QQQ:10eV
FILENAME=hmdb_intermediate.mgf
SEQ=*..*
IONMODE=Positive
ORGANISM=HMDB
NAME=HMDB:HMDB00725-1017 4-Hydroxyproline M+H
PI=HMDB
DATACOLLECTOR=HMDB
SMILES=O[C@H]1CN[C@@H](C1)C(O)=O
INCHI=InChI=1S/C5H9NO3/c7-3-1-4(5(8)9)6-2-3/h3-4,6-7H,1-2H2,(H,8,9)/t3-,4+/m1/s1
INCHIAUX=N/A
PUBMED=N/A
SUBMITUSER=mwang87
TAGS=
LIBRARYQUALITY=3
SPECTRUMID=CCMSLIB00000426331
SCANS=1303
68.114 17.647 
86.049 100.0 
131.917 99.51 
END IONS

BEGIN IONS
PEPMASS=289.18
CHARGE=1+
MSLEVEL=2
SOURCE_INSTRUMENT=Positive-Quattro_QQQ:25eV
FILENAME=hmdb_intermediate.mgf
SEQ=*..*
IONMODE=Positive
ORGANISM=HMDB
NAME=HMDB:HMDB00347-559 16b-Hydroxyestradiol M+H
PI=HMDB
DATACOLLECTOR=HMDB
SMILES=[H][C@@]12C[C@H](O)[C@H](O)[C@@]1(C)CC[C@]1([H])C3=C(CC[C@@]21[H])C=C(O)C=C3
INCHI=InChI=1S/C18H24O3/c1-18-7-6-13-12-5-3-11(19)8-10(12)2-4-14(13)15(18)9-16(20)17(18)21/h3,5,8,13-17,19-21H,2,4,6-7,9H2,1H3/t13-,14-,15+,16+,17+,18+/m1/s1
INCHIAUX=N/A
PUBMED=N/A
SUBMITUSER=mwang87
TAGS=
LIBRARYQUALITY=3
SPECTRUMID=CCMSLIB00000426332
SCANS=1304
67.369 4.937 
81.306 12.605 
93.266 7.878 
95.254 10.609 
107.2 100.0 
121.153 11.239 
133.149 28.992 
145.108 10.347 
159.097 17.017 
171.051 4.464 
197.008 4.779 
253.036 2.705 
END IONS

BEGIN IONS
PEPMASS=427.096
CHARGE=1+
MSLEVEL=2
SOURCE_INSTRUMENT=Positive-Quattro_QQQ:40eV
FILENAME=hmdb_intermediate.mgf
SEQ=*..*
IONMODE=Positive
ORGANISM=HMDB
NAME=HMDB:HMDB00656-896 Cysteineglutathione disulfide M+H
PI=HMDB
DATACOLLECTOR=HMDB
SMILES=N[C@@H](CCC(=O)N[C@@H](CSSCC(N)C(O)=O)C(=O)NCC(O)=O)C(O)=O
INCHI=InChI=1S/C13H22N4O8S2/c14-6(12(22)23)1-2-9(18)17-8(11(21)16-3-10(19)20)5-27-26-4-7(15)13(24)25/h6-8H,1-5,14-15H2,(H,16,21)(H,17,18)(H,19,20)(H,22,23)(H,24,25)/t6-,7?,8-/m0/s1
INCHIAUX=N/A
PUBMED=N/A
SUBMITUSER=mwang87
TAGS=
LIBRARYQUALITY=3
SPECTRUMID=CCMSLIB00000426333
SCANS=1305
55.333 11.489 
90.433 11.489 
102.584 11.915 
123.081 100.0 
154.748 16.17 
170.215 10.638 
205.323 11.064 
234.05 77.447 
247.554 20.0 
255.289 11.064 
320.118 12.766 
366.166 27.66 
435.185 11.064 
451.152 10.638 
END IONS

BEGIN IONS
PEPMASS=160.097
CHARGE=1+
MSLEVEL=2
SOURCE_INSTRUMENT=Positive-Quattro_QQQ:25eV
FILENAME=hmdb_intermediate.mgf
SEQ=*..*
IONMODE=Positive
ORGANISM=HMDB
NAME=HMDB:HMDB00678-940 Isovalerylglycine M+H
PI=HMDB
DATACOLLECTOR=HMDB
SMILES=CC(C)CC(=O)NCC(O)=O
INCHI=InChI=1S/C7H13NO3/c1-5(2)3-6(9)8-4-7(10)11/h5H,3-4H2,1-2H3,(H,8,9)(H,10,11)
INCHIAUX=N/A
PUBMED=N/A
SUBMITUSER=mwang87
TAGS=
LIBRARYQUALITY=3
SPECTRUMID=CCMSLIB00000426334
SCANS=1306
41.651 18.689 
57.505 100.0 
76.325 7.373 
85.312 6.553 
END IONS

BEGIN IONS
PEPMASS=303.05
CHARGE=1+
MSLEVEL=2
SOURCE_INSTRUMENT=Positive-Quattro_QQQ:40eV
FILENAME=hmdb_intermediate.mgf
SEQ=*..*
IONMODE=Positive
ORGANISM=HMDB
NAME=HMDB:HMDB05794-2447 Quercetin M+H
PI=HMDB
DATACOLLECTOR=HMDB
SMILES=OC1=CC(O)=C2C(OC(=C(O)C2=O)C2=CC(O)=C(O)C=C2)=C1
INCHI=InChI=1S/C15H10O7/c16-7-4-10(19)12-11(5-7)22-15(14(21)13(12)20)6-1-2-8(17)9(18)3-6/h1-5,16-19,21H
INCHIAUX=N/A
PUBMED=N/A
SUBMITUSER=mwang87
TAGS=
LIBRARYQUALITY=3
SPECTRUMID=CCMSLIB00000426335
SCANS=1307
43.0 8.995 
64.0 10.652 
68.0 100.0 
80.0 27.84 
94.0 14.724 
104.0 16.439 
108.0 38.224 
120.0 27.476 
126.0 26.206 
136.0 56.732 
152.0 67.508 
155.0 18.582 
172.0 17.987 
182.0 14.561 
186.0 12.261 
200.0 19.56 
228.0 32.857 
302.0 8.053 
END IONS

BEGIN IONS
PEPMASS=153.128
CHARGE=1+
MSLEVEL=2
SOURCE_INSTRUMENT=Positive-Quattro_QQQ:25eV
FILENAME=hmdb_intermediate.mgf
SEQ=*..*
IONMODE=Positive
ORGANISM=HMDB
NAME=HMDB:HMDB03634-2335 Perillyl alcohol M+H
PI=HMDB
DATACOLLECTOR=HMDB
SMILES=CC(=C)C1CCC(CO)=CC1
INCHI=InChI=1S/C10H16O/c1-8(2)10-5-3-9(7-11)4-6-10/h3,10-11H,1,4-7H2,2H3
INCHIAUX=N/A
PUBMED=N/A
SUBMITUSER=mwang87
TAGS=
LIBRARYQUALITY=3
SPECTRUMID=CCMSLIB00000426336
SCANS=1308
43.0 15.375 
45.0 25.151 
59.0 80.56 
73.0 68.874 
75.0 92.655 
89.0 100.0 
103.0 27.298 
107.0 16.538 
END IONS

BEGIN IONS
PEPMASS=103.076
CHARGE=1+
MSLEVEL=2
SOURCE_INSTRUMENT=Positive-Quattro_QQQ:10eV
FILENAME=hmdb_intermediate.mgf
SEQ=*..*
IONMODE=Positive
ORGANISM=HMDB
NAME=HMDB:HMDB00718-1005 Isovaleric acid M+H
PI=HMDB
DATACOLLECTOR=HMDB
SMILES=CC(C)CC(O)=O
INCHI=InChI=1S/C5H10O2/c1-4(2)3-5(6)7/h4H,3H2,1-2H3,(H,6,7)
INCHIAUX=N/A
PUBMED=N/A
SUBMITUSER=mwang87
TAGS=
LIBRARYQUALITY=3
SPECTRUMID=CCMSLIB00000426337
SCANS=1309
43.0 100.0 
45.0 7.654 
60.0 44.309 
70.0 9.672 
86.0 9.783 
102.0 56.888 
END IONS

BEGIN IONS
PEPMASS=34.0293
CHARGE=1+
MSLEVEL=2
SOURCE_INSTRUMENT=Positive-Quattro_QQQ:10eV
FILENAME=hmdb_intermediate.mgf
SEQ=*..*
IONMODE=Positive
ORGANISM=HMDB
NAME=HMDB:HMDB03338-2251 Hydroxylamine M+H
PI=HMDB
DATACOLLECTOR=HMDB
SMILES=NO
INCHI=InChI=1S/H3NO/c1-2/h2H,1H2
INCHIAUX=N/A
PUBMED=N/A
SUBMITUSER=mwang87
TAGS=
LIBRARYQUALITY=3
SPECTRUMID=CCMSLIB00000426338
SCANS=1310
34.0 100.0 
END IONS

BEGIN IONS
PEPMASS=154.05
CHARGE=1+
MSLEVEL=2
SOURCE_INSTRUMENT=Positive-Quattro_QQQ:10eV
FILENAME=hmdb_intermediate.mgf
SEQ=*..*
IONMODE=Positive
ORGANISM=HMDB
NAME=HMDB:HMDB01476-1595 3-Hydroxyanthranilic acid M+H
PI=HMDB
DATACOLLECTOR=HMDB
SMILES=NC1=C(O)C=CC=C1C(O)=O
INCHI=InChI=1S/C7H7NO3/c8-6-4(7(10)11)2-1-3-5(6)9/h1-3,9H,8H2,(H,10,11)
INCHIAUX=N/A
PUBMED=N/A
SUBMITUSER=mwang87
TAGS=
LIBRARYQUALITY=3
SPECTRUMID=CCMSLIB00000426339
SCANS=1311
80.0 2.099 
108.0 3.072 
136.0 100.0 
154.0 8.266 
END IONS

BEGIN IONS
PEPMASS=153.076
CHARGE=1+
MSLEVEL=2
SOURCE_INSTRUMENT=Positive-Quattro_QQQ:10eV
FILENAME=hmdb_intermediate.mgf
SEQ=*..*
IONMODE=Positive
ORGANISM=HMDB
NAME=HMDB:HMDB00568-794 D-Arabitol M+H
PI=HMDB
DATACOLLECTOR=HMDB
SMILES=OCC(O)C(O)C(O)CO
INCHI=InChI=1S/C5H12O5/c6-1-3(8)5(10)4(9)2-7/h3-10H,1-2H2
INCHIAUX=N/A
PUBMED=N/A
SUBMITUSER=mwang87
TAGS=
LIBRARYQUALITY=3
SPECTRUMID=CCMSLIB00000426340
SCANS=1312
69.0 100.0 
93.0 10.318 
99.0 94.536 
117.0 69.713 
135.0 54.283 
153.0 15.494 
END IONS

BEGIN IONS
PEPMASS=173.06
CHARGE=1+
MSLEVEL=2
SOURCE_INSTRUMENT=Positive-Quattro_QQQ:10eV
FILENAME=hmdb_intermediate.mgf
SEQ=*..*
IONMODE=Positive
ORGANISM=HMDB
NAME=HMDB:HMDB01892-1801 Menadione M+H
PI=HMDB
DATACOLLECTOR=HMDB
SMILES=CC1=CC(=O)C2=CC=CC=C2C1=O
INCHI=InChI=1S/C11H8O2/c1-7-6-10(12)8-4-2-3-5-9(8)11(7)13/h2-6H,1H3
INCHIAUX=N/A
PUBMED=N/A
SUBMITUSER=mwang87
TAGS=
LIBRARYQUALITY=3
SPECTRUMID=CCMSLIB00000426341
SCANS=1313
90.392 13.0 
97.67 51.672 
110.344 36.132 
115.363 17.128 
132.303 26.295 
152.758 16.946 
155.77 43.538 
173.34 100.0 
END IONS

BEGIN IONS
PEPMASS=149.009
CHARGE=1+
MSLEVEL=2
SOURCE_INSTRUMENT=Negative-Quattro_QQQ:25eV
FILENAME=hmdb_intermediate.mgf
SEQ=*..*
IONMODE=Negative
ORGANISM=HMDB
NAME=HMDB:HMDB00956-1355 Tartaric acid M-H
PI=HMDB
DATACOLLECTOR=HMDB
SMILES=O[C@H]([C@@H](O)C(O)=O)C(O)=O
INCHI=InChI=1S/C4H6O6/c5-1(3(7)8)2(6)4(9)10/h1-2,5-6H,(H,7,8)(H,9,10)/t1-,2-/m1/s1
INCHIAUX=N/A
PUBMED=N/A
SUBMITUSER=mwang87
TAGS=
LIBRARYQUALITY=3
SPECTRUMID=CCMSLIB00000426342
SCANS=1314
43.629 94.805 
45.584 20.617 
59.46 45.455 
73.346 100.0 
75.248 13.718 
87.274 28.247 
148.963 9.01 
END IONS

BEGIN IONS
PEPMASS=287.201
CHARGE=1+
MSLEVEL=2
SOURCE_INSTRUMENT=Positive-Quattro_QQQ:40eV
FILENAME=hmdb_intermediate.mgf
SEQ=*..*
IONMODE=Positive
ORGANISM=HMDB
NAME=HMDB:HMDB00053-86 Androstenedione M+H
PI=HMDB
DATACOLLECTOR=HMDB
SMILES=[H][C@@]12CCC(=O)[C@@]1(C)CC[C@@]1([H])[C@@]2([H])CCC2=CC(=O)CC[C@]12C
INCHI=InChI=1S/C19H26O2/c1-18-9-7-13(20)11-12(18)3-4-14-15-5-6-17(21)19(15,2)10-8-16(14)18/h11,14-16H,3-10H2,1-2H3/t14-,15-,16-,18-,19-/m0/s1
INCHIAUX=N/A
PUBMED=N/A
SUBMITUSER=mwang87
TAGS=
LIBRARYQUALITY=3
SPECTRUMID=CCMSLIB00000426343
SCANS=1315
54.0 10.58 
68.0 12.203 
78.0 35.442 
90.0 12.076 
96.0 100.0 
108.0 71.915 
122.0 8.935 
END IONS

BEGIN IONS
PEPMASS=151.061
CHARGE=1+
MSLEVEL=2
SOURCE_INSTRUMENT=Positive-Quattro_QQQ:10eV
FILENAME=hmdb_intermediate.mgf
SEQ=*..*
IONMODE=Positive
ORGANISM=HMDB
NAME=HMDB:HMDB01644-1666 D-Xylulose M+H
PI=HMDB
DATACOLLECTOR=HMDB
SMILES=OC[C@@H](O)[C@H](O)C(=O)CO
INCHI=InChI=1S/C5H10O5/c6-1-3(8)5(10)4(9)2-7/h3,5-8,10H,1-2H2/t3-,5+/m1/s1
INCHIAUX=N/A
PUBMED=N/A
SUBMITUSER=mwang87
TAGS=
LIBRARYQUALITY=3
SPECTRUMID=CCMSLIB00000426344
SCANS=1316
89.0 93.703 
101.0 26.784 
105.0 8.867 
119.0 100.0 
133.0 12.843 
151.0 11.136 
END IONS

BEGIN IONS
PEPMASS=153.128
CHARGE=1+
MSLEVEL=2
SOURCE_INSTRUMENT=Positive-Quattro_QQQ:10eV
FILENAME=hmdb_intermediate.mgf
SEQ=*..*
IONMODE=Positive
ORGANISM=HMDB
NAME=HMDB:HMDB03634-2334 Perillyl alcohol M+H
PI=HMDB
DATACOLLECTOR=HMDB
SMILES=CC(=C)C1CCC(CO)=CC1
INCHI=InChI=1S/C10H16O/c1-8(2)10-5-3-9(7-11)4-6-10/h3,10-11H,1,4-7H2,2H3
INCHIAUX=N/A
PUBMED=N/A
SUBMITUSER=mwang87
TAGS=
LIBRARYQUALITY=3
SPECTRUMID=CCMSLIB00000426345
SCANS=1317
71.0 6.654 
79.0 6.242 
93.0 42.47 
103.0 9.451 
107.0 32.616 
121.0 100.0 
135.0 64.236 
153.0 27.14 
END IONS

BEGIN IONS
PEPMASS=373.191
CHARGE=1+
MSLEVEL=2
SOURCE_INSTRUMENT=Positive-Quattro_QQQ:10eV
FILENAME=hmdb_intermediate.mgf
SEQ=*..*
IONMODE=Positive
ORGANISM=HMDB
NAME=HMDB:HMDB03134-2200 Biocytin M+H
PI=HMDB
DATACOLLECTOR=HMDB
SMILES=[H][C@]12CS[C@@H](CCCCC(=O)NCCCC[C@H](N)C(O)=O)[C@@]1([H])NC(=O)N2
INCHI=InChI=1S/C16H28N4O4S/c17-10(15(22)23)5-3-4-8-18-13(21)7-2-1-6-12-14-11(9-25-12)19-16(24)20-14/h10-12,14H,1-9,17H2,(H,18,21)(H,22,23)(H2,19,20,24)/t10-,11-,12-,14-/m0/s1
INCHIAUX=N/A
PUBMED=N/A
SUBMITUSER=mwang87
TAGS=
LIBRARYQUALITY=3
SPECTRUMID=CCMSLIB00000426346
SCANS=1318
190.0 2.861 
201.0 2.714 
226.0 5.105 
294.0 3.678 
310.0 5.097 
372.0 100.0 
END IONS

BEGIN IONS
PEPMASS=260.044
CHARGE=1+
MSLEVEL=2
SOURCE_INSTRUMENT=Positive-Quattro_QQQ:10eV
FILENAME=hmdb_intermediate.mgf
SEQ=*..*
IONMODE=Positive
ORGANISM=HMDB
NAME=HMDB:HMDB00592-816 Glucosamine 6-sulfate M+H
PI=HMDB
DATACOLLECTOR=HMDB
SMILES=N[C@H]1[C@H](O)O[C@H](COS(O)(=O)=O)[C@@H](O)[C@@H]1O
INCHI=InChI=1S/C6H13NO8S/c7-3-5(9)4(8)2(15-6(3)10)1-14-16(11,12)13/h2-6,8-10H,1,7H2,(H,11,12,13)/t2-,3-,4-,5-,6-/m1/s1
INCHIAUX=N/A
PUBMED=N/A
SUBMITUSER=mwang87
TAGS=
LIBRARYQUALITY=3
SPECTRUMID=CCMSLIB00000426347
SCANS=1319
60.035 8.763 
72.072 49.208 
84.358 36.131 
88.453 15.986 
96.892 28.531 
111.412 21.232 
115.755 10.435 
126.18 40.39 
143.804 32.633 
151.126 8.458 
162.545 28.986 
169.371 20.471 
175.081 13.932 
201.146 20.319 
223.862 14.009 
241.737 83.425 
260.359 100.0 
END IONS

BEGIN IONS
PEPMASS=181.071
CHARGE=1+
MSLEVEL=2
SOURCE_INSTRUMENT=Positive-Quattro_QQQ:25eV
FILENAME=hmdb_intermediate.mgf
SEQ=*..*
IONMODE=Positive
ORGANISM=HMDB
NAME=HMDB:HMDB00660-901 D-Fructose M+H
PI=HMDB
DATACOLLECTOR=HMDB
SMILES=OC[C@H]1O[C@](O)(CO)[C@@H](O)[C@@H]1O
INCHI=InChI=1S/C6H12O6/c7-1-3-4(9)5(10)6(11,2-8)12-3/h3-5,7-11H,1-2H2/t3-,4-,5+,6-/m1/s1
INCHIAUX=N/A
PUBMED=N/A
SUBMITUSER=mwang87
TAGS=
LIBRARYQUALITY=3
SPECTRUMID=CCMSLIB00000426348
SCANS=1320
61.0 8.686 
73.0 55.642 
75.0 26.047 
85.0 100.0 
103.0 31.216 
105.0 11.681 
117.0 96.854 
149.0 22.315 
END IONS

BEGIN IONS
PEPMASS=181.073
CHARGE=1+
MSLEVEL=2
SOURCE_INSTRUMENT=Positive-Quattro_QQQ:25eV
FILENAME=hmdb_intermediate.mgf
SEQ=*..*
IONMODE=Positive
ORGANISM=HMDB
NAME=HMDB:HMDB02825-2144 Theobromine M+H
PI=HMDB
DATACOLLECTOR=HMDB
SMILES=CN1C=NC2=C1C(=O)NC(=O)N2C
INCHI=InChI=1S/C7H8N4O2/c1-10-3-8-5-4(10)6(12)9-7(13)11(5)2/h3H,1-2H3,(H,9,12,13)
INCHIAUX=N/A
PUBMED=N/A
SUBMITUSER=mwang87
TAGS=
LIBRARYQUALITY=3
SPECTRUMID=CCMSLIB00000426349
SCANS=1321
42.19 18.386 
67.0 100.0 
82.95 13.607 
107.91 26.711 
162.84 16.678 
END IONS

BEGIN IONS
PEPMASS=89.0603
CHARGE=1+
MSLEVEL=2
SOURCE_INSTRUMENT=Positive-Quattro_QQQ:25eV
FILENAME=hmdb_intermediate.mgf
SEQ=*..*
IONMODE=Positive
ORGANISM=HMDB
NAME=HMDB:HMDB03243-2219 Acetoin M+H
PI=HMDB
DATACOLLECTOR=HMDB
SMILES=CC(O)C(C)=O
INCHI=InChI=1S/C4H8O2/c1-3(5)4(2)6/h3,5H,1-2H3
INCHIAUX=N/A
PUBMED=N/A
SUBMITUSER=mwang87
TAGS=
LIBRARYQUALITY=3
SPECTRUMID=CCMSLIB00000426350
SCANS=1322
43.0 100.0 
45.0 6.543 
71.0 3.609 
89.0 4.484 
END IONS

BEGIN IONS
PEPMASS=111.045
CHARGE=1+
MSLEVEL=2
SOURCE_INSTRUMENT=Positive-Quattro_QQQ:40eV
FILENAME=hmdb_intermediate.mgf
SEQ=*..*
IONMODE=Positive
ORGANISM=HMDB
NAME=HMDB:HMDB02434-2109 Hydroquinone M+H
PI=HMDB
DATACOLLECTOR=HMDB
SMILES=OC1=CC=C(O)C=C1
INCHI=InChI=1S/C6H6O2/c7-5-1-2-6(8)4-3-5/h1-4,7-8H
INCHIAUX=N/A
PUBMED=N/A
SUBMITUSER=mwang87
TAGS=
LIBRARYQUALITY=3
SPECTRUMID=CCMSLIB00000426351
SCANS=1323
39.0 100.0 
END IONS

BEGIN IONS
PEPMASS=118.066
CHARGE=1+
MSLEVEL=2
SOURCE_INSTRUMENT=Positive-Quattro_QQQ:40eV
FILENAME=hmdb_intermediate.mgf
SEQ=*..*
IONMODE=Positive
ORGANISM=HMDB
NAME=HMDB:HMDB00738-1049 Indole M+H
PI=HMDB
DATACOLLECTOR=HMDB
SMILES=N1C=CC2=C1C=CC=C2
INCHI=InChI=1S/C8H7N/c1-2-4-8-7(3-1)5-6-9-8/h1-6,9H
INCHIAUX=N/A
PUBMED=N/A
SUBMITUSER=mwang87
TAGS=
LIBRARYQUALITY=3
SPECTRUMID=CCMSLIB00000426352
SCANS=1324
41.331 10.56 
51.2 6.897 
63.145 11.099 
65.136 100.0 
90.963 66.379 
116.846 9.86 
END IONS

BEGIN IONS
PEPMASS=138.055
CHARGE=1+
MSLEVEL=2
SOURCE_INSTRUMENT=Positive-Quattro_QQQ:10eV
FILENAME=hmdb_intermediate.mgf
SEQ=*..*
IONMODE=Positive
ORGANISM=HMDB
NAME=HMDB:HMDB01891-1798 m-Aminobenzoic acid M+H
PI=HMDB
DATACOLLECTOR=HMDB
SMILES=NC1=CC=CC(=C1)C(O)=O
INCHI=InChI=1S/C7H7NO2/c8-6-3-1-2-5(4-6)7(9)10/h1-4H,8H2,(H,9,10)
INCHIAUX=N/A
PUBMED=N/A
SUBMITUSER=mwang87
TAGS=
LIBRARYQUALITY=3
SPECTRUMID=CCMSLIB00000426353
SCANS=1325
65.18 2.475 
77.125 10.392 
94.029 18.725 
120.13 4.069 
137.94 100.0 
END IONS

BEGIN IONS
PEPMASS=274.108
CHARGE=1+
MSLEVEL=2
SOURCE_INSTRUMENT=Positive-Quattro_QQQ:40eV
FILENAME=hmdb_intermediate.mgf
SEQ=*..*
IONMODE=Positive
ORGANISM=HMDB
NAME=HMDB:HMDB00667-914 L-Thyronine M+H
PI=HMDB
DATACOLLECTOR=HMDB
SMILES=N[C@@H](CC1=CC=C(OC2=CC=C(O)C=C2)C=C1)C(O)=O
INCHI=InChI=1S/C15H15NO4/c16-14(15(18)19)9-10-1-5-12(6-2-10)20-13-7-3-11(17)4-8-13/h1-8,14,17H,9,16H2,(H,18,19)/t14-/m0/s1
INCHIAUX=N/A
PUBMED=N/A
SUBMITUSER=mwang87
TAGS=
LIBRARYQUALITY=3
SPECTRUMID=CCMSLIB00000426354
SCANS=1326
65.0 22.921 
81.0 41.081 
94.0 74.526 
104.0 5.392 
109.0 40.826 
118.0 100.0 
141.0 16.592 
165.0 7.539 
END IONS

BEGIN IONS
PEPMASS=177.103
CHARGE=1+
MSLEVEL=2
SOURCE_INSTRUMENT=Positive-Quattro_QQQ:25eV
FILENAME=hmdb_intermediate.mgf
SEQ=*..*
IONMODE=Positive
ORGANISM=HMDB
NAME=HMDB:HMDB00259-452 Serotonin M+H
PI=HMDB
DATACOLLECTOR=HMDB
SMILES=NCCC1=CNC2=CC=C(O)C=C12
INCHI=InChI=1S/C10H12N2O/c11-4-3-7-6-12-10-2-1-8(13)5-9(7)10/h1-2,5-6,12-13H,3-4,11H2
INCHIAUX=N/A
PUBMED=N/A
SUBMITUSER=mwang87
TAGS=
LIBRARYQUALITY=3
SPECTRUMID=CCMSLIB00000426355
SCANS=1327
67.142 7.869 
79.134 5.553 
91.056 5.578 
105.039 22.809 
115.033 75.299 
131.984 47.809 
142.064 21.414 
159.734 100.0 
END IONS

BEGIN IONS
PEPMASS=428.037
CHARGE=1+
MSLEVEL=2
SOURCE_INSTRUMENT=Positive-Quattro_QQQ:40eV
FILENAME=hmdb_intermediate.mgf
SEQ=*..*
IONMODE=Positive
ORGANISM=HMDB
NAME=HMDB:HMDB01341-1524 ADP M+H
PI=HMDB
DATACOLLECTOR=HMDB
SMILES=NC1=NC=NC2=C1N=CN2[C@@H]1O[C@H](COP(O)(=O)OP(O)(O)=O)[C@@H](O)[C@H]1O
INCHI=InChI=1S/C10H15N5O10P2/c11-8-5-9(13-2-12-8)15(3-14-5)10-7(17)6(16)4(24-10)1-23-27(21,22)25-26(18,19)20/h2-4,6-7,10,16-17H,1H2,(H,21,22)(H2,11,12,13)(H2,18,19,20)/t4-,6-,7-,10-/m1/s1
INCHIAUX=N/A
PUBMED=N/A
SUBMITUSER=mwang87
TAGS=
LIBRARYQUALITY=3
SPECTRUMID=CCMSLIB00000426356
SCANS=1328
96.0 11.683 
118.0 1.776 
135.0 100.0 
END IONS

BEGIN IONS
PEPMASS=377.146
CHARGE=1+
MSLEVEL=2
SOURCE_INSTRUMENT=Positive-Quattro_QQQ:40eV
FILENAME=hmdb_intermediate.mgf
SEQ=*..*
IONMODE=Positive
ORGANISM=HMDB
NAME=HMDB:HMDB00244-414 Riboflavin M+H
PI=HMDB
DATACOLLECTOR=HMDB
SMILES=CC1=C(C)C=C2N(C[C@H](O)[C@H](O)[C@H](O)CO)C3=NC(=O)NC(=O)C3=NC2=C1
INCHI=InChI=1S/C17H20N4O6/c1-7-3-9-10(4-8(7)2)21(5-11(23)14(25)12(24)6-22)15-13(18-9)16(26)20-17(27)19-15/h3-4,11-12,14,22-25H,5-6H2,1-2H3,(H,20,26,27)/t11-,12+,14-/m0/s1
INCHIAUX=N/A
PUBMED=N/A
SUBMITUSER=mwang87
TAGS=
LIBRARYQUALITY=3
SPECTRUMID=CCMSLIB00000426357
SCANS=1329
43.0 26.204 
45.0 13.881 
57.0 26.781 
69.0 32.693 
81.0 7.073 
144.0 21.837 
145.0 11.88 
156.0 9.313 
171.0 100.0 
197.0 97.172 
243.0 22.003 
END IONS

BEGIN IONS
PEPMASS=131.071
CHARGE=1+
MSLEVEL=2
SOURCE_INSTRUMENT=Negative-Quattro_QQQ:25eV
FILENAME=hmdb_intermediate.mgf
SEQ=*..*
IONMODE=Negative
ORGANISM=HMDB
NAME=HMDB:HMDB00746-1063 Hydroxyisocaproic acid M-H
PI=HMDB
DATACOLLECTOR=HMDB
SMILES=CC(C)C[C@H](O)C(O)=O
INCHI=InChI=1S/C6H12O3/c1-4(2)3-5(7)6(8)9/h4-5,7H,3H2,1-2H3,(H,8,9)/t5-/m0/s1
INCHIAUX=N/A
PUBMED=N/A
SUBMITUSER=mwang87
TAGS=
LIBRARYQUALITY=3
SPECTRUMID=CCMSLIB00000426358
SCANS=1330
41.696 6.217 
45.576 57.672 
69.417 100.0 
85.363 64.55 
131.13 9.524 
END IONS

BEGIN IONS
PEPMASS=287.237
CHARGE=1+
MSLEVEL=2
SOURCE_INSTRUMENT=Positive-Quattro_QQQ:40eV
FILENAME=hmdb_intermediate.mgf
SEQ=*..*
IONMODE=Positive
ORGANISM=HMDB
NAME=HMDB:HMDB00305-521 Vitamin A M+H
PI=HMDB
DATACOLLECTOR=HMDB
SMILES=C\C(=C/CO)\C=C\C=C(/C)\C=C\C1=C(C)CCCC1(C)C
INCHI=InChI=1S/C20H30O/c1-16(8-6-9-17(2)13-15-21)11-12-19-18(3)10-7-14-20(19,4)5/h6,8-9,11-13,21H,7,10,14-15H2,1-5H3/b9-6+,12-11+,16-8+,17-13+
INCHIAUX=N/A
PUBMED=N/A
SUBMITUSER=mwang87
TAGS=
LIBRARYQUALITY=3
SPECTRUMID=CCMSLIB00000426359
SCANS=1331
43.311 73.026 
55.231 43.421 
69.142 63.158 
79.189 64.474 
91.079 83.553 
95.138 41.941 
105.077 100.0 
121.042 50.0 
132.925 21.546 
142.092 19.572 
150.946 13.487 
157.309 13.322 
174.948 12.5 
END IONS

BEGIN IONS
PEPMASS=99.081
CHARGE=1+
MSLEVEL=2
SOURCE_INSTRUMENT=Positive-Quattro_QQQ:25eV
FILENAME=hmdb_intermediate.mgf
SEQ=*..*
IONMODE=Positive
ORGANISM=HMDB
NAME=HMDB:HMDB03315-2240 Cyclohexanone M+H
PI=HMDB
DATACOLLECTOR=HMDB
SMILES=O=C1CCCCC1
INCHI=InChI=1S/C6H10O/c7-6-4-2-1-3-5-6/h1-5H2
INCHIAUX=N/A
PUBMED=N/A
SUBMITUSER=mwang87
TAGS=
LIBRARYQUALITY=3
SPECTRUMID=CCMSLIB00000426360
SCANS=1332
31.26 29.011 
41.17 100.0 
53.06 25.724 
55.06 48.766 
78.94 61.559 
END IONS

BEGIN IONS
PEPMASS=123.066
CHARGE=1+
MSLEVEL=2
SOURCE_INSTRUMENT=Positive-Quattro_QQQ:10eV
FILENAME=hmdb_intermediate.mgf
SEQ=*..*
IONMODE=Positive
ORGANISM=HMDB
NAME=HMDB:HMDB02994-2179 Erythritol M+H
PI=HMDB
DATACOLLECTOR=HMDB
SMILES=OC[C@H](O)[C@H](O)CO
INCHI=InChI=1S/C4H10O4/c5-1-3(7)4(8)2-6/h3-8H,1-2H2/t3-,4+
INCHIAUX=N/A
PUBMED=N/A
SUBMITUSER=mwang87
TAGS=
LIBRARYQUALITY=3
SPECTRUMID=CCMSLIB00000426361
SCANS=1333
57.0 28.913 
69.0 64.629 
87.0 100.0 
105.0 52.107 
123.0 60.716 
END IONS

BEGIN IONS
PEPMASS=155.144
CHARGE=1+
MSLEVEL=2
SOURCE_INSTRUMENT=Positive-Quattro_QQQ:10eV
FILENAME=hmdb_intermediate.mgf
SEQ=*..*
IONMODE=Positive
ORGANISM=HMDB
NAME=HMDB:HMDB05812-2457 Geraniol M+H
PI=HMDB
DATACOLLECTOR=HMDB
SMILES=CC(C)=CCC\C(C)=C/CO
INCHI=InChI=1S/C10H18O/c1-9(2)5-4-6-10(3)7-8-11/h5,7,11H,4,6,8H2,1-3H3/b10-7-
INCHIAUX=N/A
PUBMED=N/A
SUBMITUSER=mwang87
TAGS=
LIBRARYQUALITY=3
SPECTRUMID=CCMSLIB00000426362
SCANS=1334
81.06 100.0 
95.04 22.2761610273 
109.08 7.8748653808 
137.16 53.5598726125 
155.16 31.8230876928 
END IONS

BEGIN IONS
PEPMASS=90.0555
CHARGE=1+
MSLEVEL=2
SOURCE_INSTRUMENT=Positive-Quattro_QQQ:40eV
FILENAME=hmdb_intermediate.mgf
SEQ=*..*
IONMODE=Positive
ORGANISM=HMDB
NAME=HMDB:HMDB00161-253 L-Alanine M+H
PI=HMDB
DATACOLLECTOR=HMDB
SMILES=C[C@H](N)C(O)=O
INCHI=InChI=1S/C3H7NO2/c1-2(4)3(5)6/h2H,4H2,1H3,(H,5,6)/t2-/m0/s1
INCHIAUX=N/A
PUBMED=N/A
SUBMITUSER=mwang87
TAGS=
LIBRARYQUALITY=3
SPECTRUMID=CCMSLIB00000426363
SCANS=1335
44.169 100.0 
45.379 32.554 
90.048 21.043 
END IONS

BEGIN IONS
PEPMASS=127.062
CHARGE=1+
MSLEVEL=2
SOURCE_INSTRUMENT=Positive-Quattro_QQQ:10eV
FILENAME=hmdb_intermediate.mgf
SEQ=*..*
IONMODE=Positive
ORGANISM=HMDB
NAME=HMDB:HMDB02128-2013 2,4-Diamino-6-hydroxypyrimidine M+H
PI=HMDB
DATACOLLECTOR=HMDB
SMILES=NC1=CC(=O)N=C(N)N1
INCHI=InChI=1S/C4H6N4O/c5-2-1-3(9)8-4(6)7-2/h1H,(H5,5,6,7,8,9)
INCHIAUX=N/A
PUBMED=N/A
SUBMITUSER=mwang87
TAGS=
LIBRARYQUALITY=3
SPECTRUMID=CCMSLIB00000426364
SCANS=1336
85.0 8.591 
127.0 100.0 
END IONS

BEGIN IONS
PEPMASS=260.165
CHARGE=1+
MSLEVEL=2
SOURCE_INSTRUMENT=Positive-Quattro_QQQ:40eV
FILENAME=hmdb_intermediate.mgf
SEQ=*..*
IONMODE=Positive
ORGANISM=HMDB
NAME=HMDB:HMDB01849-1710 Propranolol M+H
PI=HMDB
DATACOLLECTOR=HMDB
SMILES=CC(C)NCC(O)COC1=CC=CC2=CC=CC=C12
INCHI=InChI=1S/C16H21NO2/c1-12(2)17-10-14(18)11-19-16-9-5-7-13-6-3-4-8-15(13)16/h3-9,12,14,17-18H,10-11H2,1-2H3
INCHIAUX=N/A
PUBMED=N/A
SUBMITUSER=mwang87
TAGS=
LIBRARYQUALITY=3
SPECTRUMID=CCMSLIB00000426365
SCANS=1337
94.101 43.673 
103.67 100.0 
132.75 31.772 
140.331 27.013 
173.391 34.156 
179.357 28.603 
221.369 35.746 
248.344 27.013 
263.262 36.53 
320.202 37.325 
END IONS

BEGIN IONS
PEPMASS=153.076
CHARGE=1+
MSLEVEL=2
SOURCE_INSTRUMENT=Positive-Quattro_QQQ:40eV
FILENAME=hmdb_intermediate.mgf
SEQ=*..*
IONMODE=Positive
ORGANISM=HMDB
NAME=HMDB:HMDB02917-2162 D-Xylitol M+H
PI=HMDB
DATACOLLECTOR=HMDB
SMILES=OC[C@H](O)C(O)[C@H](O)CO
INCHI=InChI=1S/C5H12O5/c6-1-3(8)5(10)4(9)2-7/h3-10H,1-2H2/t3-,4+,5?
INCHIAUX=N/A
PUBMED=N/A
SUBMITUSER=mwang87
TAGS=
LIBRARYQUALITY=3
SPECTRUMID=CCMSLIB00000426366
SCANS=1338
61.0 86.5857533202 
69.0 100.0 
END IONS

BEGIN IONS
PEPMASS=275.017
CHARGE=1+
MSLEVEL=2
SOURCE_INSTRUMENT=Negative-Quattro_QQQ:40eV
FILENAME=hmdb_intermediate.mgf
SEQ=*..*
IONMODE=Negative
ORGANISM=HMDB
NAME=HMDB:HMDB01316-1518 6-Phosphogluconic acid M-H
PI=HMDB
DATACOLLECTOR=HMDB
SMILES=O[C@H](COP(O)(O)=O)[C@@H](O)[C@H](O)[C@@H](O)C(O)=O
INCHI=InChI=1S/C6H13O10P/c7-2(1-16-17(13,14)15)3(8)4(9)5(10)6(11)12/h2-5,7-10H,1H2,(H,11,12)(H2,13,14,15)/t2-,3-,4+,5-/m1/s1
INCHIAUX=N/A
PUBMED=N/A
SUBMITUSER=mwang87
TAGS=
LIBRARYQUALITY=3
SPECTRUMID=CCMSLIB00000426367
SCANS=1339
58.0 7.834 
70.0 9.622 
78.0 100.0 
96.0 25.767 
END IONS

BEGIN IONS
PEPMASS=126.022
CHARGE=1+
MSLEVEL=2
SOURCE_INSTRUMENT=Positive-Quattro_QQQ:25eV
FILENAME=hmdb_intermediate.mgf
SEQ=*..*
IONMODE=Positive
ORGANISM=HMDB
NAME=HMDB:HMDB00251-431 Taurine M+H
PI=HMDB
DATACOLLECTOR=HMDB
SMILES=NCCS(O)(=O)=O
INCHI=InChI=1S/C2H7NO3S/c3-1-2-7(4,5)6/h1-3H2,(H,4,5,6)
INCHIAUX=N/A
PUBMED=N/A
SUBMITUSER=mwang87
TAGS=
LIBRARYQUALITY=3
SPECTRUMID=CCMSLIB00000426368
SCANS=1340
44.313 100.0 
45.476 5.799 
65.072 6.057 
79.05 3.334 
108.062 2.674 
125.884 16.108 
END IONS

BEGIN IONS
PEPMASS=361.202
CHARGE=1+
MSLEVEL=2
SOURCE_INSTRUMENT=Positive-Quattro_QQQ:25eV
FILENAME=hmdb_intermediate.mgf
SEQ=*..*
IONMODE=Positive
ORGANISM=HMDB
NAME=HMDB:HMDB02802-2135 Cortisone M+H
PI=HMDB
DATACOLLECTOR=HMDB
SMILES=[H][C@@]12CC[C@](O)(C(=O)CO)[C@@]1(C)CC(=O)[C@@]1([H])[C@@]2([H])CCC2=CC(=O)CC[C@]12C
INCHI=InChI=1S/C21H28O5/c1-19-7-5-13(23)9-12(19)3-4-14-15-6-8-21(26,17(25)11-22)20(15,2)10-16(24)18(14)19/h9,14-15,18,22,26H,3-8,10-11H2,1-2H3/t14-,15-,18+,19-,20-,21-/m0/s1
INCHIAUX=N/A
PUBMED=N/A
SUBMITUSER=mwang87
TAGS=
LIBRARYQUALITY=3
SPECTRUMID=CCMSLIB00000426369
SCANS=1341
120.94 22.239 
162.96 100.0 
END IONS

BEGIN IONS
PEPMASS=121.05
CHARGE=1+
MSLEVEL=2
SOURCE_INSTRUMENT=Positive-Quattro_QQQ:40eV
FILENAME=hmdb_intermediate.mgf
SEQ=*..*
IONMODE=Positive
ORGANISM=HMDB
NAME=HMDB:HMDB02649-2121 Erythrose M+H
PI=HMDB
DATACOLLECTOR=HMDB
SMILES=O[C@@H]1COC(O)[C@@H]1O
INCHI=InChI=1S/C4H8O4/c5-2-1-8-4(7)3(2)6/h2-7H,1H2/t2-,3-,4?/m1/s1
INCHIAUX=N/A
PUBMED=N/A
SUBMITUSER=mwang87
TAGS=
LIBRARYQUALITY=3
SPECTRUMID=CCMSLIB00000426370
SCANS=1342
50.0 100.0 
76.0 99.476 
END IONS

BEGIN IONS
PEPMASS=285.207
CHARGE=1+
MSLEVEL=2
SOURCE_INSTRUMENT=Negative-Quattro_QQQ:10eV
FILENAME=hmdb_intermediate.mgf
SEQ=*..*
IONMODE=Negative
ORGANISM=HMDB
NAME=HMDB:HMDB00672-927 Hexadecanedioic acid M-H
PI=HMDB
DATACOLLECTOR=HMDB
SMILES=OC(=O)CCCCCCCCCCCCCCC(O)=O
INCHI=InChI=1S/C16H30O4/c17-15(18)13-11-9-7-5-3-1-2-4-6-8-10-12-14-16(19)20/h1-14H2,(H,17,18)(H,19,20)
INCHIAUX=N/A
PUBMED=N/A
SUBMITUSER=mwang87
TAGS=
LIBRARYQUALITY=3
SPECTRUMID=CCMSLIB00000426371
SCANS=1343
223.198 2.947 
267.265 3.409 
285.273 100.0 
END IONS

BEGIN IONS
PEPMASS=206.045
CHARGE=1+
MSLEVEL=2
SOURCE_INSTRUMENT=Positive-Quattro_QQQ:40eV
FILENAME=hmdb_intermediate.mgf
SEQ=*..*
IONMODE=Positive
ORGANISM=HMDB
NAME=HMDB:HMDB00881-1243 Xanthurenic acid M+H
PI=HMDB
DATACOLLECTOR=HMDB
SMILES=OC(=O)C1=NC2=C(O)C=CC=C2C(O)=C1
INCHI=InChI=1S/C10H7NO4/c12-7-3-1-2-5-8(13)4-6(10(14)15)11-9(5)7/h1-4,12H,(H,11,13)(H,14,15)
INCHIAUX=N/A
PUBMED=N/A
SUBMITUSER=mwang87
TAGS=
LIBRARYQUALITY=3
SPECTRUMID=CCMSLIB00000426372
SCANS=1344
51.275 5.0 
77.147 95.294 
104.129 33.235 
105.276 8.382 
131.994 100.0 
159.752 11.838 
END IONS

BEGIN IONS
PEPMASS=147.045
CHARGE=1+
MSLEVEL=2
SOURCE_INSTRUMENT=Positive-Quattro_QQQ:25eV
FILENAME=hmdb_intermediate.mgf
SEQ=*..*
IONMODE=Positive
ORGANISM=HMDB
NAME=HMDB:HMDB02359-2080 Phenylpropiolic acid M+H
PI=HMDB
DATACOLLECTOR=HMDB
SMILES=OC(=O)C#CC1=CC=CC=C1
INCHI=InChI=1S/C9H6O2/c10-9(11)7-6-8-4-2-1-3-5-8/h1-5H,(H,10,11)
INCHIAUX=N/A
PUBMED=N/A
SUBMITUSER=mwang87
TAGS=
LIBRARYQUALITY=3
SPECTRUMID=CCMSLIB00000426373
SCANS=1345
51.0 7.727 
69.0 49.338 
77.0 99.613 
101.0 39.085 
129.0 100.0 
END IONS

BEGIN IONS
PEPMASS=198.077
CHARGE=1+
MSLEVEL=2
SOURCE_INSTRUMENT=Positive-Quattro_QQQ:25eV
FILENAME=hmdb_intermediate.mgf
SEQ=*..*
IONMODE=Positive
ORGANISM=HMDB
NAME=HMDB:HMDB00181-287 L-Dopa M+H
PI=HMDB
DATACOLLECTOR=HMDB
SMILES=N[C@@H](CC1=CC(O)=C(O)C=C1)C(O)=O
INCHI=InChI=1S/C9H11NO4/c10-6(9(13)14)3-5-1-2-7(11)8(12)4-5/h1-2,4,6,11-12H,3,10H2,(H,13,14)/t6-/m0/s1
INCHIAUX=N/A
PUBMED=N/A
SUBMITUSER=mwang87
TAGS=
LIBRARYQUALITY=3
SPECTRUMID=CCMSLIB00000426374
SCANS=1346
65.171 5.417 
79.122 11.25 
93.066 41.429 
106.877 100.0 
134.711 63.81 
151.951 47.381 
END IONS

BEGIN IONS
PEPMASS=186.017
CHARGE=1+
MSLEVEL=2
SOURCE_INSTRUMENT=Positive-Quattro_QQQ:25eV
FILENAME=hmdb_intermediate.mgf
SEQ=*..*
IONMODE=Positive
ORGANISM=HMDB
NAME=HMDB:HMDB01721-1679 DL-O-Phosphoserine M+H
PI=HMDB
DATACOLLECTOR=HMDB
SMILES=NC(COP(O)(O)=O)C(O)=O
INCHI=InChI=1S/C3H8NO6P/c4-2(3(5)6)1-10-11(7,8)9/h2H,1,4H2,(H,5,6)(H2,7,8,9)
INCHIAUX=N/A
PUBMED=N/A
SUBMITUSER=mwang87
TAGS=
LIBRARYQUALITY=3
SPECTRUMID=CCMSLIB00000426375
SCANS=1347
42.662 46.875 
70.37 100.0 
88.282 64.423 
END IONS

BEGIN IONS
PEPMASS=173.081
CHARGE=1+
MSLEVEL=2
SOURCE_INSTRUMENT=Negative-Quattro_QQQ:10eV
FILENAME=hmdb_intermediate.mgf
SEQ=*..*
IONMODE=Negative
ORGANISM=HMDB
NAME=HMDB:HMDB00893-1256 Suberic acid M-H
PI=HMDB
DATACOLLECTOR=HMDB
SMILES=OC(=O)CCCCCCC(O)=O
INCHI=InChI=1S/C8H14O4/c9-7(10)5-3-1-2-4-6-8(11)12/h1-6H2,(H,9,10)(H,11,12)
INCHIAUX=N/A
PUBMED=N/A
SUBMITUSER=mwang87
TAGS=
LIBRARYQUALITY=3
SPECTRUMID=CCMSLIB00000426376
SCANS=1348
83.092 1.717 
111.04 38.063 
129.027 1.774 
154.962 4.392 
172.955 100.0 
END IONS

BEGIN IONS
PEPMASS=189.124
CHARGE=1+
MSLEVEL=2
SOURCE_INSTRUMENT=Positive-Quattro_QQQ:10eV
FILENAME=hmdb_intermediate.mgf
SEQ=*..*
IONMODE=Positive
ORGANISM=HMDB
NAME=HMDB:HMDB00759-1089 Glycyl-L-leucine M+H
PI=HMDB
DATACOLLECTOR=HMDB
SMILES=CC(C)C[C@H](NC(=O)CN)C(O)=O
INCHI=InChI=1S/C8H16N2O3/c1-5(2)3-6(8(12)13)10-7(11)4-9/h5-6H,3-4,9H2,1-2H3,(H,10,11)(H,12,13)/t6-/m0/s1
INCHIAUX=N/A
PUBMED=N/A
SUBMITUSER=mwang87
TAGS=
LIBRARYQUALITY=3
SPECTRUMID=CCMSLIB00000426377
SCANS=1349
86.143 51.111 
132.036 89.444 
143.03 100.0 
171.014 6.91 
188.982 38.889 
END IONS

BEGIN IONS
PEPMASS=151.061
CHARGE=1+
MSLEVEL=2
SOURCE_INSTRUMENT=Positive-Quattro_QQQ:25eV
FILENAME=hmdb_intermediate.mgf
SEQ=*..*
IONMODE=Positive
ORGANISM=HMDB
NAME=HMDB:HMDB00098-154 D-Xylose M+H
PI=HMDB
DATACOLLECTOR=HMDB
SMILES=O[C@@H]1COC(O)[C@H](O)[C@H]1O
INCHI=InChI=1S/C5H10O5/c6-2-1-10-5(9)4(8)3(2)7/h2-9H,1H2/t2-,3+,4-,5?/m1/s1
INCHIAUX=N/A
PUBMED=N/A
SUBMITUSER=mwang87
TAGS=
LIBRARYQUALITY=3
SPECTRUMID=CCMSLIB00000426378
SCANS=1350
69.0 86.582 
79.0 30.732 
87.0 100.0 
101.0 59.622 
119.0 33.817 
151.0 26.487 
END IONS

BEGIN IONS
PEPMASS=141.092
CHARGE=1+
MSLEVEL=2
SOURCE_INSTRUMENT=Negative-Quattro_QQQ:40eV
FILENAME=hmdb_intermediate.mgf
SEQ=*..*
IONMODE=Negative
ORGANISM=HMDB
NAME=HMDB:HMDB01568-1656 trans-2-Octenoic acid M-H
PI=HMDB
DATACOLLECTOR=HMDB
SMILES=CCCCC\C=C\C(O)=O
INCHI=InChI=1S/C8H14O2/c1-2-3-4-5-6-7-8(9)10/h6-7H,2-5H2,1H3,(H,9,10)/b7-6+
INCHIAUX=N/A
PUBMED=N/A
SUBMITUSER=mwang87
TAGS=
LIBRARYQUALITY=3
SPECTRUMID=CCMSLIB00000426379
SCANS=1351
40.304 27.941 
53.212 8.088 
84.04 30.515 
96.919 17.463 
140.971 100.0 
END IONS

BEGIN IONS
PEPMASS=131.034
CHARGE=1+
MSLEVEL=2
SOURCE_INSTRUMENT=Negative-Quattro_QQQ:10eV
FILENAME=hmdb_intermediate.mgf
SEQ=*..*
IONMODE=Negative
ORGANISM=HMDB
NAME=HMDB:HMDB00576-806 Monoethyl malonic acid M-H
PI=HMDB
DATACOLLECTOR=HMDB
SMILES=CCOC(=O)CC(O)=O
INCHI=InChI=1S/C5H8O4/c1-2-9-5(8)3-4(6)7/h2-3H2,1H3,(H,6,7)
INCHIAUX=N/A
PUBMED=N/A
SUBMITUSER=mwang87
TAGS=
LIBRARYQUALITY=3
SPECTRUMID=CCMSLIB00000426380
SCANS=1352
41.673 100.0 
87.374 100.0 
END IONS

BEGIN IONS
PEPMASS=167.071
CHARGE=1+
MSLEVEL=2
SOURCE_INSTRUMENT=Positive-Quattro_QQQ:25eV
FILENAME=hmdb_intermediate.mgf
SEQ=*..*
IONMODE=Positive
ORGANISM=HMDB
NAME=HMDB:HMDB00748-1066 L-3-Phenyllactic acid M+H
PI=HMDB
DATACOLLECTOR=HMDB
SMILES=O[C@H](CC1=CC=CC=C1)C(O)=O
INCHI=InChI=1S/C9H10O3/c10-8(9(11)12)6-7-4-2-1-3-5-7/h1-5,8,10H,6H2,(H,11,12)/t8-/m1/s1
INCHIAUX=N/A
PUBMED=N/A
SUBMITUSER=mwang87
TAGS=
LIBRARYQUALITY=3
SPECTRUMID=CCMSLIB00000426381
SCANS=1353
56.442 26.35 
69.706 20.544 
79.432 86.564 
84.864 53.498 
103.181 100.0 
105.076 22.867 
121.878 27.455 
150.051 26.571 
END IONS

BEGIN IONS
PEPMASS=122.097
CHARGE=1+
MSLEVEL=2
SOURCE_INSTRUMENT=Positive-Quattro_QQQ:10eV
FILENAME=hmdb_intermediate.mgf
SEQ=*..*
IONMODE=Positive
ORGANISM=HMDB
NAME=HMDB:HMDB01020-1390 N,N-Dimethylaniline M+H
PI=HMDB
DATACOLLECTOR=HMDB
SMILES=CN(C)C1=CC=CC=C1
INCHI=InChI=1S/C8H11N/c1-9(2)8-6-4-3-5-7-8/h3-7H,1-2H3
INCHIAUX=N/A
PUBMED=N/A
SUBMITUSER=mwang87
TAGS=
LIBRARYQUALITY=3
SPECTRUMID=CCMSLIB00000426382
SCANS=1354
107.0 37.811 
122.0 100.0 
END IONS

BEGIN IONS
PEPMASS=313.238
CHARGE=1+
MSLEVEL=2
SOURCE_INSTRUMENT=Negative-Quattro_QQQ:25eV
FILENAME=hmdb_intermediate.mgf
SEQ=*..*
IONMODE=Negative
ORGANISM=HMDB
NAME=HMDB:HMDB00782-1114 Octadecanedioic acid M-H
PI=HMDB
DATACOLLECTOR=HMDB
SMILES=OC(=O)CCCCCCCCCCCCCCCCC(O)=O
INCHI=InChI=1S/C18H34O4/c19-17(20)15-13-11-9-7-5-3-1-2-4-6-8-10-12-14-16-18(21)22/h1-16H2,(H,19,20)(H,21,22)
INCHIAUX=N/A
PUBMED=N/A
SUBMITUSER=mwang87
TAGS=
LIBRARYQUALITY=3
SPECTRUMID=CCMSLIB00000426383
SCANS=1355
57.0 2.566 
251.0 100.0 
269.0 1.98 
294.0 2.632 
295.0 27.906 
313.0 10.631 
END IONS

BEGIN IONS
PEPMASS=162.04
CHARGE=1+
MSLEVEL=2
SOURCE_INSTRUMENT=Positive-Quattro_QQQ:10eV
FILENAME=hmdb_intermediate.mgf
SEQ=*..*
IONMODE=Positive
ORGANISM=HMDB
NAME=HMDB:HMDB02467-2110 A-Ketoglutaric acid oxime M+H
PI=HMDB
DATACOLLECTOR=HMDB
SMILES=O\N=C(/CCC(O)=O)C(O)=O
INCHI=InChI=1S/C5H7NO5/c7-4(8)2-1-3(6-11)5(9)10/h11H,1-2H2,(H,7,8)(H,9,10)/b6-3+
INCHIAUX=N/A
PUBMED=N/A
SUBMITUSER=mwang87
TAGS=
LIBRARYQUALITY=3
SPECTRUMID=CCMSLIB00000426384
SCANS=1356
143.57 40.583 
161.55 100.0 
END IONS

BEGIN IONS
PEPMASS=123.066
CHARGE=1+
MSLEVEL=2
SOURCE_INSTRUMENT=Positive-Quattro_QQQ:40eV
FILENAME=hmdb_intermediate.mgf
SEQ=*..*
IONMODE=Positive
ORGANISM=HMDB
NAME=HMDB:HMDB02994-2181 Erythritol M+H
PI=HMDB
DATACOLLECTOR=HMDB
SMILES=OC[C@H](O)[C@H](O)CO
INCHI=InChI=1S/C4H10O4/c5-1-3(7)4(8)2-6/h3-8H,1-2H2/t3-,4+
INCHIAUX=N/A
PUBMED=N/A
SUBMITUSER=mwang87
TAGS=
LIBRARYQUALITY=3
SPECTRUMID=CCMSLIB00000426385
SCANS=1357
31.0 61.865 
43.0 100.0 
57.0 56.298 
77.0 76.354 
END IONS

BEGIN IONS
PEPMASS=152.108
CHARGE=1+
MSLEVEL=2
SOURCE_INSTRUMENT=Positive-Quattro_QQQ:25eV
FILENAME=hmdb_intermediate.mgf
SEQ=*..*
IONMODE=Positive
ORGANISM=HMDB
NAME=HMDB:HMDB01942-1900 Phenylpropanolamine M+H
PI=HMDB
DATACOLLECTOR=HMDB
SMILES=C[C@@H](N)[C@@H](O)C1=CC=CC=C1
INCHI=InChI=1S/C9H13NO/c1-7(10)9(11)8-5-3-2-4-6-8/h2-7,9,11H,10H2,1H3/t7-,9-/m1/s1
INCHIAUX=N/A
PUBMED=N/A
SUBMITUSER=mwang87
TAGS=
LIBRARYQUALITY=3
SPECTRUMID=CCMSLIB00000426386
SCANS=1358
92.875 100.0 
119.396 61.111 
129.051 94.444 
159.095 51.389 
END IONS

BEGIN IONS
PEPMASS=195.066
CHARGE=1+
MSLEVEL=2
SOURCE_INSTRUMENT=Negative-Quattro_QQQ:25eV
FILENAME=hmdb_intermediate.mgf
SEQ=*..*
IONMODE=Negative
ORGANISM=HMDB
NAME=HMDB:HMDB00434-636 Homoveratric acid M-H
PI=HMDB
DATACOLLECTOR=HMDB
SMILES=COC1=CC=C(CC(O)=O)C=C1OC
INCHI=InChI=1S/C10H12O4/c1-13-8-4-3-7(6-10(11)12)5-9(8)14-2/h3-5H,6H2,1-2H3,(H,11,12)
INCHIAUX=N/A
PUBMED=N/A
SUBMITUSER=mwang87
TAGS=
LIBRARYQUALITY=3
SPECTRUMID=CCMSLIB00000426387
SCANS=1359
93.322 9.786 
121.213 100.0 
136.188 17.516 
END IONS

BEGIN IONS
PEPMASS=411.399
CHARGE=1+
MSLEVEL=2
SOURCE_INSTRUMENT=Positive-Quattro_QQQ:10eV
FILENAME=hmdb_intermediate.mgf
SEQ=*..*
IONMODE=Positive
ORGANISM=HMDB
NAME=HMDB:HMDB00256-442 Squalene M+H
PI=HMDB
DATACOLLECTOR=HMDB
SMILES=CC(C)=CCC\C(C)=C/CC\C(C)=C\CC\C=C(/C)CC\C=C(/C)CCC=C(C)C
INCHI=InChI=1S/C30H50/c1-25(2)15-11-19-29(7)23-13-21-27(5)17-9-10-18-28(6)22-14-24-30(8)20-12-16-26(3)4/h15-18,23-24H,9-14,19-22H2,1-8H3/b27-17+,28-18+,29-23-,30-24+
INCHIAUX=N/A
PUBMED=N/A
SUBMITUSER=mwang87
TAGS=
LIBRARYQUALITY=3
SPECTRUMID=CCMSLIB00000426388
SCANS=1360
54.106 11.765 
58.77 11.765 
66.133 15.294 
96.202 11.176 
113.507 14.706 
123.817 68.824 
133.759 11.765 
139.651 56.471 
145.911 11.176 
173.775 12.941 
176.475 73.529 
190.96 14.706 
216.862 45.294 
226.07 11.765 
238.101 11.765 
250.992 13.529 
263.392 11.176 
283.65 12.941 
293.105 13.529 
323.433 11.176 
328.345 13.529 
347.378 11.176 
382.254 61.176 
392.815 12.941 
396.008 14.706 
411.236 100.0 
457.661 42.941 
473.506 18.824 
483.086 12.941 
487.631 38.235 
END IONS

BEGIN IONS
PEPMASS=397.405
CHARGE=1+
MSLEVEL=2
SOURCE_INSTRUMENT=Positive-Quattro_QQQ:25eV
FILENAME=hmdb_intermediate.mgf
SEQ=*..*
IONMODE=Positive
ORGANISM=HMDB
NAME=HMDB:HMDB02356-2077 Hexacosanoic acid M+H
PI=HMDB
DATACOLLECTOR=HMDB
SMILES=CCCCCCCCCCCCCCCCCCCCCCCCCC(O)=O
INCHI=InChI=1S/C26H52O2/c1-2-3-4-5-6-7-8-9-10-11-12-13-14-15-16-17-18-19-20-21-22-23-24-25-26(27)28/h2-25H2,1H3,(H,27,28)
INCHIAUX=N/A
PUBMED=N/A
SUBMITUSER=mwang87
TAGS=
LIBRARYQUALITY=3
SPECTRUMID=CCMSLIB00000426389
SCANS=1361
73.48 94.77 
103.03 67.222 
209.62 68.558 
227.77 69.726 
252.45 85.708 
294.19 92.585 
298.87 78.641 
309.42 100.0 
END IONS

BEGIN IONS
PEPMASS=149.081
CHARGE=1+
MSLEVEL=2
SOURCE_INSTRUMENT=Positive-Quattro_QQQ:25eV
FILENAME=hmdb_intermediate.mgf
SEQ=*..*
IONMODE=Positive
ORGANISM=HMDB
NAME=HMDB:HMDB00227-377 Mevalonic acid M+H
PI=HMDB
DATACOLLECTOR=HMDB
SMILES=CC(O)(CCO)CC(O)=O
INCHI=InChI=1S/C6H12O4/c1-6(10,2-3-7)4-5(8)9/h7,10H,2-4H2,1H3,(H,8,9)
INCHIAUX=N/A
PUBMED=N/A
SUBMITUSER=mwang87
TAGS=
LIBRARYQUALITY=3
SPECTRUMID=CCMSLIB00000426390
SCANS=1362
66.968 100.0 
81.593 11.243 
93.151 3.704 
107.332 10.847 
END IONS

BEGIN IONS
PEPMASS=122.061
CHARGE=1+
MSLEVEL=2
SOURCE_INSTRUMENT=Positive-Quattro_QQQ:40eV
FILENAME=hmdb_intermediate.mgf
SEQ=*..*
IONMODE=Positive
ORGANISM=HMDB
NAME=HMDB:HMDB04461-2390 Benzamide M+H
PI=HMDB
DATACOLLECTOR=HMDB
SMILES=NC(=O)C1=CC=CC=C1
INCHI=InChI=1S/C7H7NO/c8-7(9)6-4-2-1-3-5-6/h1-5H,(H2,8,9)
INCHIAUX=N/A
PUBMED=N/A
SUBMITUSER=mwang87
TAGS=
LIBRARYQUALITY=3
SPECTRUMID=CCMSLIB00000426391
SCANS=1363
44.095 27.436 
51.064 95.033 
76.925 100.0 
END IONS

BEGIN IONS
PEPMASS=330.06
CHARGE=1+
MSLEVEL=2
SOURCE_INSTRUMENT=Positive-Quattro_QQQ:40eV
FILENAME=hmdb_intermediate.mgf
SEQ=*..*
IONMODE=Positive
ORGANISM=HMDB
NAME=HMDB:HMDB00058-95 Cyclic AMP M+H
PI=HMDB
DATACOLLECTOR=HMDB
SMILES=NC1=NC=NC2=C1N=CN2[C@@H]1O[C@@H]2COP(O)(=O)O[C@H]2[C@H]1O
INCHI=InChI=1S/C10H12N5O6P/c11-8-5-9(13-2-12-8)15(3-14-5)10-6(16)7-4(20-10)1-19-22(17,18)21-7/h2-4,6-7,10,16H,1H2,(H,17,18)(H2,11,12,13)/t4-,6-,7-,10-/m1/s1
INCHIAUX=N/A
PUBMED=N/A
SUBMITUSER=mwang87
TAGS=
LIBRARYQUALITY=3
SPECTRUMID=CCMSLIB00000426392
SCANS=1364
135.89 23.064 
329.84 100.0 
END IONS

BEGIN IONS
PEPMASS=74.0718
CHARGE=1+
MSLEVEL=2
SOURCE_INSTRUMENT=Positive-Quattro_QQQ:10eV
FILENAME=hmdb_intermediate.mgf
SEQ=*..*
IONMODE=Positive
ORGANISM=HMDB
NAME=HMDB:HMDB01522-1622 Methylguanidine M+H
PI=HMDB
DATACOLLECTOR=HMDB
SMILES=CNC(N)=N
INCHI=InChI=1S/C2H7N3/c1-5-2(3)4/h1H3,(H4,3,4,5)
INCHIAUX=N/A
PUBMED=N/A
SUBMITUSER=mwang87
TAGS=
LIBRARYQUALITY=3
SPECTRUMID=CCMSLIB00000426393
SCANS=1365
32.442 6.429 
57.2 58.333 
74.12 100.0 
END IONS

BEGIN IONS
PEPMASS=56.9673
CHARGE=1+
MSLEVEL=2
SOURCE_INSTRUMENT=Negative-Quattro_QQQ:40eV
FILENAME=hmdb_intermediate.mgf
SEQ=*..*
IONMODE=Negative
ORGANISM=HMDB
NAME=HMDB:HMDB01453-1585 Thiocyanate M-H
PI=HMDB
DATACOLLECTOR=HMDB
SMILES=[S-]C#N
INCHI=InChI=1S/CHNS/c2-1-3/h3H/p-1
INCHIAUX=N/A
PUBMED=N/A
SUBMITUSER=mwang87
TAGS=
LIBRARYQUALITY=3
SPECTRUMID=CCMSLIB00000426394
SCANS=1366
26.0 29.219 
54.0 12.089 
57.0 100.0 
END IONS

BEGIN IONS
PEPMASS=103.003
CHARGE=1+
MSLEVEL=2
SOURCE_INSTRUMENT=Negative-Quattro_QQQ:25eV
FILENAME=hmdb_intermediate.mgf
SEQ=*..*
IONMODE=Negative
ORGANISM=HMDB
NAME=HMDB:HMDB00691-959 Malonic acid M-H
PI=HMDB
DATACOLLECTOR=HMDB
SMILES=OC(=O)CC(O)=O
INCHI=InChI=1S/C3H4O4/c4-2(5)1-3(6)7/h1H2,(H,4,5)(H,6,7)
INCHIAUX=N/A
PUBMED=N/A
SUBMITUSER=mwang87
TAGS=
LIBRARYQUALITY=3
SPECTRUMID=CCMSLIB00000426395
SCANS=1367
41.617 80.723 
59.402 100.0 
103.085 20.783 
END IONS

BEGIN IONS
PEPMASS=147.045
CHARGE=1+
MSLEVEL=2
SOURCE_INSTRUMENT=Positive-Quattro_QQQ:40eV
FILENAME=hmdb_intermediate.mgf
SEQ=*..*
IONMODE=Positive
ORGANISM=HMDB
NAME=HMDB:HMDB02359-2081 Phenylpropiolic acid M+H
PI=HMDB
DATACOLLECTOR=HMDB
SMILES=OC(=O)C#CC1=CC=CC=C1
INCHI=InChI=1S/C9H6O2/c10-9(11)7-6-8-4-2-1-3-5-8/h1-5H,(H,10,11)
INCHIAUX=N/A
PUBMED=N/A
SUBMITUSER=mwang87
TAGS=
LIBRARYQUALITY=3
SPECTRUMID=CCMSLIB00000426396
SCANS=1368
41.0 4.615 
51.0 56.861 
69.0 15.325 
77.0 100.0 
101.0 18.733 
129.0 18.623 
END IONS

BEGIN IONS
PEPMASS=32.05
CHARGE=1+
MSLEVEL=2
SOURCE_INSTRUMENT=Positive-Quattro_QQQ:10eV
FILENAME=hmdb_intermediate.mgf
SEQ=*..*
IONMODE=Positive
ORGANISM=HMDB
NAME=HMDB:HMDB60291-260 Methylammonium M+H
PI=HMDB
DATACOLLECTOR=HMDB
SMILES=CN
INCHI=InChI=1S/CH5N/c1-2/h2H2,1H3
INCHIAUX=N/A
PUBMED=N/A
SUBMITUSER=mwang87
TAGS=
LIBRARYQUALITY=3
SPECTRUMID=CCMSLIB00000426397
SCANS=1369
32.0 100.0 
END IONS

BEGIN IONS
PEPMASS=149.081
CHARGE=1+
MSLEVEL=2
SOURCE_INSTRUMENT=Positive-Quattro_QQQ:10eV
FILENAME=hmdb_intermediate.mgf
SEQ=*..*
IONMODE=Positive
ORGANISM=HMDB
NAME=HMDB:HMDB00227-376 Mevalonic acid M+H
PI=HMDB
DATACOLLECTOR=HMDB
SMILES=CC(O)(CCO)CC(O)=O
INCHI=InChI=1S/C6H12O4/c1-6(10,2-3-7)4-5(8)9/h7,10H,2-4H2,1H3,(H,8,9)
INCHIAUX=N/A
PUBMED=N/A
SUBMITUSER=mwang87
TAGS=
LIBRARYQUALITY=3
SPECTRUMID=CCMSLIB00000426398
SCANS=1370
66.984 29.595 
84.449 20.0 
104.429 4.561 
107.956 32.703 
121.779 15.27 
131.824 6.993 
148.91 100.0 
END IONS

BEGIN IONS
PEPMASS=162.092
CHARGE=1+
MSLEVEL=2
SOURCE_INSTRUMENT=Positive-Quattro_QQQ:40eV
FILENAME=hmdb_intermediate.mgf
SEQ=*..*
IONMODE=Positive
ORGANISM=HMDB
NAME=HMDB:HMDB03447-2315 Tryptophanol M+H
PI=HMDB
DATACOLLECTOR=HMDB
SMILES=OCCC1=CNC2=CC=CC=C12
INCHI=InChI=1S/C10H11NO/c12-6-5-8-7-11-10-4-2-1-3-9(8)10/h1-4,7,11-12H,5-6H2
INCHIAUX=N/A
PUBMED=N/A
SUBMITUSER=mwang87
TAGS=
LIBRARYQUALITY=3
SPECTRUMID=CCMSLIB00000426399
SCANS=1371
65.0 18.933 
77.0 65.047 
91.0 69.88 
103.0 17.004 
115.0 100.0 
130.0 87.394 
143.0 34.928 
END IONS

BEGIN IONS
PEPMASS=263.023
CHARGE=1+
MSLEVEL=2
SOURCE_INSTRUMENT=Negative-Quattro_QQQ:40eV
FILENAME=hmdb_intermediate.mgf
SEQ=*..*
IONMODE=Negative
ORGANISM=HMDB
NAME=HMDB:HMDB03332-2250 3-Methoxy-4-Hydroxyphenylglycol sulfate M-H
PI=HMDB
DATACOLLECTOR=HMDB
SMILES=COC1=C(O)C=CC(=C1)C(CO)OS(O)(=O)=O
INCHI=InChI=1S/C9H12O7S/c1-15-8-4-6(2-3-7(8)11)9(5-10)16-17(12,13)14/h2-4,9-11H,5H2,1H3,(H,12,13,14)
INCHIAUX=N/A
PUBMED=N/A
SUBMITUSER=mwang87
TAGS=
LIBRARYQUALITY=3
SPECTRUMID=CCMSLIB00000426400
SCANS=1372
79.0 7.38 
92.0 8.966 
120.0 100.0 
149.0 30.115 
END IONS

BEGIN IONS
PEPMASS=162.972
CHARGE=1+
MSLEVEL=2
SOURCE_INSTRUMENT=Positive-Quattro_QQQ:10eV
FILENAME=hmdb_intermediate.mgf
SEQ=*..*
IONMODE=Positive
ORGANISM=HMDB
NAME=HMDB:HMDB04811-2400 2,4-Dichlorophenol M+H
PI=HMDB
DATACOLLECTOR=HMDB
SMILES=OC1=CC=C(Cl)C=C1Cl
INCHI=InChI=1S/C6H4Cl2O/c7-4-1-2-6(9)5(8)3-4/h1-3,9H
INCHIAUX=N/A
PUBMED=N/A
SUBMITUSER=mwang87
TAGS=
LIBRARYQUALITY=3
SPECTRUMID=CCMSLIB00000426401
SCANS=1373
63.0 11.887 
77.0 4.468 
104.0 39.678 
105.0 54.123 
163.0 100.0 
END IONS

BEGIN IONS
PEPMASS=385.347
CHARGE=1+
MSLEVEL=2
SOURCE_INSTRUMENT=Positive-Quattro_QQQ:10eV
FILENAME=hmdb_intermediate.mgf
SEQ=*..*
IONMODE=Positive
ORGANISM=HMDB
NAME=HMDB:HMDB00032-51 7-Dehydrocholesterol M+H
PI=HMDB
DATACOLLECTOR=HMDB
SMILES=[H][C@@]12CC[C@H]([C@H](C)CCCC(C)C)[C@@]1(C)CC[C@@]1([H])C2=CC=C2C[C@@H](O)CC[C@]12C
INCHI=InChI=1S/C27H44O/c1-18(2)7-6-8-19(3)23-11-12-24-22-10-9-20-17-21(28)13-15-26(20,4)25(22)14-16-27(23,24)5/h9-10,18-19,21,23-25,28H,6-8,11-17H2,1-5H3/t19-,21+,23-,24+,25+,26+,27-/m1/s1
INCHIAUX=N/A
PUBMED=N/A
SUBMITUSER=mwang87
TAGS=
LIBRARYQUALITY=3
SPECTRUMID=CCMSLIB00000426402
SCANS=1374
219.024 1.072 
231.026 1.023 
239.187 0.939 
255.15 1.338 
273.284 1.226 
275.057 1.03 
325.107 1.03 
339.424 1.317 
353.063 2.326 
357.016 1.023 
367.28 17.713 
385.31 100.0 
END IONS

BEGIN IONS
PEPMASS=1347.58
CHARGE=1+
MSLEVEL=2
SOURCE_INSTRUMENT=Positive-Quattro_QQQ:10eV
FILENAME=hmdb_intermediate.mgf
SEQ=*..*
IONMODE=Positive
ORGANISM=HMDB
NAME=HMDB:HMDB02308-2052 Hydroxycobalamin M+H
PI=HMDB
DATACOLLECTOR=HMDB
SMILES=[Co++].O.OC[C@H]1O[C@@]([H])([C@H](O)[C@]1([H])OP(=O)([O-])O[C@H](C)CNC(=O)CC[C@]1(C)[C@@H](CC(=O)N)[C@@]2([H])[N-]\C1=C(C)/C1=N/C(=C\C3=N\C(=C(C)/C4=N[C@]2(C)[C@@](C)(CC(=O)N)[C@@H]4CCC(=O)N)\[C@@](C)(CC(=O)N)[C@@H]3CCC(=O)N)/C(C)(C)[C@@H]1CCC(=O)N)N1C=NC2=C1C=C(C)C(C)=C2
INCHI=InChI=1S/C62H90N13O14P.Co.H2O/c1-29-20-39-40(21-30(29)2)75(28-70-39)57-52(84)53(41(27-76)87-57)89-90(85,86)88-31(3)26-69-49(83)18-19-59(8)37(22-46(66)80)56-62(11)61(10,25-48(68)82)36(14-17-45(65)79)51(74-62)33(5)55-60(9,24-47(67)81)34(12-15-43(63)77)38(71-55)23-42-58(6,7)35(13-16-44(64)78)50(72-42)32(4)54(59)73-56;;/h20-21,23,28,31,34-37,41,52-53,56-57,76,84H,12-19,22,24-27H2,1-11H3,(H15,63,64,65,66,67,68,69,71,72,73,74,77,78,79,80,81,82,83,85,86);;1H2/q;+2;/p-2/t31-,34-,35-,36-,37+,41-,52-,53-,56-,57+,59-,60+,61+,62+;;/m1../s1
INCHIAUX=N/A
PUBMED=N/A
SUBMITUSER=mwang87
TAGS=
LIBRARYQUALITY=3
SPECTRUMID=CCMSLIB00000426403
SCANS=1375
697.0 26.926 
971.0 24.539 
989.0 100.0 
1006.0 36.161 
1085.0 24.679 
1123.0 27.533 
1202.0 64.519 
END IONS

BEGIN IONS
PEPMASS=343.124
CHARGE=1+
MSLEVEL=2
SOURCE_INSTRUMENT=Positive-Quattro_QQQ:40eV
FILENAME=hmdb_intermediate.mgf
SEQ=*..*
IONMODE=Positive
ORGANISM=HMDB
NAME=HMDB:HMDB00258-450 Sucrose M+H
PI=HMDB
DATACOLLECTOR=HMDB
SMILES=OC[C@H]1O[C@@](CO)(O[C@H]2O[C@H](CO)[C@@H](O)[C@H](O)[C@H]2O)[C@@H](O)[C@@H]1O
INCHI=InChI=1S/C12H22O11/c13-1-4-6(16)8(18)9(19)11(21-4)23-12(3-15)10(20)7(17)5(2-14)22-12/h4-11,13-20H,1-3H2/t4-,5-,6-,7-,8+,9-,10+,11-,12+/m1/s1
INCHIAUX=N/A
PUBMED=N/A
SUBMITUSER=mwang87
TAGS=
LIBRARYQUALITY=3
SPECTRUMID=CCMSLIB00000426404
SCANS=1376
43.367 8.886 
45.357 5.497 
57.261 20.181 
69.142 39.157 
81.046 8.283 
85.075 100.0 
97.026 21.386 
108.971 7.003 
126.974 27.41 
144.962 8.886 
END IONS

BEGIN IONS
PEPMASS=138.055
CHARGE=1+
MSLEVEL=2
SOURCE_INSTRUMENT=Positive-Quattro_QQQ:10eV
FILENAME=hmdb_intermediate.mgf
SEQ=*..*
IONMODE=Positive
ORGANISM=HMDB
NAME=HMDB:HMDB01538-1634 3-Pyridylacetic acid M+H
PI=HMDB
DATACOLLECTOR=HMDB
SMILES=OC(=O)CC1=CN=CC=C1
INCHI=InChI=1S/C7H7NO2/c9-7(10)4-6-2-1-3-8-5-6/h1-3,5H,4H2,(H,9,10)
INCHIAUX=N/A
PUBMED=N/A
SUBMITUSER=mwang87
TAGS=
LIBRARYQUALITY=3
SPECTRUMID=CCMSLIB00000426405
SCANS=1377
93.0 10.926 
120.0 4.387 
138.0 100.0 
END IONS

BEGIN IONS
PEPMASS=197.045
CHARGE=1+
MSLEVEL=2
SOURCE_INSTRUMENT=Negative-Quattro_QQQ:10eV
FILENAME=hmdb_intermediate.mgf
SEQ=*..*
IONMODE=Negative
ORGANISM=HMDB
NAME=HMDB:HMDB00291-492 Vanillylmandelic acid M-H
PI=HMDB
DATACOLLECTOR=HMDB
SMILES=COC1=C(O)C=CC(=C1)[C@H](O)C(O)=O
INCHI=InChI=1S/C9H10O5/c1-14-7-4-5(2-3-6(7)10)8(11)9(12)13/h2-4,8,10-11H,1H3,(H,12,13)/t8-/m0/s1
INCHIAUX=N/A
PUBMED=N/A
SUBMITUSER=mwang87
TAGS=
LIBRARYQUALITY=3
SPECTRUMID=CCMSLIB00000426406
SCANS=1378
137.927 78.808 
153.139 2.815 
197.078 100.0 
END IONS

BEGIN IONS
PEPMASS=183.087
CHARGE=1+
MSLEVEL=2
SOURCE_INSTRUMENT=Positive-Quattro_QQQ:40eV
FILENAME=hmdb_intermediate.mgf
SEQ=*..*
IONMODE=Positive
ORGANISM=HMDB
NAME=HMDB:HMDB00765-1103 Mannitol M+H
PI=HMDB
DATACOLLECTOR=HMDB
SMILES=OC[C@@H](O)[C@@H](O)[C@H](O)[C@H](O)CO
INCHI=InChI=1S/C6H14O6/c7-1-3(9)5(11)6(12)4(10)2-8/h3-12H,1-2H2/t3-,4-,5-,6-/m1/s1
INCHIAUX=N/A
PUBMED=N/A
SUBMITUSER=mwang87
TAGS=
LIBRARYQUALITY=3
SPECTRUMID=CCMSLIB00000426407
SCANS=1379
43.33 100.0 
45.313 32.178 
61.193 54.455 
69.148 77.228 
83.147 9.592 
85.075 13.923 
END IONS

BEGIN IONS
PEPMASS=210.077
CHARGE=1+
MSLEVEL=2
SOURCE_INSTRUMENT=Positive-Quattro_QQQ:40eV
FILENAME=hmdb_intermediate.mgf
SEQ=*..*
IONMODE=Positive
ORGANISM=HMDB
NAME=HMDB:HMDB00735-1043 Hydroxyphenylacetylglycine M+H
PI=HMDB
DATACOLLECTOR=HMDB
SMILES=OC(=O)CNC(=O)CC1=CC=C(O)C=C1
INCHI=InChI=1S/C10H11NO4/c12-8-3-1-7(2-4-8)5-9(13)11-6-10(14)15/h1-4,12H,5-6H2,(H,11,13)(H,14,15)
INCHIAUX=N/A
PUBMED=N/A
SUBMITUSER=mwang87
TAGS=
LIBRARYQUALITY=3
SPECTRUMID=CCMSLIB00000426408
SCANS=1380
54.0 5.309 
76.0 61.458 
106.0 100.0 
END IONS

BEGIN IONS
PEPMASS=525.901
CHARGE=1+
MSLEVEL=2
SOURCE_INSTRUMENT=Positive-Quattro_QQQ:10eV
FILENAME=hmdb_intermediate.mgf
SEQ=*..*
IONMODE=Positive
ORGANISM=HMDB
NAME=HMDB:HMDB00582-810 3,5-Diiodothyronine M+H
PI=HMDB
DATACOLLECTOR=HMDB
SMILES=NC(CC1=CC(I)=C(OC2=CC=C(O)C=C2)C(I)=C1)C(O)=O
INCHI=InChI=1S/C15H13I2NO4/c16-11-5-8(7-13(18)15(20)21)6-12(17)14(11)22-10-3-1-9(19)2-4-10/h1-6,13,19H,7,18H2,(H,20,21)
INCHIAUX=N/A
PUBMED=N/A
SUBMITUSER=mwang87
TAGS=
LIBRARYQUALITY=3
SPECTRUMID=CCMSLIB00000426409
SCANS=1381
382.26 1.9263500649 
480.12 7.5622017407 
509.04 1.1325866534 
525.96 100.0 
END IONS

BEGIN IONS
PEPMASS=147.113
CHARGE=1+
MSLEVEL=2
SOURCE_INSTRUMENT=Positive-Quattro_QQQ:25eV
FILENAME=hmdb_intermediate.mgf
SEQ=*..*
IONMODE=Positive
ORGANISM=HMDB
NAME=HMDB:HMDB00182-290 L-Lysine M+H
PI=HMDB
DATACOLLECTOR=HMDB
SMILES=NCCCC[C@H](N)C(O)=O
INCHI=InChI=1S/C6H14N2O2/c7-4-2-1-3-5(8)6(9)10/h5H,1-4,7-8H2,(H,9,10)/t5-/m0/s1
INCHIAUX=N/A
PUBMED=N/A
SUBMITUSER=mwang87
TAGS=
LIBRARYQUALITY=3
SPECTRUMID=CCMSLIB00000426410
SCANS=1382
56.129 19.391 
67.156 8.454 
84.101 100.0 
END IONS

BEGIN IONS
PEPMASS=89.0239
CHARGE=1+
MSLEVEL=2
SOURCE_INSTRUMENT=Negative-Quattro_QQQ:10eV
FILENAME=hmdb_intermediate.mgf
SEQ=*..*
IONMODE=Negative
ORGANISM=HMDB
NAME=HMDB:HMDB01311-1513 D-Lactic acid M-H
PI=HMDB
DATACOLLECTOR=HMDB
SMILES=C[C@@H](O)C(O)=O
INCHI=InChI=1S/C3H6O3/c1-2(4)3(5)6/h2,4H,1H3,(H,5,6)/t2-/m1/s1
INCHIAUX=N/A
PUBMED=N/A
SUBMITUSER=mwang87
TAGS=
LIBRARYQUALITY=3
SPECTRUMID=CCMSLIB00000426411
SCANS=1383
43.0 36.329 
45.0 29.256 
89.0 100.0 
END IONS

BEGIN IONS
PEPMASS=165.076
CHARGE=1+
MSLEVEL=2
SOURCE_INSTRUMENT=Positive-Quattro_QQQ:40eV
FILENAME=hmdb_intermediate.mgf
SEQ=*..*
IONMODE=Positive
ORGANISM=HMDB
NAME=HMDB:HMDB02712-2127 1,5-Anhydrosorbitol M+H
PI=HMDB
DATACOLLECTOR=HMDB
SMILES=OC[C@H]1OC[C@H](O)[C@@H](O)[C@@H]1O
INCHI=InChI=1S/C6H12O5/c7-1-4-6(10)5(9)3(8)2-11-4/h3-10H,1-2H2/t3-,4+,5+,6+/m0/s1
INCHIAUX=N/A
PUBMED=N/A
SUBMITUSER=mwang87
TAGS=
LIBRARYQUALITY=3
SPECTRUMID=CCMSLIB00000426412
SCANS=1384
41.0 8.476 
45.0 4.292 
57.0 23.451 
69.0 100.0 
87.0 5.19 
101.0 8.89 
END IONS

BEGIN IONS
PEPMASS=464.301
CHARGE=1+
MSLEVEL=2
SOURCE_INSTRUMENT=Negative-Quattro_QQQ:10eV
FILENAME=hmdb_intermediate.mgf
SEQ=*..*
IONMODE=Negative
ORGANISM=HMDB
NAME=HMDB:HMDB00138-209 Glycocholic acid M-H
PI=HMDB
DATACOLLECTOR=HMDB
SMILES=[H][C@@]12CC[C@H]([C@H](C)CCC(=O)NCC(O)=O)[C@@]1(C)[C@@H](O)C[C@@]1([H])[C@@]2([H])[C@H](O)CC2C[C@H](O)CC[C@]12C
INCHI=InChI=1S/C26H43NO6/c1-14(4-7-22(31)27-13-23(32)33)17-5-6-18-24-19(12-21(30)26(17,18)3)25(2)9-8-16(28)10-15(25)11-20(24)29/h14-21,24,28-30H,4-13H2,1-3H3,(H,27,31)(H,32,33)/t14-,15?,16-,17-,18+,19+,20-,21+,24+,25+,26-/m1/s1
INCHIAUX=N/A
PUBMED=N/A
SUBMITUSER=mwang87
TAGS=
LIBRARYQUALITY=3
SPECTRUMID=CCMSLIB00000426413
SCANS=1385
74.167 0.67 
464.352 100.0 
END IONS

BEGIN IONS
PEPMASS=133.061
CHARGE=1+
MSLEVEL=2
SOURCE_INSTRUMENT=Positive-Quattro_QQQ:25eV
FILENAME=hmdb_intermediate.mgf
SEQ=*..*
IONMODE=Positive
ORGANISM=HMDB
NAME=HMDB:HMDB00026-46 Ureidopropionic acid M+H
PI=HMDB
DATACOLLECTOR=HMDB
SMILES=NC(=O)NCCC(O)=O
INCHI=InChI=1S/C4H8N2O3/c5-4(9)6-2-1-3(7)8/h1-2H2,(H,7,8)(H3,5,6,9)
INCHIAUX=N/A
PUBMED=N/A
SUBMITUSER=mwang87
TAGS=
LIBRARYQUALITY=3
SPECTRUMID=CCMSLIB00000426414
SCANS=1386
44.351 26.136 
55.226 66.667 
72.176 100.0 
89.946 25.568 
98.035 6.534 
115.149 10.748 
132.944 35.606 
END IONS

BEGIN IONS
PEPMASS=198.077
CHARGE=1+
MSLEVEL=2
SOURCE_INSTRUMENT=Positive-Quattro_QQQ:10eV
FILENAME=hmdb_intermediate.mgf
SEQ=*..*
IONMODE=Positive
ORGANISM=HMDB
NAME=HMDB:HMDB00609-825 DL-Dopa M+H
PI=HMDB
DATACOLLECTOR=HMDB
SMILES=NC(CC1=CC=C(O)C(O)=C1)C(O)=O
INCHI=InChI=1S/C9H11NO4/c10-6(9(13)14)3-5-1-2-7(11)8(12)4-5/h1-2,4,6,11-12H,3,10H2,(H,13,14)
INCHIAUX=N/A
PUBMED=N/A
SUBMITUSER=mwang87
TAGS=
LIBRARYQUALITY=3
SPECTRUMID=CCMSLIB00000426415
SCANS=1387
138.928 21.26 
151.951 100.0 
162.906 6.152 
180.904 70.866 
197.912 46.26 
END IONS

BEGIN IONS
PEPMASS=106.087
CHARGE=1+
MSLEVEL=2
SOURCE_INSTRUMENT=Positive-Quattro_QQQ:40eV
FILENAME=hmdb_intermediate.mgf
SEQ=*..*
IONMODE=Positive
ORGANISM=HMDB
NAME=HMDB:HMDB04437-2387 Diethanolamine M+H
PI=HMDB
DATACOLLECTOR=HMDB
SMILES=OCCNCCO
INCHI=InChI=1S/C4H11NO2/c6-3-1-5-2-4-7/h5-7H,1-4H2
INCHIAUX=N/A
PUBMED=N/A
SUBMITUSER=mwang87
TAGS=
LIBRARYQUALITY=3
SPECTRUMID=CCMSLIB00000426416
SCANS=1388
43.0 21.19 
45.0 100.0 
55.0 8.426 
70.0 6.109 
106.0 9.46 
END IONS

BEGIN IONS
PEPMASS=175.061
CHARGE=1+
MSLEVEL=2
SOURCE_INSTRUMENT=Positive-Quattro_QQQ:10eV
FILENAME=hmdb_intermediate.mgf
SEQ=*..*
IONMODE=Positive
ORGANISM=HMDB
NAME=HMDB:HMDB03070-2188 Shikimic acid M+H
PI=HMDB
DATACOLLECTOR=HMDB
SMILES=O[C@@H]1CC(=C[C@@H](O)[C@H]1O)C(O)=O
INCHI=InChI=1S/C7H10O5/c8-4-1-3(7(11)12)2-5(9)6(4)10/h1,4-6,8-10H,2H2,(H,11,12)/t4-,5-,6-/m1/s1
INCHIAUX=N/A
PUBMED=N/A
SUBMITUSER=mwang87
TAGS=
LIBRARYQUALITY=3
SPECTRUMID=CCMSLIB00000426417
SCANS=1389
87.0 5.507 
111.0 7.728 
115.0 8.327 
129.0 100.0 
142.0 10.415 
157.0 62.045 
175.0 56.588 
END IONS

BEGIN IONS
PEPMASS=151.04
CHARGE=1+
MSLEVEL=2
SOURCE_INSTRUMENT=Negative-Quattro_QQQ:40eV
FILENAME=hmdb_intermediate.mgf
SEQ=*..*
IONMODE=Negative
ORGANISM=HMDB
NAME=HMDB:HMDB00440-643 3-Hydroxyphenylacetic acid M-H
PI=HMDB
DATACOLLECTOR=HMDB
SMILES=OC(=O)CC1=CC=CC(O)=C1
INCHI=InChI=1S/C8H8O3/c9-7-3-1-2-6(4-7)5-8(10)11/h1-4,9H,5H2,(H,10,11)
INCHIAUX=N/A
PUBMED=N/A
SUBMITUSER=mwang87
TAGS=
LIBRARYQUALITY=3
SPECTRUMID=CCMSLIB00000426418
SCANS=1390
41.625 48.485 
65.403 100.0 
79.353 9.375 
107.004 59.091 
151.263 4.356 
END IONS

BEGIN IONS
PEPMASS=153.041
CHARGE=1+
MSLEVEL=2
SOURCE_INSTRUMENT=Positive-Quattro_QQQ:10eV
FILENAME=hmdb_intermediate.mgf
SEQ=*..*
IONMODE=Positive
ORGANISM=HMDB
NAME=HMDB:HMDB00292-495 Xanthine M+H
PI=HMDB
DATACOLLECTOR=HMDB
SMILES=O=C1NC2=C(NC=N2)C(=O)N1
INCHI=InChI=1S/C5H4N4O2/c10-4-2-3(7-1-6-2)8-5(11)9-4/h1H,(H3,6,7,8,9,10,11)
INCHIAUX=N/A
PUBMED=N/A
SUBMITUSER=mwang87
TAGS=
LIBRARYQUALITY=3
SPECTRUMID=CCMSLIB00000426419
SCANS=1391
109.982 8.75 
135.908 14.904 
152.921 100.0 
END IONS

BEGIN IONS
PEPMASS=246.171
CHARGE=1+
MSLEVEL=2
SOURCE_INSTRUMENT=Positive-Quattro_QQQ:40eV
FILENAME=hmdb_intermediate.mgf
SEQ=*..*
IONMODE=Positive
ORGANISM=HMDB
NAME=HMDB:HMDB00378-593 2-Methylbutyroylcarnitine M+H
PI=HMDB
DATACOLLECTOR=HMDB
SMILES=CCC(C)C(=O)OC(CC([O-])=O)C[N+](C)(C)C
INCHI=InChI=1S/C12H23NO4/c1-6-9(2)12(16)17-10(7-11(14)15)8-13(3,4)5/h9-10H,6-8H2,1-5H3
INCHIAUX=N/A
PUBMED=N/A
SUBMITUSER=mwang87
TAGS=
LIBRARYQUALITY=3
SPECTRUMID=CCMSLIB00000426420
SCANS=1392
41.683 4.455 
57.532 35.897 
85.257 100.0 
END IONS

BEGIN IONS
PEPMASS=75.0082
CHARGE=1+
MSLEVEL=2
SOURCE_INSTRUMENT=Negative-Quattro_QQQ:25eV
FILENAME=hmdb_intermediate.mgf
SEQ=*..*
IONMODE=Negative
ORGANISM=HMDB
NAME=HMDB:HMDB00115-166 Glycolic acid M-H
PI=HMDB
DATACOLLECTOR=HMDB
SMILES=OCC(O)=O
INCHI=InChI=1S/C2H4O3/c3-1-2(4)5/h3H,1H2,(H,4,5)
INCHIAUX=N/A
PUBMED=N/A
SUBMITUSER=mwang87
TAGS=
LIBRARYQUALITY=3
SPECTRUMID=CCMSLIB00000426421
SCANS=1393
45.141 26.423 
72.679 6.555 
74.809 100.0 
END IONS

BEGIN IONS
PEPMASS=181.071
CHARGE=1+
MSLEVEL=2
SOURCE_INSTRUMENT=Positive-Quattro_QQQ:25eV
FILENAME=hmdb_intermediate.mgf
SEQ=*..*
IONMODE=Positive
ORGANISM=HMDB
NAME=HMDB:HMDB00143-216 D-Galactose M+H
PI=HMDB
DATACOLLECTOR=HMDB
SMILES=OC[C@H]1O[C@H](O)[C@H](O)[C@@H](O)[C@H]1O
INCHI=InChI=1S/C6H12O6/c7-1-2-3(8)4(9)5(10)6(11)12-2/h2-11H,1H2/t2-,3+,4+,5-,6+/m1/s1
INCHIAUX=N/A
PUBMED=N/A
SUBMITUSER=mwang87
TAGS=
LIBRARYQUALITY=3
SPECTRUMID=CCMSLIB00000426422
SCANS=1394
61.0 9.878 
73.0 61.875 
75.0 27.485 
85.0 100.0 
103.0 45.496 
105.0 17.328 
117.0 90.508 
149.0 26.129 
END IONS

BEGIN IONS
PEPMASS=361.202
CHARGE=1+
MSLEVEL=2
SOURCE_INSTRUMENT=Positive-Quattro_QQQ:40eV
FILENAME=hmdb_intermediate.mgf
SEQ=*..*
IONMODE=Positive
ORGANISM=HMDB
NAME=HMDB:HMDB02802-2136 Cortisone M+H
PI=HMDB
DATACOLLECTOR=HMDB
SMILES=[H][C@@]12CC[C@](O)(C(=O)CO)[C@@]1(C)CC(=O)[C@@]1([H])[C@@]2([H])CCC2=CC(=O)CC[C@]12C
INCHI=InChI=1S/C21H28O5/c1-19-7-5-13(23)9-12(19)3-4-14-15-6-8-21(26,17(25)11-22)20(15,2)10-16(24)18(14)19/h9,14-15,18,22,26H,3-8,10-11H2,1-2H3/t14-,15-,18+,19-,20-,21-/m0/s1
INCHIAUX=N/A
PUBMED=N/A
SUBMITUSER=mwang87
TAGS=
LIBRARYQUALITY=3
SPECTRUMID=CCMSLIB00000426423
SCANS=1395
43.23 27.57 
55.11 35.037 
81.01 29.33 
93.01 57.335 
104.98 100.0 
120.95 90.62 
144.67 33.499 
162.95 68.325 
END IONS

BEGIN IONS
PEPMASS=195.088
CHARGE=1+
MSLEVEL=2
SOURCE_INSTRUMENT=Positive-Quattro_QQQ:25eV
FILENAME=hmdb_intermediate.mgf
SEQ=*..*
IONMODE=Positive
ORGANISM=HMDB
NAME=HMDB:HMDB01847-1703 Caffeine M+H
PI=HMDB
DATACOLLECTOR=HMDB
SMILES=CN1C=NC2=C1C(=O)N(C)C(=O)N2C
INCHI=InChI=1S/C8H10N4O2/c1-10-4-9-6-5(10)7(13)12(3)8(14)11(6)2/h4H,1-3H3
INCHIAUX=N/A
PUBMED=N/A
SUBMITUSER=mwang87
TAGS=
LIBRARYQUALITY=3
SPECTRUMID=CCMSLIB00000426424
SCANS=1396
42.611 7.495 
69.031 13.161 
83.373 8.546 
110.046 18.538 
138.23 100.0 
194.478 14.99 
194.981 26.561 
END IONS

BEGIN IONS
PEPMASS=170.093
CHARGE=1+
MSLEVEL=2
SOURCE_INSTRUMENT=Positive-Quattro_QQQ:10eV
FILENAME=hmdb_intermediate.mgf
SEQ=*..*
IONMODE=Positive
ORGANISM=HMDB
NAME=HMDB:HMDB00479-695 3-Methylhistidine M+H
PI=HMDB
DATACOLLECTOR=HMDB
SMILES=CN1C=NC=C1C[C@H](N)C(O)=O
INCHI=InChI=1S/C7H11N3O2/c1-10-4-9-3-5(10)2-6(8)7(11)12/h3-4,6H,2,8H2,1H3,(H,11,12)/t6-/m0/s1
INCHIAUX=N/A
PUBMED=N/A
SUBMITUSER=mwang87
TAGS=
LIBRARYQUALITY=3
SPECTRUMID=CCMSLIB00000426425
SCANS=1397
96.116 39.271 
109.046 49.393 
125.887 30.364 
152.926 3.087 
169.933 100.0 
END IONS

BEGIN IONS
PEPMASS=179.071
CHARGE=1+
MSLEVEL=2
SOURCE_INSTRUMENT=Positive-Quattro_QQQ:10eV
FILENAME=hmdb_intermediate.mgf
SEQ=*..*
IONMODE=Positive
ORGANISM=HMDB
NAME=HMDB:HMDB02040-1962 4-Methoxycinnamic acid M+H
PI=HMDB
DATACOLLECTOR=HMDB
SMILES=COC1=CC=C(\C=C\C(O)=O)C=C1
INCHI=InChI=1S/C10H10O3/c1-13-9-5-2-8(3-6-9)4-7-10(11)12/h2-7H,1H3,(H,11,12)/b7-4+
INCHIAUX=N/A
PUBMED=N/A
SUBMITUSER=mwang87
TAGS=
LIBRARYQUALITY=3
SPECTRUMID=CCMSLIB00000426426
SCANS=1398
133.0 6.381 
161.0 100.0 
179.0 8.169 
END IONS

BEGIN IONS
PEPMASS=159.066
CHARGE=1+
MSLEVEL=2
SOURCE_INSTRUMENT=Positive-Quattro_QQQ:10eV
FILENAME=hmdb_intermediate.mgf
SEQ=*..*
IONMODE=Positive
ORGANISM=HMDB
NAME=HMDB:HMDB00635-867 Succinylacetone M+H
PI=HMDB
DATACOLLECTOR=HMDB
SMILES=CC(=O)CC(=O)CCC(O)=O
INCHI=InChI=1S/C7H10O4/c1-5(8)4-6(9)2-3-7(10)11/h2-4H2,1H3,(H,10,11)
INCHIAUX=N/A
PUBMED=N/A
SUBMITUSER=mwang87
TAGS=
LIBRARYQUALITY=3
SPECTRUMID=CCMSLIB00000426427
SCANS=1399
140.87 14.074 
158.84 100.0 
END IONS

BEGIN IONS
PEPMASS=170.082
CHARGE=1+
MSLEVEL=2
SOURCE_INSTRUMENT=Positive-Quattro_QQQ:40eV
FILENAME=hmdb_intermediate.mgf
SEQ=*..*
IONMODE=Positive
ORGANISM=HMDB
NAME=HMDB:HMDB00239-405 Pyridoxine M+H
PI=HMDB
DATACOLLECTOR=HMDB
SMILES=CC1=NC=C(CO)C(CO)=C1O
INCHI=InChI=1S/C8H11NO3/c1-5-8(12)7(4-11)6(3-10)2-9-5/h2,10-12H,3-4H2,1H3
INCHIAUX=N/A
PUBMED=N/A
SUBMITUSER=mwang87
TAGS=
LIBRARYQUALITY=3
SPECTRUMID=CCMSLIB00000426428
SCANS=1400
53.262 12.395 
65.199 20.588 
77.129 100.0 
93.977 23.95 
106.086 17.437 
133.914 35.924 
151.841 6.145 
END IONS

BEGIN IONS
PEPMASS=191.019
CHARGE=1+
MSLEVEL=2
SOURCE_INSTRUMENT=Negative-Quattro_QQQ:25eV
FILENAME=hmdb_intermediate.mgf
SEQ=*..*
IONMODE=Negative
ORGANISM=HMDB
NAME=HMDB:HMDB01874-1766 D-threo-Isocitric acid M-H
PI=HMDB
DATACOLLECTOR=HMDB
SMILES=O[C@H]([C@H](CC(O)=O)C(O)=O)C(O)=O
INCHI=InChI=1S/C6H8O7/c7-3(8)1-2(5(10)11)4(9)6(12)13/h2,4,9H,1H2,(H,7,8)(H,10,11)(H,12,13)/t2-,4+/m0/s1
INCHIAUX=N/A
PUBMED=N/A
SUBMITUSER=mwang87
TAGS=
LIBRARYQUALITY=3
SPECTRUMID=CCMSLIB00000426429
SCANS=1401
43.251 12.375 
56.461 17.192 
82.381 25.469 
96.838 14.653 
110.048 92.468 
121.015 7.647 
134.476 9.486 
151.301 100.0 
177.85 11.632 
193.555 12.507 
END IONS

BEGIN IONS
PEPMASS=61.0653
CHARGE=1+
MSLEVEL=2
SOURCE_INSTRUMENT=Positive-Quattro_QQQ:10eV
FILENAME=hmdb_intermediate.mgf
SEQ=*..*
IONMODE=Positive
ORGANISM=HMDB
NAME=HMDB:HMDB00820-1167 Propyl alcohol M+H
PI=HMDB
DATACOLLECTOR=HMDB
SMILES=CCCO
INCHI=InChI=1S/C3H8O/c1-2-3-4/h4H,2-3H2,1H3
INCHIAUX=N/A
PUBMED=N/A
SUBMITUSER=mwang87
TAGS=
LIBRARYQUALITY=3
SPECTRUMID=CCMSLIB00000426430
SCANS=1402
33.0 17.649 
43.0 16.669 
60.0 100.0 
END IONS

BEGIN IONS
PEPMASS=275.017
CHARGE=1+
MSLEVEL=2
SOURCE_INSTRUMENT=Negative-Quattro_QQQ:25eV
FILENAME=hmdb_intermediate.mgf
SEQ=*..*
IONMODE=Negative
ORGANISM=HMDB
NAME=HMDB:HMDB01316-1517 6-Phosphogluconic acid M-H
PI=HMDB
DATACOLLECTOR=HMDB
SMILES=O[C@H](COP(O)(O)=O)[C@@H](O)[C@H](O)[C@@H](O)C(O)=O
INCHI=InChI=1S/C6H13O10P/c7-2(1-16-17(13,14)15)3(8)4(9)5(10)6(11)12/h2-5,7-10H,1H2,(H,11,12)(H2,13,14,15)/t2-,3-,4+,5-/m1/s1
INCHIAUX=N/A
PUBMED=N/A
SUBMITUSER=mwang87
TAGS=
LIBRARYQUALITY=3
SPECTRUMID=CCMSLIB00000426431
SCANS=1403
56.0 8.083 
70.0 11.039 
78.0 81.426 
88.0 5.707 
96.0 100.0 
128.0 7.361 
END IONS

BEGIN IONS
PEPMASS=268.105
CHARGE=1+
MSLEVEL=2
SOURCE_INSTRUMENT=Positive-Quattro_QQQ:40eV
FILENAME=hmdb_intermediate.mgf
SEQ=*..*
IONMODE=Positive
ORGANISM=HMDB
NAME=HMDB:HMDB00050-83 Adenosine M+H
PI=HMDB
DATACOLLECTOR=HMDB
SMILES=NC1=NC=NC2=C1N=CN2[C@@H]1O[C@H](CO)[C@@H](O)[C@H]1O
INCHI=InChI=1S/C10H13N5O4/c11-8-5-9(13-2-12-8)15(3-14-5)10-7(18)6(17)4(1-16)19-10/h2-4,6-7,10,16-18H,1H2,(H2,11,12,13)/t4-,6-,7-,10-/m1/s1
INCHIAUX=N/A
PUBMED=N/A
SUBMITUSER=mwang87
TAGS=
LIBRARYQUALITY=3
SPECTRUMID=CCMSLIB00000426432
SCANS=1404
43.265 2.571 
57.159 6.754 
69.095 3.201 
94.015 4.738 
118.929 26.21 
135.911 100.0 
END IONS

BEGIN IONS
PEPMASS=167.071
CHARGE=1+
MSLEVEL=2
SOURCE_INSTRUMENT=Positive-Quattro_QQQ:40eV
FILENAME=hmdb_intermediate.mgf
SEQ=*..*
IONMODE=Positive
ORGANISM=HMDB
NAME=HMDB:HMDB00779-1109 Phenyllactic acid M+H
PI=HMDB
DATACOLLECTOR=HMDB
SMILES=OC(CC1=CC=CC=C1)C(O)=O
INCHI=InChI=1S/C9H10O3/c10-8(9(11)12)6-7-4-2-1-3-5-7/h1-5,8,10H,6H2,(H,11,12)
INCHIAUX=N/A
PUBMED=N/A
SUBMITUSER=mwang87
TAGS=
LIBRARYQUALITY=3
SPECTRUMID=CCMSLIB00000426433
SCANS=1405
56.053 63.449 
65.009 78.733 
82.165 100.0 
93.519 37.087 
97.43 48.829 
124.427 41.077 
125.058 59.243 
164.169 25.569 
222.842 17.153 
END IONS

BEGIN IONS
PEPMASS=134.061
CHARGE=1+
MSLEVEL=2
SOURCE_INSTRUMENT=Positive-Quattro_QQQ:25eV
FILENAME=hmdb_intermediate.mgf
SEQ=*..*
IONMODE=Positive
ORGANISM=HMDB
NAME=HMDB:HMDB04094-2359 Indoxyl M+H
PI=HMDB
DATACOLLECTOR=HMDB
SMILES=OC1=CNC2=CC=CC=C12
INCHI=InChI=1S/C8H7NO/c10-8-5-9-7-4-2-1-3-6(7)8/h1-5,9-10H
INCHIAUX=N/A
PUBMED=N/A
SUBMITUSER=mwang87
TAGS=
LIBRARYQUALITY=3
SPECTRUMID=CCMSLIB00000426434
SCANS=1406
77.0 100.0 
89.0 13.041 
105.0 68.254 
116.0 11.793 
134.0 11.614 
END IONS

BEGIN IONS
PEPMASS=204.102
CHARGE=1+
MSLEVEL=2
SOURCE_INSTRUMENT=Positive-Quattro_QQQ:40eV
FILENAME=hmdb_intermediate.mgf
SEQ=*..*
IONMODE=Positive
ORGANISM=HMDB
NAME=HMDB:HMDB02096-2001 3-Indolebutyric acid M+H
PI=HMDB
DATACOLLECTOR=HMDB
SMILES=OC(=O)CCCC1=CNC2=CC=CC=C12
INCHI=InChI=1S/C12H13NO2/c14-12(15)7-3-4-9-8-13-11-6-2-1-5-10(9)11/h1-2,5-6,8,13H,3-4,7H2,(H,14,15)
INCHIAUX=N/A
PUBMED=N/A
SUBMITUSER=mwang87
TAGS=
LIBRARYQUALITY=3
SPECTRUMID=CCMSLIB00000426435
SCANS=1407
55.0 22.113 
77.0 19.79 
90.0 18.261 
103.0 22.332 
117.0 57.619 
130.0 100.0 
143.0 26.455 
167.0 10.165 
END IONS

BEGIN IONS
PEPMASS=332.076
CHARGE=1+
MSLEVEL=2
SOURCE_INSTRUMENT=Positive-Quattro_QQQ:40eV
FILENAME=hmdb_intermediate.mgf
SEQ=*..*
IONMODE=Positive
ORGANISM=HMDB
NAME=HMDB:HMDB00905-1291 Deoxyadenosine monophosphate M+H
PI=HMDB
DATACOLLECTOR=HMDB
SMILES=NC1=NC=NC2=C1N=CN2[C@H]1C[C@H](O)[C@@H](COP(O)(O)=O)O1
INCHI=InChI=1S/C10H14N5O6P/c11-9-8-10(13-3-12-9)15(4-14-8)7-1-5(16)6(21-7)2-20-22(17,18)19/h3-7,16H,1-2H2,(H2,11,12,13)(H2,17,18,19)/t5-,6+,7+/m0/s1
INCHIAUX=N/A
PUBMED=N/A
SUBMITUSER=mwang87
TAGS=
LIBRARYQUALITY=3
SPECTRUMID=CCMSLIB00000426436
SCANS=1408
23.0 27.887 
43.0 18.787 
81.0 100.0 
136.0 24.324 
163.0 27.928 
END IONS

BEGIN IONS
PEPMASS=212.002
CHARGE=1+
MSLEVEL=2
SOURCE_INSTRUMENT=Negative-Quattro_QQQ:40eV
FILENAME=hmdb_intermediate.mgf
SEQ=*..*
IONMODE=Negative
ORGANISM=HMDB
NAME=HMDB:HMDB00682-947 Indoxyl sulfate M-H
PI=HMDB
DATACOLLECTOR=HMDB
SMILES=OS(=O)(=O)OC1=CNC2=CC=CC=C12
INCHI=InChI=1S/C8H7NO4S/c10-14(11,12)13-8-5-9-7-4-2-1-3-6(7)8/h1-5,9H,(H,10,11,12)
INCHIAUX=N/A
PUBMED=N/A
SUBMITUSER=mwang87
TAGS=
LIBRARYQUALITY=3
SPECTRUMID=CCMSLIB00000426437
SCANS=1409
80.313 100.0 
104.224 4.52 
132.049 4.353 
END IONS

BEGIN IONS
PEPMASS=291.232
CHARGE=1+
MSLEVEL=2
SOURCE_INSTRUMENT=Positive-Quattro_QQQ:25eV
FILENAME=hmdb_intermediate.mgf
SEQ=*..*
IONMODE=Positive
ORGANISM=HMDB
NAME=HMDB:HMDB00546-768 Epietiocholanolone M+H
PI=HMDB
DATACOLLECTOR=HMDB
SMILES=[H][C@@]12CCC(=O)[C@@]1(C)CC[C@@]1([H])[C@@]2([H])CC[C@]2([H])C[C@@H](O)CC[C@]12C
INCHI=InChI=1S/C19H30O2/c1-18-9-7-13(20)11-12(18)3-4-14-15-5-6-17(21)19(15,2)10-8-16(14)18/h12-16,20H,3-11H2,1-2H3/t12-,13+,14+,15+,16+,18+,19+/m1/s1
INCHIAUX=N/A
PUBMED=N/A
SUBMITUSER=mwang87
TAGS=
LIBRARYQUALITY=3
SPECTRUMID=CCMSLIB00000426438
SCANS=1410
66.8 22.705 
81.282 33.8 
92.451 70.753 
94.66 30.138 
106.443 56.908 
121.171 23.619 
132.832 43.657 
134.673 88.365 
146.825 51.523 
159.713 60.14 
171.252 24.644 
175.671 59.441 
186.965 18.18 
199.241 100.0 
214.463 34.07 
215.077 65.206 
254.241 24.697 
255.591 24.212 
291.075 42.743 
END IONS

BEGIN IONS
PEPMASS=190.119
CHARGE=1+
MSLEVEL=2
SOURCE_INSTRUMENT=Positive-Quattro_QQQ:40eV
FILENAME=hmdb_intermediate.mgf
SEQ=*..*
IONMODE=Positive
ORGANISM=HMDB
NAME=HMDB:HMDB00679-944 Homocitrulline M+H
PI=HMDB
DATACOLLECTOR=HMDB
SMILES=N[C@@H](CCCCNC(N)=O)C(O)=O
INCHI=InChI=1S/C7H15N3O3/c8-5(6(11)12)3-1-2-4-10-7(9)13/h5H,1-4,8H2,(H,11,12)(H3,9,10,13)/t5-/m0/s1
INCHIAUX=N/A
PUBMED=N/A
SUBMITUSER=mwang87
TAGS=
LIBRARYQUALITY=3
SPECTRUMID=CCMSLIB00000426439
SCANS=1411
41.393 8.778 
56.116 100.0 
67.187 24.632 
84.128 98.529 
100.055 5.009 
127.077 4.228 
END IONS

BEGIN IONS
PEPMASS=168.03
CHARGE=1+
MSLEVEL=2
SOURCE_INSTRUMENT=Positive-Quattro_QQQ:25eV
FILENAME=hmdb_intermediate.mgf
SEQ=*..*
IONMODE=Positive
ORGANISM=HMDB
NAME=HMDB:HMDB00232-389 Quinolinic acid M+H
PI=HMDB
DATACOLLECTOR=HMDB
SMILES=OC(=O)C1=CC=CN=C1C(O)=O
INCHI=InChI=1S/C7H5NO4/c9-6(10)4-2-1-3-8-5(4)7(11)12/h1-3H,(H,9,10)(H,11,12)
INCHIAUX=N/A
PUBMED=N/A
SUBMITUSER=mwang87
TAGS=
LIBRARYQUALITY=3
SPECTRUMID=CCMSLIB00000426440
SCANS=1412
66.206 8.479 
78.105 100.0 
94.047 22.287 
105.977 12.597 
121.967 6.347 
END IONS

BEGIN IONS
PEPMASS=138.092
CHARGE=1+
MSLEVEL=2
SOURCE_INSTRUMENT=Positive-Quattro_QQQ:40eV
FILENAME=hmdb_intermediate.mgf
SEQ=*..*
IONMODE=Positive
ORGANISM=HMDB
NAME=HMDB:HMDB00306-524 Tyramine M+H
PI=HMDB
DATACOLLECTOR=HMDB
SMILES=NCCC1=CC=C(O)C=C1
INCHI=InChI=1S/C8H11NO/c9-6-5-7-1-3-8(10)4-2-7/h1-4,10H,5-6,9H2
INCHIAUX=N/A
PUBMED=N/A
SUBMITUSER=mwang87
TAGS=
LIBRARYQUALITY=3
SPECTRUMID=CCMSLIB00000426441
SCANS=1413
51.223 27.558 
65.17 16.628 
77.08 100.0 
91.035 14.651 
102.954 4.738 
120.987 4.302 
END IONS

BEGIN IONS
PEPMASS=241.13
CHARGE=1+
MSLEVEL=2
SOURCE_INSTRUMENT=Positive-Quattro_QQQ:25eV
FILENAME=hmdb_intermediate.mgf
SEQ=*..*
IONMODE=Positive
ORGANISM=HMDB
NAME=HMDB:HMDB00194-314 Anserine M+H
PI=HMDB
DATACOLLECTOR=HMDB
SMILES=CN1C=NC=C1C[C@H](NC(=O)CCN)C(O)=O
INCHI=InChI=1S/C10H16N4O3/c1-14-6-12-5-7(14)4-8(10(16)17)13-9(15)2-3-11/h5-6,8H,2-4,11H2,1H3,(H,13,15)(H,16,17)/t8-/m0/s1
INCHIAUX=N/A
PUBMED=N/A
SUBMITUSER=mwang87
TAGS=
LIBRARYQUALITY=3
SPECTRUMID=CCMSLIB00000426442
SCANS=1414
96.61 18.725 
109.015 100.0 
126.307 40.312 
152.998 36.682 
169.915 59.04 
180.317 11.663 
223.554 10.206 
241.352 22.578 
END IONS

BEGIN IONS
PEPMASS=163.124
CHARGE=1+
MSLEVEL=2
SOURCE_INSTRUMENT=Positive-Quattro_QQQ:40eV
FILENAME=hmdb_intermediate.mgf
SEQ=*..*
IONMODE=Positive
ORGANISM=HMDB
NAME=HMDB:HMDB01934-1880 L(-)-Nicotine pestanal M+H
PI=HMDB
DATACOLLECTOR=HMDB
SMILES=CN1CCC[C@H]1C1=CN=CC=C1
INCHI=InChI=1S/C10H14N2/c1-12-7-3-5-10(12)9-4-2-6-11-8-9/h2,4,6,8,10H,3,5,7H2,1H3/t10-/m0/s1
INCHIAUX=N/A
PUBMED=N/A
SUBMITUSER=mwang87
TAGS=
LIBRARYQUALITY=3
SPECTRUMID=CCMSLIB00000426443
SCANS=1415
65.0 12.832 
84.0 36.649 
90.0 31.996 
103.0 18.888 
106.0 13.544 
117.0 100.0 
130.0 54.976 
163.0 16.484 
END IONS

BEGIN IONS
PEPMASS=73.0653
CHARGE=1+
MSLEVEL=2
SOURCE_INSTRUMENT=Positive-Quattro_QQQ:40eV
FILENAME=hmdb_intermediate.mgf
SEQ=*..*
IONMODE=Positive
ORGANISM=HMDB
NAME=HMDB:HMDB03543-2324 Butanal M+H
PI=HMDB
DATACOLLECTOR=HMDB
SMILES=CCCC=O
INCHI=InChI=1S/C4H8O/c1-2-3-4-5/h4H,2-3H2,1H3
INCHIAUX=N/A
PUBMED=N/A
SUBMITUSER=mwang87
TAGS=
LIBRARYQUALITY=3
SPECTRUMID=CCMSLIB00000426444
SCANS=1416
31.0 54.466 
43.0 100.0 
END IONS

BEGIN IONS
PEPMASS=525.901
CHARGE=1+
MSLEVEL=2
SOURCE_INSTRUMENT=Positive-Quattro_QQQ:40eV
FILENAME=hmdb_intermediate.mgf
SEQ=*..*
IONMODE=Positive
ORGANISM=HMDB
NAME=HMDB:HMDB00582-812 3,5-Diiodothyronine M+H
PI=HMDB
DATACOLLECTOR=HMDB
SMILES=NC(CC1=CC(I)=C(OC2=CC=C(O)C=C2)C(I)=C1)C(O)=O
INCHI=InChI=1S/C15H13I2NO4/c16-11-5-8(7-13(18)15(20)21)6-12(17)14(11)22-10-3-1-9(19)2-4-10/h1-6,13,19H,7,18H2,(H,20,21)
INCHIAUX=N/A
PUBMED=N/A
SUBMITUSER=mwang87
TAGS=
LIBRARYQUALITY=3
SPECTRUMID=CCMSLIB00000426445
SCANS=1417
161.16 1.512884185 
181.26 6.0825136877 
185.22 3.4815358728 
199.26 11.9776628561 
209.22 5.15439379 
226.26 8.9237868279 
237.24 5.6441653552 
255.24 3.9127897811 
288.12 4.8983650125 
312.12 4.1031017127 
325.2 14.8203241291 
340.14 6.4709222029 
353.16 68.2116744918 
358.98 1.7840405175 
372.96 2.3938213381 
382.14 35.328409294 
386.94 1.519403984 
466.98 18.6176432932 
479.94 100.0 
525.96 1.5849987927 
END IONS

BEGIN IONS
PEPMASS=94.0657
CHARGE=1+
MSLEVEL=2
SOURCE_INSTRUMENT=Positive-Quattro_QQQ:10eV
FILENAME=hmdb_intermediate.mgf
SEQ=*..*
IONMODE=Positive
ORGANISM=HMDB
NAME=HMDB:HMDB03012-2182 Aniline M+H
PI=HMDB
DATACOLLECTOR=HMDB
SMILES=NC1=CC=CC=C1
INCHI=InChI=1S/C6H7N/c7-6-4-2-1-3-5-6/h1-5H,7H2
INCHIAUX=N/A
PUBMED=N/A
SUBMITUSER=mwang87
TAGS=
LIBRARYQUALITY=3
SPECTRUMID=CCMSLIB00000426446
SCANS=1418
77.0 16.462 
94.0 100.0 
END IONS

BEGIN IONS
PEPMASS=142.027
CHARGE=1+
MSLEVEL=2
SOURCE_INSTRUMENT=Positive-Quattro_QQQ:10eV
FILENAME=hmdb_intermediate.mgf
SEQ=*..*
IONMODE=Positive
ORGANISM=HMDB
NAME=HMDB:HMDB00224-370 O-Phosphoethanolamine M+H
PI=HMDB
DATACOLLECTOR=HMDB
SMILES=NCCOP(O)(O)=O
INCHI=InChI=1S/C2H8NO4P/c3-1-2-7-8(4,5)6/h1-3H2,(H2,4,5,6)
INCHIAUX=N/A
PUBMED=N/A
SUBMITUSER=mwang87
TAGS=
LIBRARYQUALITY=3
SPECTRUMID=CCMSLIB00000426447
SCANS=1419
44.628 100.0 
142.085 20.062 
END IONS

BEGIN IONS
PEPMASS=117.019
CHARGE=1+
MSLEVEL=2
SOURCE_INSTRUMENT=Negative-Quattro_QQQ:40eV
FILENAME=hmdb_intermediate.mgf
SEQ=*..*
IONMODE=Negative
ORGANISM=HMDB
NAME=HMDB:HMDB00254-441 Succinic acid M-H
PI=HMDB
DATACOLLECTOR=HMDB
SMILES=OC(=O)CCC(O)=O
INCHI=InChI=1S/C4H6O4/c5-3(6)1-2-4(7)8/h1-2H2,(H,5,6)(H,7,8)
INCHIAUX=N/A
PUBMED=N/A
SUBMITUSER=mwang87
TAGS=
LIBRARYQUALITY=3
SPECTRUMID=CCMSLIB00000426448
SCANS=1420
45.23 8.575 
55.117 9.058 
72.958 100.0 
113.233 6.914 
116.902 94.203 
END IONS

BEGIN IONS
PEPMASS=174.088
CHARGE=1+
MSLEVEL=2
SOURCE_INSTRUMENT=Positive-Quattro_QQQ:40eV
FILENAME=hmdb_intermediate.mgf
SEQ=*..*
IONMODE=Positive
ORGANISM=HMDB
NAME=HMDB:HMDB04225-2375 2-Oxoarginine M+H
PI=HMDB
DATACOLLECTOR=HMDB
SMILES=NC(N)=NCCCC(=O)C(O)=O
INCHI=InChI=1S/C6H11N3O3/c7-6(8)9-3-1-2-4(10)5(11)12/h1-3H2,(H,11,12)(H4,7,8,9)
INCHIAUX=N/A
PUBMED=N/A
SUBMITUSER=mwang87
TAGS=
LIBRARYQUALITY=3
SPECTRUMID=CCMSLIB00000426449
SCANS=1421
41.78 33.383 
51.25 33.626 
65.42 22.627 
77.15 100.0 
91.6 46.388 
104.15 25.553 
105.4 38.79 
131.76 30.418 
END IONS

BEGIN IONS
PEPMASS=166.073
CHARGE=1+
MSLEVEL=2
SOURCE_INSTRUMENT=Positive-Quattro_QQQ:10eV
FILENAME=hmdb_intermediate.mgf
SEQ=*..*
IONMODE=Positive
ORGANISM=HMDB
NAME=HMDB:HMDB00897-1268 7-Methylguanine M+H
PI=HMDB
DATACOLLECTOR=HMDB
SMILES=CN1C=NC2=C1C(=O)N=C(N)N2
INCHI=InChI=1S/C6H7N5O/c1-11-2-8-4-3(11)5(12)10-6(7)9-4/h2H,1H3,(H3,7,9,10,12)
INCHIAUX=N/A
PUBMED=N/A
SUBMITUSER=mwang87
TAGS=
LIBRARYQUALITY=3
SPECTRUMID=CCMSLIB00000426450
SCANS=1422
148.82 8.502 
165.84 100.0 
END IONS

BEGIN IONS
PEPMASS=99.081
CHARGE=1+
MSLEVEL=2
SOURCE_INSTRUMENT=Positive-Quattro_QQQ:10eV
FILENAME=hmdb_intermediate.mgf
SEQ=*..*
IONMODE=Positive
ORGANISM=HMDB
NAME=HMDB:HMDB03315-2239 Cyclohexanone M+H
PI=HMDB
DATACOLLECTOR=HMDB
SMILES=O=C1CCCCC1
INCHI=InChI=1S/C6H10O/c7-6-4-2-1-3-5-6/h1-5H2
INCHIAUX=N/A
PUBMED=N/A
SUBMITUSER=mwang87
TAGS=
LIBRARYQUALITY=3
SPECTRUMID=CCMSLIB00000426451
SCANS=1423
55.06 8.693 
80.94 100.0 
98.88 7.589 
END IONS

BEGIN IONS
PEPMASS=181.073
CHARGE=1+
MSLEVEL=2
SOURCE_INSTRUMENT=Positive-Quattro_QQQ:40eV
FILENAME=hmdb_intermediate.mgf
SEQ=*..*
IONMODE=Positive
ORGANISM=HMDB
NAME=HMDB:HMDB01860-1737 Paraxanthine M+H
PI=HMDB
DATACOLLECTOR=HMDB
SMILES=CN1C=NC2=C1C(=O)N(C)C(=O)N2
INCHI=InChI=1S/C7H8N4O2/c1-10-3-8-5-4(10)6(12)11(2)7(13)9-5/h3H,1-2H3,(H,9,13)
INCHIAUX=N/A
PUBMED=N/A
SUBMITUSER=mwang87
TAGS=
LIBRARYQUALITY=3
SPECTRUMID=CCMSLIB00000426452
SCANS=1424
42.379 100.0 
54.467 12.19 
55.588 25.17 
69.421 81.537 
96.588 10.869 
124.131 22.599 
124.505 10.77 
END IONS

BEGIN IONS
PEPMASS=221.093
CHARGE=1+
MSLEVEL=2
SOURCE_INSTRUMENT=Positive-Quattro_QQQ:25eV
FILENAME=hmdb_intermediate.mgf
SEQ=*..*
IONMODE=Positive
ORGANISM=HMDB
NAME=HMDB:HMDB00472-687 5-Hydroxy-L-tryptophan M+H
PI=HMDB
DATACOLLECTOR=HMDB
SMILES=NC(CC1=CNC2=C1C=C(O)C=C2)C(O)=O
INCHI=InChI=1S/C11H12N2O3/c12-9(11(15)16)3-6-5-13-10-2-1-7(14)4-8(6)10/h1-2,4-5,9,13-14H,3,12H2,(H,15,16)
INCHIAUX=N/A
PUBMED=N/A
SUBMITUSER=mwang87
TAGS=
LIBRARYQUALITY=3
SPECTRUMID=CCMSLIB00000426453
SCANS=1425
102.0 4.62 
105.0 12.61 
116.0 8.544 
133.0 100.0 
145.0 12.907 
161.0 43.101 
174.0 4.457 
185.0 6.892 
203.0 5.055 
END IONS

BEGIN IONS
PEPMASS=299.295
CHARGE=1+
MSLEVEL=2
SOURCE_INSTRUMENT=Positive-Quattro_QQQ:10eV
FILENAME=hmdb_intermediate.mgf
SEQ=*..*
IONMODE=Positive
ORGANISM=HMDB
NAME=HMDB:HMDB00795-1132 Pristanic acid M+H
PI=HMDB
DATACOLLECTOR=HMDB
SMILES=CC(C)CCCC(C)CCCC(C)CCCC(C)C(O)=O
INCHI=InChI=1S/C19H38O2/c1-15(2)9-6-10-16(3)11-7-12-17(4)13-8-14-18(5)19(20)21/h15-18H,6-14H2,1-5H3,(H,20,21)
INCHIAUX=N/A
PUBMED=N/A
SUBMITUSER=mwang87
TAGS=
LIBRARYQUALITY=3
SPECTRUMID=CCMSLIB00000426454
SCANS=1426
57.105 35.709 
69.377 12.251 
80.914 60.556 
95.274 50.479 
111.72 100.0 
141.301 43.529 
151.735 19.895 
159.345 45.96 
167.447 35.188 
178.249 19.201 
214.832 20.416 
236.193 33.797 
252.768 10.338 
265.536 32.927 
281.744 40.922 
299.793 31.539 
END IONS

BEGIN IONS
PEPMASS=91.0395
CHARGE=1+
MSLEVEL=2
SOURCE_INSTRUMENT=Positive-Quattro_QQQ:40eV
FILENAME=hmdb_intermediate.mgf
SEQ=*..*
IONMODE=Positive
ORGANISM=HMDB
NAME=HMDB:HMDB00700-977 Hydroxypropionic acid M+H
PI=HMDB
DATACOLLECTOR=HMDB
SMILES=OCCC(O)=O
INCHI=InChI=1S/C3H6O3/c4-2-1-3(5)6/h4H,1-2H2,(H,5,6)
INCHIAUX=N/A
PUBMED=N/A
SUBMITUSER=mwang87
TAGS=
LIBRARYQUALITY=3
SPECTRUMID=CCMSLIB00000426455
SCANS=1427
64.857 100.0 
80.915 30.848 
94.359 31.4 
100.832 34.162 
118.634 36.371 
128.718 44.122 
140.918 34.714 
149.632 33.057 
END IONS

BEGIN IONS
PEPMASS=255.232
CHARGE=1+
MSLEVEL=2
SOURCE_INSTRUMENT=Negative-Quattro_QQQ:25eV
FILENAME=hmdb_intermediate.mgf
SEQ=*..*
IONMODE=Negative
ORGANISM=HMDB
NAME=HMDB:HMDB00220-359 Palmitic acid M-H
PI=HMDB
DATACOLLECTOR=HMDB
SMILES=CCCCCCCCCCCCCCCC(O)=O
INCHI=InChI=1S/C16H32O2/c1-2-3-4-5-6-7-8-9-10-11-12-13-14-15-16(17)18/h2-15H2,1H3,(H,17,18)
INCHIAUX=N/A
PUBMED=N/A
SUBMITUSER=mwang87
TAGS=
LIBRARYQUALITY=3
SPECTRUMID=CCMSLIB00000426456
SCANS=1428
45.313 4.384 
59.249 1.597 
80.06 1.959 
237.103 7.556 
253.792 1.224 
255.112 100.0 
END IONS

BEGIN IONS
PEPMASS=131.13
CHARGE=1+
MSLEVEL=2
SOURCE_INSTRUMENT=Positive-Quattro_QQQ:40eV
FILENAME=hmdb_intermediate.mgf
SEQ=*..*
IONMODE=Positive
ORGANISM=HMDB
NAME=HMDB:HMDB60259-1579 Agmatine M+H
PI=HMDB
DATACOLLECTOR=HMDB
SMILES=NCCCCNC(N)=N
INCHI=InChI=1S/C5H14N4/c6-3-1-2-4-9-5(7)8/h1-4,6H2,(H4,7,8,9)
INCHIAUX=N/A
PUBMED=N/A
SUBMITUSER=mwang87
TAGS=
LIBRARYQUALITY=3
SPECTRUMID=CCMSLIB00000426457
SCANS=1429
72.0 100.0 
131.0 6.533 
END IONS

BEGIN IONS
PEPMASS=428.374
CHARGE=1+
MSLEVEL=2
SOURCE_INSTRUMENT=Positive-Quattro_QQQ:40eV
FILENAME=hmdb_intermediate.mgf
SEQ=*..*
IONMODE=Positive
ORGANISM=HMDB
NAME=HMDB:HMDB00848-1198 Stearoylcarnitine M+H
PI=HMDB
DATACOLLECTOR=HMDB
SMILES=CCCCCCCCCCCCCCCCCC(=O)OC(CC([O-])=O)C[N+](C)(C)C
INCHI=InChI=1S/C25H49NO4/c1-5-6-7-8-9-10-11-12-13-14-15-16-17-18-19-20-25(29)30-23(21-24(27)28)22-26(2,3)4/h23H,5-22H2,1-4H3
INCHIAUX=N/A
PUBMED=N/A
SUBMITUSER=mwang87
TAGS=
LIBRARYQUALITY=3
SPECTRUMID=CCMSLIB00000426458
SCANS=1430
60.0 17.799 
84.0 21.419 
85.0 100.0 
END IONS

BEGIN IONS
PEPMASS=132.102
CHARGE=1+
MSLEVEL=2
SOURCE_INSTRUMENT=Positive-Quattro_QQQ:25eV
FILENAME=hmdb_intermediate.mgf
SEQ=*..*
IONMODE=Positive
ORGANISM=HMDB
NAME=HMDB:HMDB00687-952 L-Leucine M+H
PI=HMDB
DATACOLLECTOR=HMDB
SMILES=CC(C)C[C@H](N)C(O)=O
INCHI=InChI=1S/C6H13NO2/c1-4(2)3-5(7)6(8)9/h4-5H,3,7H2,1-2H3,(H,8,9)/t5-/m0/s1
INCHIAUX=N/A
PUBMED=N/A
SUBMITUSER=mwang87
TAGS=
LIBRARYQUALITY=3
SPECTRUMID=CCMSLIB00000426459
SCANS=1431
43.35 100.0 
55.211 4.992 
69.15 4.874 
86.055 47.17 
END IONS

BEGIN IONS
PEPMASS=177.062
CHARGE=1+
MSLEVEL=2
SOURCE_INSTRUMENT=Positive-Quattro_QQQ:10eV
FILENAME=hmdb_intermediate.mgf
SEQ=*..*
IONMODE=Positive
ORGANISM=HMDB
NAME=HMDB:HMDB01209-1466 Allantoic acid M+H
PI=HMDB
DATACOLLECTOR=HMDB
SMILES=NC(=O)NC(NC(N)=O)C(O)=O
INCHI=InChI=1S/C4H8N4O4/c5-3(11)7-1(2(9)10)8-4(6)12/h1H,(H,9,10)(H3,5,7,11)(H3,6,8,12)
INCHIAUX=N/A
PUBMED=N/A
SUBMITUSER=mwang87
TAGS=
LIBRARYQUALITY=3
SPECTRUMID=CCMSLIB00000426460
SCANS=1432
61.0 100.0 
74.0 10.57 
91.0 5.85 
117.0 22.465 
134.0 40.516 
177.0 8.879 
END IONS

BEGIN IONS
PEPMASS=164.038
CHARGE=1+
MSLEVEL=2
SOURCE_INSTRUMENT=Positive-Quattro_QQQ:40eV
FILENAME=hmdb_intermediate.mgf
SEQ=*..*
IONMODE=Positive
ORGANISM=HMDB
NAME=HMDB:HMDB01890-1797 Acetylcysteine M+H
PI=HMDB
DATACOLLECTOR=HMDB
SMILES=CC(=O)N[C@@H](CS)C(O)=O
INCHI=InChI=1S/C5H9NO3S/c1-3(7)6-4(2-10)5(8)9/h4,10H,2H2,1H3,(H,6,7)(H,8,9)/t4-/m0/s1
INCHIAUX=N/A
PUBMED=N/A
SUBMITUSER=mwang87
TAGS=
LIBRARYQUALITY=3
SPECTRUMID=CCMSLIB00000426461
SCANS=1433
43.262 92.308 
59.157 100.0 
76.075 44.551 
86.967 7.372 
122.054 6.41 
END IONS

BEGIN IONS
PEPMASS=151.076
CHARGE=1+
MSLEVEL=2
SOURCE_INSTRUMENT=Positive-Quattro_QQQ:25eV
FILENAME=hmdb_intermediate.mgf
SEQ=*..*
IONMODE=Positive
ORGANISM=HMDB
NAME=HMDB:HMDB02097-2002 4-Ethylbenzoic acid M+H
PI=HMDB
DATACOLLECTOR=HMDB
SMILES=CCC1=CC=C(C=C1)C(O)=O
INCHI=InChI=1S/C9H10O2/c1-2-7-3-5-8(6-4-7)9(10)11/h3-6H,2H2,1H3,(H,10,11)
INCHIAUX=N/A
PUBMED=N/A
SUBMITUSER=mwang87
TAGS=
LIBRARYQUALITY=3
SPECTRUMID=CCMSLIB00000426462
SCANS=1434
78.0 100.0 
104.0 14.155 
105.0 6.571 
132.0 5.319 
END IONS

BEGIN IONS
PEPMASS=345.14
CHARGE=1+
MSLEVEL=2
SOURCE_INSTRUMENT=Positive-Quattro_QQQ:10eV
FILENAME=hmdb_intermediate.mgf
SEQ=*..*
IONMODE=Positive
ORGANISM=HMDB
NAME=HMDB:HMDB02928-2170 Maltitol M+H
PI=HMDB
DATACOLLECTOR=HMDB
SMILES=[H][C@@](O[C@H]1O[C@H](CO)[C@@H](O)[C@H](O)[C@H]1O)([C@H](O)CO)[C@H](O)[C@@H](O)CO
INCHI=InChI=1S/C12H24O11/c13-1-4(16)7(18)11(5(17)2-14)23-12-10(21)9(20)8(19)6(3-15)22-12/h4-21H,1-3H2/t4-,5+,6+,7+,8+,9-,10+,11+,12+/m0/s1
INCHIAUX=N/A
PUBMED=N/A
SUBMITUSER=mwang87
TAGS=
LIBRARYQUALITY=3
SPECTRUMID=CCMSLIB00000426463
SCANS=1435
69.0 3.052 
111.0 0.873 
129.0 3.107 
147.0 6.696 
164.0 1.136 
165.0 8.15 
183.0 100.0 
END IONS

BEGIN IONS
PEPMASS=106.05
CHARGE=1+
MSLEVEL=2
SOURCE_INSTRUMENT=Positive-Quattro_QQQ:40eV
FILENAME=hmdb_intermediate.mgf
SEQ=*..*
IONMODE=Positive
ORGANISM=HMDB
NAME=HMDB:HMDB00187-297 L-Serine M+H
PI=HMDB
DATACOLLECTOR=HMDB
SMILES=N[C@@H](CO)C(O)=O
INCHI=InChI=1S/C3H7NO3/c4-2(1-5)3(6)7/h2,5H,1,4H2,(H,6,7)/t2-/m0/s1
INCHIAUX=N/A
PUBMED=N/A
SUBMITUSER=mwang87
TAGS=
LIBRARYQUALITY=3
SPECTRUMID=CCMSLIB00000426464
SCANS=1436
42.246 100.0 
45.172 19.38 
60.006 76.744 
103.993 6.444 
105.945 35.465 
END IONS

BEGIN IONS
PEPMASS=195.088
CHARGE=1+
MSLEVEL=2
SOURCE_INSTRUMENT=Positive-Quattro_QQQ:10eV
FILENAME=hmdb_intermediate.mgf
SEQ=*..*
IONMODE=Positive
ORGANISM=HMDB
NAME=HMDB:HMDB01847-1702 Caffeine M+H
PI=HMDB
DATACOLLECTOR=HMDB
SMILES=CN1C=NC2=C1C(=O)N(C)C(=O)N2C
INCHI=InChI=1S/C8H10N4O2/c1-10-4-9-6-5(10)7(13)12(3)8(14)11(6)2/h4H,1-3H3
INCHIAUX=N/A
PUBMED=N/A
SUBMITUSER=mwang87
TAGS=
LIBRARYQUALITY=3
SPECTRUMID=CCMSLIB00000426465
SCANS=1437
60.224 25.246 
108.662 31.281 
123.257 5.29 
153.833 44.156 
154.714 5.693 
168.555 5.933 
176.86 9.152 
193.974 15.831 
194.729 100.0 
END IONS

BEGIN IONS
PEPMASS=133.061
CHARGE=1+
MSLEVEL=2
SOURCE_INSTRUMENT=Positive-Quattro_QQQ:10eV
FILENAME=hmdb_intermediate.mgf
SEQ=*..*
IONMODE=Positive
ORGANISM=HMDB
NAME=HMDB:HMDB00026-45 Ureidopropionic acid M+H
PI=HMDB
DATACOLLECTOR=HMDB
SMILES=NC(=O)NCCC(O)=O
INCHI=InChI=1S/C4H8N2O3/c5-4(9)6-2-1-3(7)8/h1-2H2,(H,7,8)(H3,5,6,9)
INCHIAUX=N/A
PUBMED=N/A
SUBMITUSER=mwang87
TAGS=
LIBRARYQUALITY=3
SPECTRUMID=CCMSLIB00000426466
SCANS=1438
72.199 57.727 
90.11 100.0 
115.048 71.818 
132.983 27.955 
END IONS

BEGIN IONS
PEPMASS=313.217
CHARGE=1+
MSLEVEL=2
SOURCE_INSTRUMENT=Positive-Quattro_QQQ:25eV
FILENAME=hmdb_intermediate.mgf
SEQ=*..*
IONMODE=Positive
ORGANISM=HMDB
NAME=HMDB:HMDB00995-1385 16-Dehydroprogesterone M+H
PI=HMDB
DATACOLLECTOR=HMDB
SMILES=[H][C@@]12CC=C(C(C)=O)[C@@]1(C)CC[C@@]1([H])[C@@]2([H])CCC2=CC(=O)CC[C@]12C
INCHI=InChI=1S/C21H28O2/c1-13(22)17-6-7-18-16-5-4-14-12-15(23)8-10-20(14,2)19(16)9-11-21(17,18)3/h6,12,16,18-19H,4-5,7-11H2,1-3H3/t16-,18-,19-,20-,21+/m0/s1
INCHIAUX=N/A
PUBMED=N/A
SUBMITUSER=mwang87
TAGS=
LIBRARYQUALITY=3
SPECTRUMID=CCMSLIB00000426467
SCANS=1439
81.098 7.969 
93.081 5.703 
97.062 92.5 
109.046 100.0 
123.013 7.813 
133.007 4.004 
135.005 7.813 
144.991 5.234 
159.006 6.328 
173.014 5.391 
177.004 5.078 
205.013 2.773 
253.048 3.301 
END IONS

BEGIN IONS
PEPMASS=133.086
CHARGE=1+
MSLEVEL=2
SOURCE_INSTRUMENT=Positive-Quattro_QQQ:10eV
FILENAME=hmdb_intermediate.mgf
SEQ=*..*
IONMODE=Positive
ORGANISM=HMDB
NAME=HMDB:HMDB00665-909 Leucinic acid M+H
PI=HMDB
DATACOLLECTOR=HMDB
SMILES=CC(C)CC(O)C(O)=O
INCHI=InChI=1S/C6H12O3/c1-4(2)3-5(7)6(8)9/h4-5,7H,3H2,1-2H3,(H,8,9)
INCHIAUX=N/A
PUBMED=N/A
SUBMITUSER=mwang87
TAGS=
LIBRARYQUALITY=3
SPECTRUMID=CCMSLIB00000426468
SCANS=1440
69.318 100.0 
83.227 12.249 
87.363 67.685 
114.932 11.861 
133.228 14.384 
END IONS

BEGIN IONS
PEPMASS=345.14
CHARGE=1+
MSLEVEL=2
SOURCE_INSTRUMENT=Positive-Quattro_QQQ:40eV
FILENAME=hmdb_intermediate.mgf
SEQ=*..*
IONMODE=Positive
ORGANISM=HMDB
NAME=HMDB:HMDB02928-2172 Maltitol M+H
PI=HMDB
DATACOLLECTOR=HMDB
SMILES=[H][C@@](O[C@H]1O[C@H](CO)[C@@H](O)[C@H](O)[C@H]1O)([C@H](O)CO)[C@H](O)[C@@H](O)CO
INCHI=InChI=1S/C12H24O11/c13-1-4(16)7(18)11(5(17)2-14)23-12-10(21)9(20)8(19)6(3-15)22-12/h4-21H,1-3H2/t4-,5+,6+,7+,8+,9-,10+,11+,12+/m0/s1
INCHIAUX=N/A
PUBMED=N/A
SUBMITUSER=mwang87
TAGS=
LIBRARYQUALITY=3
SPECTRUMID=CCMSLIB00000426469
SCANS=1441
43.0 16.715 
45.0 11.425 
57.0 33.679 
69.0 100.0 
83.0 43.347 
85.0 54.995 
99.0 12.199 
111.0 12.928 
129.0 10.752 
147.0 6.966 
183.0 5.472 
END IONS

BEGIN IONS
PEPMASS=132.066
CHARGE=1+
MSLEVEL=2
SOURCE_INSTRUMENT=Positive-Quattro_QQQ:25eV
FILENAME=hmdb_intermediate.mgf
SEQ=*..*
IONMODE=Positive
ORGANISM=HMDB
NAME=HMDB:HMDB01149-1434 5-Aminolevulinic acid M+H
PI=HMDB
DATACOLLECTOR=HMDB
SMILES=NCC(=O)CCC(O)=O
INCHI=InChI=1S/C5H9NO3/c6-3-4(7)1-2-5(8)9/h1-3,6H2,(H,8,9)
INCHIAUX=N/A
PUBMED=N/A
SUBMITUSER=mwang87
TAGS=
LIBRARYQUALITY=3
SPECTRUMID=CCMSLIB00000426470
SCANS=1442
53.032 16.14 
55.273 35.209 
68.094 25.436 
86.019 100.0 
114.028 24.948 
114.526 16.14 
END IONS

BEGIN IONS
PEPMASS=181.05
CHARGE=1+
MSLEVEL=2
SOURCE_INSTRUMENT=Positive-Quattro_QQQ:10eV
FILENAME=hmdb_intermediate.mgf
SEQ=*..*
IONMODE=Positive
ORGANISM=HMDB
NAME=HMDB:HMDB01879-1777 Aspirin M+H
PI=HMDB
DATACOLLECTOR=HMDB
SMILES=CC(=O)OC1=CC=CC=C1C(O)=O
INCHI=InChI=1S/C9H8O4/c1-6(10)13-8-5-3-2-4-7(8)9(11)12/h2-5H,1H3,(H,11,12)
INCHIAUX=N/A
PUBMED=N/A
SUBMITUSER=mwang87
TAGS=
LIBRARYQUALITY=3
SPECTRUMID=CCMSLIB00000426471
SCANS=1443
85.0 100.0 
117.0 84.538 
135.0 2.885 
149.0 27.171 
163.0 11.198 
181.0 3.468 
END IONS

BEGIN IONS
PEPMASS=145.05
CHARGE=1+
MSLEVEL=2
SOURCE_INSTRUMENT=Positive-Quattro_QQQ:10eV
FILENAME=hmdb_intermediate.mgf
SEQ=*..*
IONMODE=Positive
ORGANISM=HMDB
NAME=HMDB:HMDB00393-600 3-Hexenedioic acid M+H
PI=HMDB
DATACOLLECTOR=HMDB
SMILES=OC(=O)C\C=C\CC(O)=O
INCHI=InChI=1S/C6H8O4/c7-5(8)3-1-2-4-6(9)10/h1-2H,3-4H2,(H,7,8)(H,9,10)/b2-1+
INCHIAUX=N/A
PUBMED=N/A
SUBMITUSER=mwang87
TAGS=
LIBRARYQUALITY=3
SPECTRUMID=CCMSLIB00000426472
SCANS=1444
85.1 4.1232699663 
99.1 100.0 
109.1 11.4074374357 
127.1 76.5769752124 
145.1 51.0286279596 
END IONS

BEGIN IONS
PEPMASS=343.124
CHARGE=1+
MSLEVEL=2
SOURCE_INSTRUMENT=Positive-Quattro_QQQ:25eV
FILENAME=hmdb_intermediate.mgf
SEQ=*..*
IONMODE=Positive
ORGANISM=HMDB
NAME=HMDB:HMDB00975-1373 Trehalose M+H
PI=HMDB
DATACOLLECTOR=HMDB
SMILES=OC[C@H]1O[C@H](O[C@H]2O[C@H](CO)[C@@H](O)[C@H](O)[C@H]2O)[C@H](O)[C@@H](O)[C@@H]1O
INCHI=InChI=1S/C12H22O11/c13-1-3-5(15)7(17)9(19)11(21-3)23-12-10(20)8(18)6(16)4(2-14)22-12/h3-20H,1-2H2/t3-,4-,5-,6-,7+,8+,9-,10-,11-,12-/m1/s1
INCHIAUX=N/A
PUBMED=N/A
SUBMITUSER=mwang87
TAGS=
LIBRARYQUALITY=3
SPECTRUMID=CCMSLIB00000426473
SCANS=1445
85.0 100.0 
97.0 19.325 
109.0 13.559 
127.0 18.348 
145.0 23.818 
163.0 18.312 
END IONS

BEGIN IONS
PEPMASS=206.045
CHARGE=1+
MSLEVEL=2
SOURCE_INSTRUMENT=Positive-Quattro_QQQ:10eV
FILENAME=hmdb_intermediate.mgf
SEQ=*..*
IONMODE=Positive
ORGANISM=HMDB
NAME=HMDB:HMDB00881-1241 Xanthurenic acid M+H
PI=HMDB
DATACOLLECTOR=HMDB
SMILES=OC(=O)C1=NC2=C(O)C=CC=C2C(O)=C1
INCHI=InChI=1S/C10H7NO4/c12-7-3-1-2-5-8(13)4-6(10(14)15)11-9(5)7/h1-4,12H,(H,11,13)(H,14,15)
INCHIAUX=N/A
PUBMED=N/A
SUBMITUSER=mwang87
TAGS=
LIBRARYQUALITY=3
SPECTRUMID=CCMSLIB00000426474
SCANS=1446
132.025 1.74 
159.994 25.098 
178.0 3.039 
187.972 30.98 
205.971 100.0 
END IONS

BEGIN IONS
PEPMASS=153.019
CHARGE=1+
MSLEVEL=2
SOURCE_INSTRUMENT=Negative-Quattro_QQQ:10eV
FILENAME=hmdb_intermediate.mgf
SEQ=*..*
IONMODE=Negative
ORGANISM=HMDB
NAME=HMDB:HMDB00397-603 2-Pyrocatechuic acid M-H
PI=HMDB
DATACOLLECTOR=HMDB
SMILES=OC(=O)C1=CC=CC(O)=C1O
INCHI=InChI=1S/C7H6O4/c8-5-3-1-2-4(6(5)9)7(10)11/h1-3,8-9H,(H,10,11)
INCHIAUX=N/A
PUBMED=N/A
SUBMITUSER=mwang87
TAGS=
LIBRARYQUALITY=3
SPECTRUMID=CCMSLIB00000426475
SCANS=1447
109.151 50.249 
153.061 100.0 
END IONS

BEGIN IONS
PEPMASS=334.905
CHARGE=1+
MSLEVEL=2
SOURCE_INSTRUMENT=Negative-Quattro_QQQ:25eV
FILENAME=hmdb_intermediate.mgf
SEQ=*..*
IONMODE=Negative
ORGANISM=HMDB
NAME=HMDB:HMDB04122-2368 Selenocystine M-H
PI=HMDB
DATACOLLECTOR=HMDB
SMILES=NC(C[Se][Se]CC(N)C(O)=O)C(O)=O
INCHI=InChI=1S/C6H12N2O4Se2/c7-3(5(9)10)1-13-14-2-4(8)6(11)12/h3-4H,1-2,7-8H2,(H,9,10)(H,11,12)
INCHIAUX=N/A
PUBMED=N/A
SUBMITUSER=mwang87
TAGS=
LIBRARYQUALITY=3
SPECTRUMID=CCMSLIB00000426476
SCANS=1448
80.0 7.087 
121.0 4.788 
160.0 100.0 
167.0 4.229 
247.0 10.177 
END IONS

BEGIN IONS
PEPMASS=162.04
CHARGE=1+
MSLEVEL=2
SOURCE_INSTRUMENT=Positive-Quattro_QQQ:40eV
FILENAME=hmdb_intermediate.mgf
SEQ=*..*
IONMODE=Positive
ORGANISM=HMDB
NAME=HMDB:HMDB02467-2112 A-Ketoglutaric acid oxime M+H
PI=HMDB
DATACOLLECTOR=HMDB
SMILES=O\N=C(/CCC(O)=O)C(O)=O
INCHI=InChI=1S/C5H7NO5/c7-4(8)2-1-3(6-11)5(9)10/h11H,1-2H2,(H,7,8)(H,9,10)/b6-3+
INCHIAUX=N/A
PUBMED=N/A
SUBMITUSER=mwang87
TAGS=
LIBRARYQUALITY=3
SPECTRUMID=CCMSLIB00000426477
SCANS=1449
79.94 100.0 
91.31 77.358 
162.13 70.821 
END IONS

BEGIN IONS
PEPMASS=298.097
CHARGE=1+
MSLEVEL=2
SOURCE_INSTRUMENT=Positive-Quattro_QQQ:25eV
FILENAME=hmdb_intermediate.mgf
SEQ=*..*
IONMODE=Positive
ORGANISM=HMDB
NAME=HMDB:HMDB01173-1449 5'-Methylthioadenosine M+H
PI=HMDB
DATACOLLECTOR=HMDB
SMILES=CSC[C@H]1O[C@H]([C@H](O)[C@@H]1O)N1C=NC2=C1N=CN=C2N
INCHI=InChI=1S/C11H15N5O3S/c1-20-2-5-7(17)8(18)11(19-5)16-4-15-6-9(12)13-3-14-10(6)16/h3-5,7-8,11,17-18H,2H2,1H3,(H2,12,13,14)/t5-,7-,8-,11-/m1/s1
INCHIAUX=N/A
PUBMED=N/A
SUBMITUSER=mwang87
TAGS=
LIBRARYQUALITY=3
SPECTRUMID=CCMSLIB00000426478
SCANS=1450
61.0 6.201 
75.0 3.396 
97.0 2.595 
136.0 100.0 
END IONS

BEGIN IONS
PEPMASS=117.092
CHARGE=1+
MSLEVEL=2
SOURCE_INSTRUMENT=Positive-Quattro_QQQ:25eV
FILENAME=hmdb_intermediate.mgf
SEQ=*..*
IONMODE=Positive
ORGANISM=HMDB
NAME=HMDB:HMDB00689-956 Isocaproic acid M+H
PI=HMDB
DATACOLLECTOR=HMDB
SMILES=CC(C)CCC(O)=O
INCHI=InChI=1S/C6H12O2/c1-5(2)3-4-6(7)8/h5H,3-4H2,1-2H3,(H,7,8)
INCHIAUX=N/A
PUBMED=N/A
SUBMITUSER=mwang87
TAGS=
LIBRARYQUALITY=3
SPECTRUMID=CCMSLIB00000426479
SCANS=1451
71.84 80.813 
81.15 100.0 
91.33 43.595 
99.05 21.951 
114.08 33.984 
115.31 41.138 
END IONS

BEGIN IONS
PEPMASS=153.019
CHARGE=1+
MSLEVEL=2
SOURCE_INSTRUMENT=Negative-Quattro_QQQ:40eV
FILENAME=hmdb_intermediate.mgf
SEQ=*..*
IONMODE=Negative
ORGANISM=HMDB
NAME=HMDB:HMDB00152-235 Gentisic acid M-H
PI=HMDB
DATACOLLECTOR=HMDB
SMILES=OC(=O)C1=CC(O)=CC=C1O
INCHI=InChI=1S/C7H6O4/c8-4-1-2-6(9)5(3-4)7(10)11/h1-3,8-9H,(H,10,11)
INCHIAUX=N/A
PUBMED=N/A
SUBMITUSER=mwang87
TAGS=
LIBRARYQUALITY=3
SPECTRUMID=CCMSLIB00000426480
SCANS=1452
41.32 1.744 
53.229 8.243 
81.03 3.102 
107.948 100.0 
152.814 8.243 
END IONS

BEGIN IONS
PEPMASS=161.108
CHARGE=1+
MSLEVEL=2
SOURCE_INSTRUMENT=Positive-Quattro_QQQ:25eV
FILENAME=hmdb_intermediate.mgf
SEQ=*..*
IONMODE=Positive
ORGANISM=HMDB
NAME=HMDB:HMDB00303-517 Tryptamine M+H
PI=HMDB
DATACOLLECTOR=HMDB
SMILES=NCCC1=CNC2=CC=CC=C12
INCHI=InChI=1S/C10H12N2/c11-6-5-8-7-12-10-4-2-1-3-9(8)10/h1-4,7,12H,5-6,11H2
INCHIAUX=N/A
PUBMED=N/A
SUBMITUSER=mwang87
TAGS=
LIBRARYQUALITY=3
SPECTRUMID=CCMSLIB00000426481
SCANS=1453
77.122 4.317 
91.058 11.727 
103.058 4.51 
117.003 45.619 
127.067 26.804 
143.643 100.0 
END IONS

BEGIN IONS
PEPMASS=343.124
CHARGE=1+
MSLEVEL=2
SOURCE_INSTRUMENT=Positive-Quattro_QQQ:10eV
FILENAME=hmdb_intermediate.mgf
SEQ=*..*
IONMODE=Positive
ORGANISM=HMDB
NAME=HMDB:HMDB02923-2163 Isomaltose M+H
PI=HMDB
DATACOLLECTOR=HMDB
SMILES=OC[C@H]1O[C@H](OC[C@H]2OC(O)[C@H](O)[C@@H](O)[C@@H]2O)[C@H](O)[C@@H](O)[C@@H]1O
INCHI=InChI=1S/C12H22O11/c13-1-3-5(14)8(17)10(19)12(23-3)21-2-4-6(15)7(16)9(18)11(20)22-4/h3-20H,1-2H2/t3-,4-,5-,6-,7+,8+,9-,10-,11?,12+/m1/s1
INCHIAUX=N/A
PUBMED=N/A
SUBMITUSER=mwang87
TAGS=
LIBRARYQUALITY=3
SPECTRUMID=CCMSLIB00000426482
SCANS=1454
85.0 15.925 
145.0 17.658 
163.0 79.697 
343.0 100.0 
END IONS

BEGIN IONS
PEPMASS=103.076
CHARGE=1+
MSLEVEL=2
SOURCE_INSTRUMENT=Positive-Quattro_QQQ:40eV
FILENAME=hmdb_intermediate.mgf
SEQ=*..*
IONMODE=Positive
ORGANISM=HMDB
NAME=HMDB:HMDB00892-1255 Valeric acid M+H
PI=HMDB
DATACOLLECTOR=HMDB
SMILES=CCCCC(O)=O
INCHI=InChI=1S/C5H10O2/c1-2-3-4-5(6)7/h2-4H2,1H3,(H,6,7)
INCHIAUX=N/A
PUBMED=N/A
SUBMITUSER=mwang87
TAGS=
LIBRARYQUALITY=3
SPECTRUMID=CCMSLIB00000426483
SCANS=1455
41.0 100.0 
45.0 61.477 
END IONS

BEGIN IONS
PEPMASS=224.092
CHARGE=1+
MSLEVEL=2
SOURCE_INSTRUMENT=Positive-Quattro_QQQ:10eV
FILENAME=hmdb_intermediate.mgf
SEQ=*..*
IONMODE=Positive
ORGANISM=HMDB
NAME=HMDB:HMDB00866-1220 N-Acetyl-L-tyrosine M+H
PI=HMDB
DATACOLLECTOR=HMDB
SMILES=CC(=O)N[C@@H](CC1=CC=C(O)C=C1)C(O)=O
INCHI=InChI=1S/C11H13NO4/c1-7(13)12-10(11(15)16)6-8-2-4-9(14)5-3-8/h2-5,10,14H,6H2,1H3,(H,12,13)(H,15,16)/t10-/m0/s1
INCHIAUX=N/A
PUBMED=N/A
SUBMITUSER=mwang87
TAGS=
LIBRARYQUALITY=3
SPECTRUMID=CCMSLIB00000426484
SCANS=1456
136.027 49.704 
164.964 13.757 
178.004 100.0 
205.967 6.99 
223.983 15.385 
END IONS

BEGIN IONS
PEPMASS=133.014
CHARGE=1+
MSLEVEL=2
SOURCE_INSTRUMENT=Negative-Quattro_QQQ:40eV
FILENAME=hmdb_intermediate.mgf
SEQ=*..*
IONMODE=Negative
ORGANISM=HMDB
NAME=HMDB:HMDB00744-1058 Malic acid M-H
PI=HMDB
DATACOLLECTOR=HMDB
SMILES=OC(CC(O)=O)C(O)=O
INCHI=InChI=1S/C4H6O5/c5-2(4(8)9)1-3(6)7/h2,5H,1H2,(H,6,7)(H,8,9)
INCHIAUX=N/A
PUBMED=N/A
SUBMITUSER=mwang87
TAGS=
LIBRARYQUALITY=3
SPECTRUMID=CCMSLIB00000426485
SCANS=1457
43.298 77.895 
45.24 41.053 
59.162 19.342 
71.05 100.0 
114.219 8.421 
115.069 16.974 
132.972 53.158 
END IONS

BEGIN IONS
PEPMASS=110.028
CHARGE=1+
MSLEVEL=2
SOURCE_INSTRUMENT=Positive-Quattro_QQQ:10eV
FILENAME=hmdb_intermediate.mgf
SEQ=*..*
IONMODE=Positive
ORGANISM=HMDB
NAME=HMDB:HMDB00965-1369 Hypotaurine M+H
PI=HMDB
DATACOLLECTOR=HMDB
SMILES=NCCS(O)=O
INCHI=InChI=1S/C2H7NO2S/c3-1-2-6(4)5/h1-3H2,(H,4,5)
INCHIAUX=N/A
PUBMED=N/A
SUBMITUSER=mwang87
TAGS=
LIBRARYQUALITY=3
SPECTRUMID=CCMSLIB00000426486
SCANS=1458
92.0 100.0 
110.0 91.907 
END IONS

BEGIN IONS
PEPMASS=131.071
CHARGE=1+
MSLEVEL=2
SOURCE_INSTRUMENT=Positive-Quattro_QQQ:25eV
FILENAME=hmdb_intermediate.mgf
SEQ=*..*
IONMODE=Positive
ORGANISM=HMDB
NAME=HMDB:HMDB00695-967 Ketoleucine M+H
PI=HMDB
DATACOLLECTOR=HMDB
SMILES=CC(C)CC(=O)C(O)=O
INCHI=InChI=1S/C6H10O3/c1-4(2)3-5(7)6(8)9/h4H,3H2,1-2H3,(H,8,9)
INCHIAUX=N/A
PUBMED=N/A
SUBMITUSER=mwang87
TAGS=
LIBRARYQUALITY=3
SPECTRUMID=CCMSLIB00000426487
SCANS=1459
61.14 23.408 
69.63 100.0 
90.1 15.13 
107.31 17.019 
124.45 19.674 
END IONS

BEGIN IONS
PEPMASS=283.264
CHARGE=1+
MSLEVEL=2
SOURCE_INSTRUMENT=Positive-Quattro_QQQ:10eV
FILENAME=hmdb_intermediate.mgf
SEQ=*..*
IONMODE=Positive
ORGANISM=HMDB
NAME=HMDB:HMDB03231-2215 Vaccenic acid M+H
PI=HMDB
DATACOLLECTOR=HMDB
SMILES=CCCCCC\C=C/CCCCCCCCCC(O)=O
INCHI=InChI=1S/C18H34O2/c1-2-3-4-5-6-7-8-9-10-11-12-13-14-15-16-17-18(19)20/h7-8H,2-6,9-17H2,1H3,(H,19,20)/b8-7-
INCHIAUX=N/A
PUBMED=N/A
SUBMITUSER=mwang87
TAGS=
LIBRARYQUALITY=3
SPECTRUMID=CCMSLIB00000426488
SCANS=1460
82.0 3.562 
137.0 5.654 
204.0 6.458 
205.0 3.156 
241.0 3.307 
282.0 100.0 
END IONS

BEGIN IONS
PEPMASS=192.066
CHARGE=1+
MSLEVEL=2
SOURCE_INSTRUMENT=Positive-Quattro_QQQ:25eV
FILENAME=hmdb_intermediate.mgf
SEQ=*..*
IONMODE=Positive
ORGANISM=HMDB
NAME=HMDB:HMDB00763-1096 5-Hydroxyindoleacetic acid M+H
PI=HMDB
DATACOLLECTOR=HMDB
SMILES=OC(=O)CC1=CNC2=CC=C(O)C=C12
INCHI=InChI=1S/C10H9NO3/c12-7-1-2-9-8(4-7)6(5-11-9)3-10(13)14/h1-2,4-5,11-12H,3H2,(H,13,14)
INCHIAUX=N/A
PUBMED=N/A
SUBMITUSER=mwang87
TAGS=
LIBRARYQUALITY=3
SPECTRUMID=CCMSLIB00000426489
SCANS=1461
91.1 9.511 
117.911 15.965 
128.006 2.208 
145.965 100.0 
END IONS

BEGIN IONS
PEPMASS=159.139
CHARGE=1+
MSLEVEL=2
SOURCE_INSTRUMENT=Positive-Quattro_QQQ:25eV
FILENAME=hmdb_intermediate.mgf
SEQ=*..*
IONMODE=Positive
ORGANISM=HMDB
NAME=HMDB:HMDB00847-1194 Pelargonic acid M+H
PI=HMDB
DATACOLLECTOR=HMDB
SMILES=CCCCCCCCC(O)=O
INCHI=InChI=1S/C9H18O2/c1-2-3-4-5-6-7-8-9(10)11/h2-8H2,1H3,(H,10,11)
INCHIAUX=N/A
PUBMED=N/A
SUBMITUSER=mwang87
TAGS=
LIBRARYQUALITY=3
SPECTRUMID=CCMSLIB00000426490
SCANS=1462
43.0 100.0 
54.0 26.838 
56.0 24.591 
END IONS

BEGIN IONS
PEPMASS=255.232
CHARGE=1+
MSLEVEL=2
SOURCE_INSTRUMENT=Negative-Quattro_QQQ:10eV
FILENAME=hmdb_intermediate.mgf
SEQ=*..*
IONMODE=Negative
ORGANISM=HMDB
NAME=HMDB:HMDB60083-358 Palmitic acid M-H
PI=HMDB
DATACOLLECTOR=HMDB
SMILES=CCCCCCCCCCCCCCCC(O)=O
INCHI=InChI=1S/C16H32O2/c1-2-3-4-5-6-7-8-9-10-11-12-13-14-15-16(17)18/h2-15H2,1H3,(H,17,18)
INCHIAUX=N/A
PUBMED=N/A
SUBMITUSER=mwang87
TAGS=
LIBRARYQUALITY=3
SPECTRUMID=CCMSLIB00000426491
SCANS=1463
255.143 100.0 
END IONS

BEGIN IONS
PEPMASS=271.181
CHARGE=1+
MSLEVEL=2
SOURCE_INSTRUMENT=Positive-Quattro_QQQ:40eV
FILENAME=hmdb_intermediate.mgf
SEQ=*..*
IONMODE=Positive
ORGANISM=HMDB
NAME=HMDB:HMDB01936-1886 Doxylamine M+H
PI=HMDB
DATACOLLECTOR=HMDB
SMILES=CN(C)CCOC(C)(C1=CC=CC=C1)C1=NC=CC=C1
INCHI=InChI=1S/C17H22N2O/c1-17(20-14-13-19(2)3,15-9-5-4-6-10-15)16-11-7-8-12-18-16/h4-12H,13-14H2,1-3H3
INCHIAUX=N/A
PUBMED=N/A
SUBMITUSER=mwang87
TAGS=
LIBRARYQUALITY=3
SPECTRUMID=CCMSLIB00000426492
SCANS=1464
79.11 13.486 
86.784 15.812 
95.716 100.0 
119.996 10.694 
151.952 9.766 
156.481 10.232 
165.54 13.02 
184.036 13.486 
186.049 12.092 
198.254 14.418 
211.34 9.3 
215.115 53.953 
224.804 12.558 
236.003 9.3 
247.707 12.558 
256.641 11.626 
265.828 9.766 
275.015 11.626 
288.858 8.834 
306.73 11.626 
327.371 19.066 
348.013 9.766 
361.229 9.766 
370.544 12.558 
381.872 11.16 
393.453 13.952 
397.985 9.766 
406.923 11.16 
424.421 9.766 
429.96 9.3 
439.024 13.952 
452.872 8.834 
457.152 9.3 
END IONS

BEGIN IONS
PEPMASS=137.133
CHARGE=1+
MSLEVEL=2
SOURCE_INSTRUMENT=Positive-Quattro_QQQ:25eV
FILENAME=hmdb_intermediate.mgf
SEQ=*..*
IONMODE=Positive
ORGANISM=HMDB
NAME=HMDB:HMDB03375-2275 D-Limonene M+H
PI=HMDB
DATACOLLECTOR=HMDB
SMILES=CC(=C)[C@H]1CCC(C)=CC1
INCHI=InChI=1S/C10H16/c1-8(2)10-6-4-9(3)5-7-10/h4,10H,1,5-7H2,2-3H3/t10-/m1/s1
INCHIAUX=N/A
PUBMED=N/A
SUBMITUSER=mwang87
TAGS=
LIBRARYQUALITY=3
SPECTRUMID=CCMSLIB00000426493
SCANS=1465
41.0 75.163 
54.0 53.959 
67.0 64.438 
80.0 100.0 
94.0 76.091 
END IONS

BEGIN IONS
PEPMASS=159.102
CHARGE=1+
MSLEVEL=2
SOURCE_INSTRUMENT=Negative-Quattro_QQQ:40eV
FILENAME=hmdb_intermediate.mgf
SEQ=*..*
IONMODE=Negative
ORGANISM=HMDB
NAME=HMDB:HMDB00711-995 Hydroxyoctanoic acid M-H
PI=HMDB
DATACOLLECTOR=HMDB
SMILES=CCCCCCC(O)C(O)=O
INCHI=InChI=1S/C8H16O3/c1-2-3-4-5-6-7(9)8(10)11/h7,9H,2-6H2,1H3,(H,10,11)
INCHIAUX=N/A
PUBMED=N/A
SUBMITUSER=mwang87
TAGS=
LIBRARYQUALITY=3
SPECTRUMID=CCMSLIB00000426494
SCANS=1466
43.624 2.714 
45.525 100.0 
55.49 13.925 
74.051 8.772 
113.248 10.307 
159.25 7.346 
END IONS

BEGIN IONS
PEPMASS=151.112
CHARGE=1+
MSLEVEL=2
SOURCE_INSTRUMENT=Positive-Quattro_QQQ:25eV
FILENAME=hmdb_intermediate.mgf
SEQ=*..*
IONMODE=Positive
ORGANISM=HMDB
NAME=HMDB:HMDB01878-1775 Thymol M+H
PI=HMDB
DATACOLLECTOR=HMDB
SMILES=CC(C)C1=C(O)C=C(C)C=C1
INCHI=InChI=1S/C10H14O/c1-7(2)9-5-4-8(3)6-10(9)11/h4-7,11H,1-3H3
INCHIAUX=N/A
PUBMED=N/A
SUBMITUSER=mwang87
TAGS=
LIBRARYQUALITY=3
SPECTRUMID=CCMSLIB00000426495
SCANS=1467
69.131 100.0 
82.36 23.438 
90.099 41.588 
98.586 33.671 
110.693 32.334 
123.674 13.235 
151.259 10.894 
END IONS

BEGIN IONS
PEPMASS=137.133
CHARGE=1+
MSLEVEL=2
SOURCE_INSTRUMENT=Positive-Quattro_QQQ:25eV
FILENAME=hmdb_intermediate.mgf
SEQ=*..*
IONMODE=Positive
ORGANISM=HMDB
NAME=HMDB:HMDB05806-2452 Gamma-terpinene M+H
PI=HMDB
DATACOLLECTOR=HMDB
SMILES=CC(C)C1=CCC(C)=CC1
INCHI=InChI=1S/C10H16/c1-8(2)10-6-4-9(3)5-7-10/h4,7-8H,5-6H2,1-3H3
INCHIAUX=N/A
PUBMED=N/A
SUBMITUSER=mwang87
TAGS=
LIBRARYQUALITY=3
SPECTRUMID=CCMSLIB00000426496
SCANS=1468
41.27 62.435 
54.84 32.137 
66.9 100.0 
80.76 78.474 
END IONS

BEGIN IONS
PEPMASS=103.124
CHARGE=1+
MSLEVEL=2
SOURCE_INSTRUMENT=Positive-Quattro_QQQ:40eV
FILENAME=hmdb_intermediate.mgf
SEQ=*..*
IONMODE=Positive
ORGANISM=HMDB
NAME=HMDB:HMDB02322-2057 Cadaverine M+H
PI=HMDB
DATACOLLECTOR=HMDB
SMILES=NCCCCCN
INCHI=InChI=1S/C5H14N2/c6-4-2-1-3-5-7/h1-7H2
INCHIAUX=N/A
PUBMED=N/A
SUBMITUSER=mwang87
TAGS=
LIBRARYQUALITY=3
SPECTRUMID=CCMSLIB00000426497
SCANS=1469
31.0 5.208 
41.0 100.0 
69.0 4.931 
86.0 13.794 
103.0 5.131 
END IONS

BEGIN IONS
PEPMASS=101.024
CHARGE=1+
MSLEVEL=2
SOURCE_INSTRUMENT=Negative-Quattro_QQQ:25eV
FILENAME=hmdb_intermediate.mgf
SEQ=*..*
IONMODE=Negative
ORGANISM=HMDB
NAME=HMDB:HMDB00005-8 2-Ketobutyric acid M-H
PI=HMDB
DATACOLLECTOR=HMDB
SMILES=CCC(=O)C(O)=O
INCHI=InChI=1S/C4H6O3/c1-2-3(5)4(6)7/h2H2,1H3,(H,6,7)
INCHIAUX=N/A
PUBMED=N/A
SUBMITUSER=mwang87
TAGS=
LIBRARYQUALITY=3
SPECTRUMID=CCMSLIB00000426498
SCANS=1470
57.462 51.62 
101.097 100.0 
END IONS

BEGIN IONS
PEPMASS=115.112
CHARGE=1+
MSLEVEL=2
SOURCE_INSTRUMENT=Positive-Quattro_QQQ:25eV
FILENAME=hmdb_intermediate.mgf
SEQ=*..*
IONMODE=Positive
ORGANISM=HMDB
NAME=HMDB:HMDB04814-2407 4-Heptanone M+H
PI=HMDB
DATACOLLECTOR=HMDB
SMILES=CCCC(=O)CCC
INCHI=InChI=1S/C7H14O/c1-3-5-7(8)6-4-2/h3-6H2,1-2H3
INCHIAUX=N/A
PUBMED=N/A
SUBMITUSER=mwang87
TAGS=
LIBRARYQUALITY=3
SPECTRUMID=CCMSLIB00000426499
SCANS=1471
31.26 40.481 
41.21 24.42 
55.11 100.0 
END IONS

BEGIN IONS
PEPMASS=61.029
CHARGE=1+
MSLEVEL=2
SOURCE_INSTRUMENT=Positive-Quattro_QQQ:40eV
FILENAME=hmdb_intermediate.mgf
SEQ=*..*
IONMODE=Positive
ORGANISM=HMDB
NAME=HMDB:HMDB00042-71 Acetic acid M+H
PI=HMDB
DATACOLLECTOR=HMDB
SMILES=CC(O)=O
INCHI=InChI=1S/C2H4O2/c1-2(3)4/h1H3,(H,3,4)
INCHIAUX=N/A
PUBMED=N/A
SUBMITUSER=mwang87
TAGS=
LIBRARYQUALITY=3
SPECTRUMID=CCMSLIB00000426500
SCANS=1472
44.284 100.0 
44.658 55.854 
60.974 46.435 
68.447 17.419 
END IONS

BEGIN IONS
PEPMASS=131.071
CHARGE=1+
MSLEVEL=2
SOURCE_INSTRUMENT=Positive-Quattro_QQQ:40eV
FILENAME=hmdb_intermediate.mgf
SEQ=*..*
IONMODE=Positive
ORGANISM=HMDB
NAME=HMDB:HMDB00695-968 Ketoleucine M+H
PI=HMDB
DATACOLLECTOR=HMDB
SMILES=CC(C)CC(=O)C(O)=O
INCHI=InChI=1S/C6H10O3/c1-4(2)3-5(7)6(8)9/h4H,3H2,1-2H3,(H,8,9)
INCHIAUX=N/A
PUBMED=N/A
SUBMITUSER=mwang87
TAGS=
LIBRARYQUALITY=3
SPECTRUMID=CCMSLIB00000426501
SCANS=1473
69.74 87.495 
83.83 23.895 
98.54 100.0 
124.53 31.654 
END IONS

BEGIN IONS
PEPMASS=271.181
CHARGE=1+
MSLEVEL=2
SOURCE_INSTRUMENT=Positive-Quattro_QQQ:10eV
FILENAME=hmdb_intermediate.mgf
SEQ=*..*
IONMODE=Positive
ORGANISM=HMDB
NAME=HMDB:HMDB01936-1884 Doxylamine M+H
PI=HMDB
DATACOLLECTOR=HMDB
SMILES=CN(C)CCOC(C)(C1=CC=CC=C1)C1=NC=CC=C1
INCHI=InChI=1S/C17H22N2O/c1-17(20-14-13-19(2)3,15-9-5-4-6-10-15)16-11-7-8-12-18-16/h4-12H,13-14H2,1-3H3
INCHIAUX=N/A
PUBMED=N/A
SUBMITUSER=mwang87
TAGS=
LIBRARYQUALITY=3
SPECTRUMID=CCMSLIB00000426502
SCANS=1474
68.418 10.264 
102.635 8.926 
107.164 10.264 
116.347 14.73 
129.935 85.714 
139.119 11.159 
157.236 9.374 
168.937 10.712 
184.916 100.0 
198.128 10.264 
221.029 9.374 
229.963 11.606 
239.779 8.926 
248.587 9.821 
261.549 15.624 
273.253 15.624 
288.229 13.839 
302.954 9.821 
307.485 12.054 
321.707 10.712 
334.923 28.125 
348.264 9.374 
357.579 8.926 
366.642 11.606 
375.83 10.712 
389.048 78.569 
398.74 8.926 
412.713 14.73 
416.616 10.264 
433.988 10.264 
443.934 9.821 
453.124 13.839 
END IONS

BEGIN IONS
PEPMASS=81.9725
CHARGE=1+
MSLEVEL=2
SOURCE_INSTRUMENT=Positive-Quattro_QQQ:10eV
FILENAME=hmdb_intermediate.mgf
SEQ=*..*
IONMODE=Positive
ORGANISM=HMDB
NAME=HMDB:HMDB01033-1393 Hydrogen sulfite M+H
PI=HMDB
DATACOLLECTOR=HMDB
SMILES=OS([O-])=O
INCHI=InChI=1S/H2O3S/c1-4(2)3/h(H2,1,2,3)/p-1
INCHIAUX=N/A
PUBMED=N/A
SUBMITUSER=mwang87
TAGS=
LIBRARYQUALITY=3
SPECTRUMID=CCMSLIB00000426503
SCANS=1475
41.0 26.09 
54.0 8.667 
55.0 11.436 
66.0 8.344 
81.0 100.0 
END IONS

BEGIN IONS
PEPMASS=400.343
CHARGE=1+
MSLEVEL=2
SOURCE_INSTRUMENT=Positive-Quattro_QQQ:10eV
FILENAME=hmdb_intermediate.mgf
SEQ=*..*
IONMODE=Positive
ORGANISM=HMDB
NAME=HMDB:HMDB00222-364 L-Palmitoylcarnitine M+H
PI=HMDB
DATACOLLECTOR=HMDB
SMILES=CCCCCCCCCCCCCCCC(=O)O[C@H](CC([O-])=O)C[N+](C)(C)C
INCHI=InChI=1S/C23H45NO4/c1-5-6-7-8-9-10-11-12-13-14-15-16-17-18-23(27)28-21(19-22(25)26)20-24(2,3)4/h21H,5-20H2,1-4H3/t21-/m1/s1
INCHIAUX=N/A
PUBMED=N/A
SUBMITUSER=mwang87
TAGS=
LIBRARYQUALITY=3
SPECTRUMID=CCMSLIB00000426504
SCANS=1476
60.421 2.284 
85.214 12.413 
239.155 1.3 
341.23 4.327 
400.3 100.0 
END IONS

BEGIN IONS
PEPMASS=104.071
CHARGE=1+
MSLEVEL=2
SOURCE_INSTRUMENT=Positive-Quattro_QQQ:40eV
FILENAME=hmdb_intermediate.mgf
SEQ=*..*
IONMODE=Positive
ORGANISM=HMDB
NAME=HMDB:HMDB00650-887 D-Alpha-aminobutyric acid M+H
PI=HMDB
DATACOLLECTOR=HMDB
SMILES=CC[C@@H](N)C(O)=O
INCHI=InChI=1S/C4H9NO2/c1-2-3(5)4(6)7/h3H,2,5H2,1H3,(H,6,7)/t3-/m1/s1
INCHIAUX=N/A
PUBMED=N/A
SUBMITUSER=mwang87
TAGS=
LIBRARYQUALITY=3
SPECTRUMID=CCMSLIB00000426505
SCANS=1477
43.159 100.0 
45.243 38.624 
57.993 86.243 
103.995 19.974 
END IONS

BEGIN IONS
PEPMASS=61.029
CHARGE=1+
MSLEVEL=2
SOURCE_INSTRUMENT=Positive-Quattro_QQQ:10eV
FILENAME=hmdb_intermediate.mgf
SEQ=*..*
IONMODE=Positive
ORGANISM=HMDB
NAME=HMDB:HMDB00042-69 Acetic acid M+H
PI=HMDB
DATACOLLECTOR=HMDB
SMILES=CC(O)=O
INCHI=InChI=1S/C2H4O2/c1-2(3)4/h1H3,(H,3,4)
INCHIAUX=N/A
PUBMED=N/A
SUBMITUSER=mwang87
TAGS=
LIBRARYQUALITY=3
SPECTRUMID=CCMSLIB00000426506
SCANS=1478
44.409 34.026 
44.782 17.807 
61.348 100.0 
END IONS

BEGIN IONS
PEPMASS=62.0606
CHARGE=1+
MSLEVEL=2
SOURCE_INSTRUMENT=Positive-Quattro_QQQ:40eV
FILENAME=hmdb_intermediate.mgf
SEQ=*..*
IONMODE=Positive
ORGANISM=HMDB
NAME=HMDB:HMDB00149-226 Ethanolamine M+H
PI=HMDB
DATACOLLECTOR=HMDB
SMILES=NCCO
INCHI=InChI=1S/C2H7NO/c3-1-2-4/h4H,1-3H2
INCHIAUX=N/A
PUBMED=N/A
SUBMITUSER=mwang87
TAGS=
LIBRARYQUALITY=3
SPECTRUMID=CCMSLIB00000426507
SCANS=1479
27.0 17.157 
44.0 20.419 
45.0 12.084 
62.0 100.0 
END IONS

BEGIN IONS
PEPMASS=132.15
CHARGE=1+
MSLEVEL=2
SOURCE_INSTRUMENT=Positive-Quattro_QQQ:25eV
FILENAME=hmdb_intermediate.mgf
SEQ=*..*
IONMODE=Positive
ORGANISM=HMDB
NAME=HMDB:HMDB11634-2494 Norspermidine M+H
PI=HMDB
DATACOLLECTOR=HMDB
SMILES=NCCCNCCCN
INCHI=InChI=1S/C6H17N3/c7-3-1-5-9-6-2-4-8/h9H,1-8H2
INCHIAUX=N/A
PUBMED=N/A
SUBMITUSER=mwang87
TAGS=
LIBRARYQUALITY=3
SPECTRUMID=CCMSLIB00000426508
SCANS=1480
58.11 61.98 
97.96 40.41 
114.93 21.636 
131.75 100.0 
END IONS

BEGIN IONS
PEPMASS=118.066
CHARGE=1+
MSLEVEL=2
SOURCE_INSTRUMENT=Positive-Quattro_QQQ:25eV
FILENAME=hmdb_intermediate.mgf
SEQ=*..*
IONMODE=Positive
ORGANISM=HMDB
NAME=HMDB:HMDB00738-1048 Indole M+H
PI=HMDB
DATACOLLECTOR=HMDB
SMILES=N1C=CC2=C1C=CC=C2
INCHI=InChI=1S/C8H7N/c1-2-4-8-7(3-1)5-6-9-8/h1-6,9H
INCHIAUX=N/A
PUBMED=N/A
SUBMITUSER=mwang87
TAGS=
LIBRARYQUALITY=3
SPECTRUMID=CCMSLIB00000426509
SCANS=1481
65.159 14.837 
91.018 100.0 
117.299 13.415 
END IONS

BEGIN IONS
PEPMASS=343.124
CHARGE=1+
MSLEVEL=2
SOURCE_INSTRUMENT=Positive-Quattro_QQQ:10eV
FILENAME=hmdb_intermediate.mgf
SEQ=*..*
IONMODE=Positive
ORGANISM=HMDB
NAME=HMDB:HMDB00163-257 D-Maltose M+H
PI=HMDB
DATACOLLECTOR=HMDB
SMILES=OC[C@H]1O[C@H](O[C@H]2[C@H](O)[C@H](O)[C@@H](O)O[C@@H]2CO)[C@H](O)[C@@H](O)[C@@H]1O
INCHI=InChI=1S/C12H22O11/c13-1-3-5(15)6(16)9(19)12(22-3)23-10-4(2-14)21-11(20)8(18)7(10)17/h3-20H,1-2H2/t3-,4-,5-,6+,7-,8+,9-,10-,11+,12-/m1/s1
INCHIAUX=N/A
PUBMED=N/A
SUBMITUSER=mwang87
TAGS=
LIBRARYQUALITY=3
SPECTRUMID=CCMSLIB00000426510
SCANS=1482
81.77 23.708 
144.38 21.104 
162.09 34.448 
251.73 33.554 
260.7 22.239 
268.81 25.991 
282.75 37.515 
312.95 39.907 
323.84 26.703 
342.48 100.0 
END IONS

BEGIN IONS
PEPMASS=259.093
CHARGE=1+
MSLEVEL=2
SOURCE_INSTRUMENT=Positive-Quattro_QQQ:25eV
FILENAME=hmdb_intermediate.mgf
SEQ=*..*
IONMODE=Positive
ORGANISM=HMDB
NAME=HMDB:HMDB00884-1248 Ribothymidine M+H
PI=HMDB
DATACOLLECTOR=HMDB
SMILES=CC1=CN([C@@H]2O[C@H](CO)[C@@H](O)[C@H]2O)C(=O)NC1=O
INCHI=InChI=1S/C10H14N2O6/c1-4-2-12(10(17)11-8(4)16)9-7(15)6(14)5(3-13)18-9/h2,5-7,9,13-15H,3H2,1H3,(H,11,16,17)/t5-,6-,7-,9-/m1/s1
INCHIAUX=N/A
PUBMED=N/A
SUBMITUSER=mwang87
TAGS=
LIBRARYQUALITY=3
SPECTRUMID=CCMSLIB00000426511
SCANS=1483
57.216 5.464 
73.118 5.191 
84.149 3.245 
85.133 3.825 
97.046 2.357 
109.928 9.426 
126.995 100.0 
END IONS

BEGIN IONS
PEPMASS=138.055
CHARGE=1+
MSLEVEL=2
SOURCE_INSTRUMENT=Positive-Quattro_QQQ:25eV
FILENAME=hmdb_intermediate.mgf
SEQ=*..*
IONMODE=Positive
ORGANISM=HMDB
NAME=HMDB:HMDB01538-1635 3-Pyridylacetic acid M+H
PI=HMDB
DATACOLLECTOR=HMDB
SMILES=OC(=O)CC1=CN=CC=C1
INCHI=InChI=1S/C7H7NO2/c9-7(10)4-6-2-1-3-8-5-6/h1-3,5H,4H2,(H,9,10)
INCHIAUX=N/A
PUBMED=N/A
SUBMITUSER=mwang87
TAGS=
LIBRARYQUALITY=3
SPECTRUMID=CCMSLIB00000426512
SCANS=1484
66.0 4.304 
93.0 100.0 
120.0 7.013 
138.0 5.825 
END IONS

BEGIN IONS
PEPMASS=241.253
CHARGE=1+
MSLEVEL=2
SOURCE_INSTRUMENT=Negative-Quattro_QQQ:25eV
FILENAME=hmdb_intermediate.mgf
SEQ=*..*
IONMODE=Negative
ORGANISM=HMDB
NAME=HMDB:HMDB03424-2305 1-Hexadecanol M-H
PI=HMDB
DATACOLLECTOR=HMDB
SMILES=CCCCCCCCCCCCCCCCO
INCHI=InChI=1S/C16H34O/c1-2-3-4-5-6-7-8-9-10-11-12-13-14-15-16-17/h17H,2-16H2,1H3
INCHIAUX=N/A
PUBMED=N/A
SUBMITUSER=mwang87
TAGS=
LIBRARYQUALITY=3
SPECTRUMID=CCMSLIB00000426513
SCANS=1485
154.0 100.0 
155.0 20.373 
END IONS

BEGIN IONS
PEPMASS=300.29
CHARGE=1+
MSLEVEL=2
SOURCE_INSTRUMENT=Positive-Quattro_QQQ:10eV
FILENAME=hmdb_intermediate.mgf
SEQ=*..*
IONMODE=Positive
ORGANISM=HMDB
NAME=HMDB:HMDB00252-433 Sphingosine M+H
PI=HMDB
DATACOLLECTOR=HMDB
SMILES=CCCCCCCCCCCCC\C=C\C(O)C(N)CO
INCHI=InChI=1S/C18H37NO2/c1-2-3-4-5-6-7-8-9-10-11-12-13-14-15-18(21)17(19)16-20/h14-15,17-18,20-21H,2-13,16,19H2,1H3/b15-14+
INCHIAUX=N/A
PUBMED=N/A
SUBMITUSER=mwang87
TAGS=
LIBRARYQUALITY=3
SPECTRUMID=CCMSLIB00000426514
SCANS=1486
210.0 2.293 
252.0 1.288 
282.0 100.0 
299.0 11.881 
END IONS

BEGIN IONS
PEPMASS=124.04
CHARGE=1+
MSLEVEL=2
SOURCE_INSTRUMENT=Positive-Quattro_QQQ:10eV
FILENAME=hmdb_intermediate.mgf
SEQ=*..*
IONMODE=Positive
ORGANISM=HMDB
NAME=HMDB:HMDB02243-2043 Picolinic acid M+H
PI=HMDB
DATACOLLECTOR=HMDB
SMILES=OC(=O)C1=CC=CC=N1
INCHI=InChI=1S/C6H5NO2/c8-6(9)5-3-1-2-4-7-5/h1-4H,(H,8,9)
INCHIAUX=N/A
PUBMED=N/A
SUBMITUSER=mwang87
TAGS=
LIBRARYQUALITY=3
SPECTRUMID=CCMSLIB00000426515
SCANS=1487
77.96 72.156 
105.87 100.0 
123.85 67.919 
END IONS

BEGIN IONS
PEPMASS=93.0552
CHARGE=1+
MSLEVEL=2
SOURCE_INSTRUMENT=Positive-Quattro_QQQ:40eV
FILENAME=hmdb_intermediate.mgf
SEQ=*..*
IONMODE=Positive
ORGANISM=HMDB
NAME=HMDB:HMDB00131-202 Glycerol M+H
PI=HMDB
DATACOLLECTOR=HMDB
SMILES=OCC(O)CO
INCHI=InChI=1S/C3H8O3/c4-1-3(6)2-5/h3-6H,1-2H2
INCHIAUX=N/A
PUBMED=N/A
SUBMITUSER=mwang87
TAGS=
LIBRARYQUALITY=3
SPECTRUMID=CCMSLIB00000426516
SCANS=1488
53.032 100.0 
66.476 26.092 
99.836 28.351 
106.683 40.422 
END IONS

BEGIN IONS
PEPMASS=56.9673
CHARGE=1+
MSLEVEL=2
SOURCE_INSTRUMENT=Negative-Quattro_QQQ:10eV
FILENAME=hmdb_intermediate.mgf
SEQ=*..*
IONMODE=Negative
ORGANISM=HMDB
NAME=HMDB:HMDB01453-1583 Thiocyanate M-H
PI=HMDB
DATACOLLECTOR=HMDB
SMILES=[S-]C#N
INCHI=InChI=1S/CHNS/c2-1-3/h3H/p-1
INCHIAUX=N/A
PUBMED=N/A
SUBMITUSER=mwang87
TAGS=
LIBRARYQUALITY=3
SPECTRUMID=CCMSLIB00000426517
SCANS=1489
57.0 100.0 
END IONS

BEGIN IONS
PEPMASS=166.054
CHARGE=1+
MSLEVEL=2
SOURCE_INSTRUMENT=Positive-Quattro_QQQ:40eV
FILENAME=hmdb_intermediate.mgf
SEQ=*..*
IONMODE=Positive
ORGANISM=HMDB
NAME=HMDB:HMDB02005-1943 Methionine sulfoxide M+H
PI=HMDB
DATACOLLECTOR=HMDB
SMILES=CS(=O)CCC(N)C(O)=O
INCHI=InChI=1S/C5H11NO3S/c1-10(9)3-2-4(6)5(7)8/h4H,2-3,6H2,1H3,(H,7,8)
INCHIAUX=N/A
PUBMED=N/A
SUBMITUSER=mwang87
TAGS=
LIBRARYQUALITY=3
SPECTRUMID=CCMSLIB00000426518
SCANS=1490
63.0 5.89 
74.0 100.0 
75.0 19.085 
85.0 3.212 
102.0 5.382 
166.0 2.545 
END IONS

BEGIN IONS
PEPMASS=271.17
CHARGE=1+
MSLEVEL=2
SOURCE_INSTRUMENT=Positive-Quattro_QQQ:25eV
FILENAME=hmdb_intermediate.mgf
SEQ=*..*
IONMODE=Positive
ORGANISM=HMDB
NAME=HMDB:HMDB00145-219 Estrone M+H
PI=HMDB
DATACOLLECTOR=HMDB
SMILES=[H][C@@]12CCC(=O)[C@@]1(C)CC[C@]1([H])C3=C(CC[C@@]21[H])C=C(O)C=C3
INCHI=InChI=1S/C18H22O2/c1-18-9-8-14-13-5-3-12(19)10-11(13)2-4-15(14)16(18)6-7-17(18)20/h3,5,10,14-16,19H,2,4,6-9H2,1H3/t14-,15-,16+,18+/m1/s1
INCHIAUX=N/A
PUBMED=N/A
SUBMITUSER=mwang87
TAGS=
LIBRARYQUALITY=3
SPECTRUMID=CCMSLIB00000426519
SCANS=1491
57.0 31.839 
69.0 91.407 
81.0 100.0 
93.0 57.059 
95.0 70.839 
107.0 62.971 
119.0 55.032 
131.0 51.112 
135.0 40.433 
145.0 74.826 
159.0 93.157 
173.0 46.217 
187.0 57.411 
201.0 41.362 
215.0 44.77 
271.0 30.688 
END IONS

BEGIN IONS
PEPMASS=143.046
CHARGE=1+
MSLEVEL=2
SOURCE_INSTRUMENT=Positive-Quattro_QQQ:25eV
FILENAME=hmdb_intermediate.mgf
SEQ=*..*
IONMODE=Positive
ORGANISM=HMDB
NAME=HMDB:HMDB00469-684 5-Hydroxymethyluracil M+H
PI=HMDB
DATACOLLECTOR=HMDB
SMILES=OCC1=CNC(=O)NC1=O
INCHI=InChI=1S/C5H6N2O3/c8-2-3-1-6-5(10)7-4(3)9/h1,8H,2H2,(H2,6,7,9,10)
INCHIAUX=N/A
PUBMED=N/A
SUBMITUSER=mwang87
TAGS=
LIBRARYQUALITY=3
SPECTRUMID=CCMSLIB00000426520
SCANS=1492
54.265 54.93 
55.295 47.183 
70.098 14.437 
82.067 100.0 
124.962 9.331 
END IONS

BEGIN IONS
PEPMASS=287.113
CHARGE=1+
MSLEVEL=2
SOURCE_INSTRUMENT=Positive-Quattro_QQQ:10eV
FILENAME=hmdb_intermediate.mgf
SEQ=*..*
IONMODE=Positive
ORGANISM=HMDB
NAME=HMDB:HMDB03546-2325 Salicin M+H
PI=HMDB
DATACOLLECTOR=HMDB
SMILES=OC[C@H]1O[C@@H](OC2=C(CO)C=CC=C2)[C@H](O)[C@@H](O)[C@@H]1O
INCHI=InChI=1S/C13H18O7/c14-5-7-3-1-2-4-8(7)19-13-12(18)11(17)10(16)9(6-15)20-13/h1-4,9-18H,5-6H2/t9-,10-,11+,12-,13-/m1/s1
INCHIAUX=N/A
PUBMED=N/A
SUBMITUSER=mwang87
TAGS=
LIBRARYQUALITY=3
SPECTRUMID=CCMSLIB00000426521
SCANS=1493
106.82 100.0 
286.98 42.299 
END IONS

BEGIN IONS
PEPMASS=134.045
CHARGE=1+
MSLEVEL=2
SOURCE_INSTRUMENT=Positive-Quattro_QQQ:25eV
FILENAME=hmdb_intermediate.mgf
SEQ=*..*
IONMODE=Positive
ORGANISM=HMDB
NAME=HMDB:HMDB00191-305 L-Aspartic acid M+H
PI=HMDB
DATACOLLECTOR=HMDB
SMILES=N[C@@H](CC(O)=O)C(O)=O
INCHI=InChI=1S/C4H7NO4/c5-2(4(8)9)1-3(6)7/h2H,1,5H2,(H,6,7)(H,8,9)/t2-/m0/s1
INCHIAUX=N/A
PUBMED=N/A
SUBMITUSER=mwang87
TAGS=
LIBRARYQUALITY=3
SPECTRUMID=CCMSLIB00000426522
SCANS=1494
43.264 30.288 
46.237 27.404 
56.124 7.252 
74.02 100.0 
87.983 15.224 
133.923 3.446 
END IONS

BEGIN IONS
PEPMASS=505.177
CHARGE=1+
MSLEVEL=2
SOURCE_INSTRUMENT=Positive-Quattro_QQQ:25eV
FILENAME=hmdb_intermediate.mgf
SEQ=*..*
IONMODE=Positive
ORGANISM=HMDB
NAME=HMDB:HMDB01262-1495 Maltotriose M+H
PI=HMDB
DATACOLLECTOR=HMDB
SMILES=OC[C@H]1O[C@H](O[C@H]2[C@H](O)[C@@H](O)[C@@H](O[C@H]3[C@H](O)[C@@H](O)C(O)O[C@@H]3CO)O[C@@H]2CO)[C@H](O)[C@@H](O)[C@@H]1O
INCHI=InChI=1S/C18H32O16/c19-1-4-7(22)8(23)12(27)17(31-4)34-15-6(3-21)32-18(13(28)10(15)25)33-14-5(2-20)30-16(29)11(26)9(14)24/h4-29H,1-3H2/t4-,5-,6-,7-,8+,9-,10-,11-,12-,13-,14-,15-,16?,17-,18-/m1/s1
INCHIAUX=N/A
PUBMED=N/A
SUBMITUSER=mwang87
TAGS=
LIBRARYQUALITY=3
SPECTRUMID=CCMSLIB00000426523
SCANS=1495
73.0 3.04 
84.0 15.147 
85.0 76.808 
97.0 8.937 
109.0 4.165 
127.0 23.916 
144.0 4.691 
145.0 81.243 
163.0 100.0 
325.0 3.912 
END IONS

BEGIN IONS
PEPMASS=203.224
CHARGE=1+
MSLEVEL=2
SOURCE_INSTRUMENT=Positive-Quattro_QQQ:25eV
FILENAME=hmdb_intermediate.mgf
SEQ=*..*
IONMODE=Positive
ORGANISM=HMDB
NAME=HMDB:HMDB01256-1488 Spermine M+H
PI=HMDB
DATACOLLECTOR=HMDB
SMILES=NCCCNCCCCNCCCN
INCHI=InChI=1S/C10H26N4/c11-5-3-9-13-7-1-2-8-14-10-4-6-12/h13-14H,1-12H2
INCHIAUX=N/A
PUBMED=N/A
SUBMITUSER=mwang87
TAGS=
LIBRARYQUALITY=3
SPECTRUMID=CCMSLIB00000426524
SCANS=1496
58.119 7.328 
72.076 5.401 
84.414 21.619 
84.539 16.99 
112.081 100.0 
128.906 24.757 
END IONS

BEGIN IONS
PEPMASS=145.05
CHARGE=1+
MSLEVEL=2
SOURCE_INSTRUMENT=Negative-Quattro_QQQ:10eV
FILENAME=hmdb_intermediate.mgf
SEQ=*..*
IONMODE=Negative
ORGANISM=HMDB
NAME=HMDB:HMDB00448-653 Adipic acid M-H
PI=HMDB
DATACOLLECTOR=HMDB
SMILES=OC(=O)CCCCC(O)=O
INCHI=InChI=1S/C6H10O4/c7-5(8)3-1-2-4-6(9)10/h1-4H2,(H,7,8)(H,9,10)
INCHIAUX=N/A
PUBMED=N/A
SUBMITUSER=mwang87
TAGS=
LIBRARYQUALITY=3
SPECTRUMID=CCMSLIB00000426525
SCANS=1497
83.108 62.676 
101.068 49.648 
126.999 22.535 
144.972 100.0 
END IONS

BEGIN IONS
PEPMASS=127.051
CHARGE=1+
MSLEVEL=2
SOURCE_INSTRUMENT=Positive-Quattro_QQQ:25eV
FILENAME=hmdb_intermediate.mgf
SEQ=*..*
IONMODE=Positive
ORGANISM=HMDB
NAME=HMDB:HMDB00262-455 Thymine M+H
PI=HMDB
DATACOLLECTOR=HMDB
SMILES=CC1=CNC(=O)NC1=O
INCHI=InChI=1S/C5H6N2O2/c1-3-2-6-5(9)7-4(3)8/h2H,1H3,(H2,6,7,8,9)
INCHIAUX=N/A
PUBMED=N/A
SUBMITUSER=mwang87
TAGS=
LIBRARYQUALITY=3
SPECTRUMID=CCMSLIB00000426526
SCANS=1498
84.076 4.938 
109.772 15.25 
126.961 100.0 
END IONS

BEGIN IONS
PEPMASS=149.009
CHARGE=1+
MSLEVEL=2
SOURCE_INSTRUMENT=Negative-Quattro_QQQ:10eV
FILENAME=hmdb_intermediate.mgf
SEQ=*..*
IONMODE=Negative
ORGANISM=HMDB
NAME=HMDB:HMDB00956-1354 Tartaric acid M-H
PI=HMDB
DATACOLLECTOR=HMDB
SMILES=O[C@H]([C@@H](O)C(O)=O)C(O)=O
INCHI=InChI=1S/C4H6O6/c5-1(3(7)8)2(6)4(9)10/h1-2,5-6H,(H,7,8)(H,9,10)/t1-,2-/m1/s1
INCHIAUX=N/A
PUBMED=N/A
SUBMITUSER=mwang87
TAGS=
LIBRARYQUALITY=3
SPECTRUMID=CCMSLIB00000426527
SCANS=1499
43.629 8.416 
59.468 11.262 
73.346 22.03 
75.302 3.496 
87.29 60.644 
103.216 15.285 
131.141 4.332 
149.104 100.0 
END IONS

BEGIN IONS
PEPMASS=177.103
CHARGE=1+
MSLEVEL=2
SOURCE_INSTRUMENT=Positive-Quattro_QQQ:25eV
FILENAME=hmdb_intermediate.mgf
SEQ=*..*
IONMODE=Positive
ORGANISM=HMDB
NAME=HMDB:HMDB01046-1398 Cotinine M+H
PI=HMDB
DATACOLLECTOR=HMDB
SMILES=CN1C(CCC1=O)C1=CN=CC=C1
INCHI=InChI=1S/C10H12N2O/c1-12-9(4-5-10(12)13)8-3-2-6-11-7-8/h2-3,6-7,9H,4-5H2,1H3
INCHIAUX=N/A
PUBMED=N/A
SUBMITUSER=mwang87
TAGS=
LIBRARYQUALITY=3
SPECTRUMID=CCMSLIB00000426528
SCANS=1500
41.0 2.883 
70.0 9.109 
80.0 100.0 
98.0 41.099 
118.0 3.69 
146.0 3.524 
177.0 7.592 
END IONS

BEGIN IONS
PEPMASS=115.076
CHARGE=1+
MSLEVEL=2
SOURCE_INSTRUMENT=Positive-Quattro_QQQ:25eV
FILENAME=hmdb_intermediate.mgf
SEQ=*..*
IONMODE=Positive
ORGANISM=HMDB
NAME=HMDB:HMDB00453-663 Delta-Hexanolactone M+H
PI=HMDB
DATACOLLECTOR=HMDB
SMILES=CC1CCCC(=O)O1
INCHI=InChI=1S/C6H10O2/c1-5-3-2-4-6(7)8-5/h5H,2-4H2,1H3
INCHIAUX=N/A
PUBMED=N/A
SUBMITUSER=mwang87
TAGS=
LIBRARYQUALITY=3
SPECTRUMID=CCMSLIB00000426529
SCANS=1501
55.125 40.081 
69.399 100.0 
END IONS

BEGIN IONS
PEPMASS=253.094
CHARGE=1+
MSLEVEL=2
SOURCE_INSTRUMENT=Positive-Quattro_QQQ:25eV
FILENAME=hmdb_intermediate.mgf
SEQ=*..*
IONMODE=Positive
ORGANISM=HMDB
NAME=HMDB:HMDB00071-115 Deoxyinosine M+H
PI=HMDB
DATACOLLECTOR=HMDB
SMILES=OC[C@H]1O[C@H](C[C@@H]1O)N1C=NC2=C1N=CN=C2O
INCHI=InChI=1S/C10H12N4O4/c15-2-6-5(16)1-7(18-6)14-4-13-8-9(14)11-3-12-10(8)17/h3-7,15-16H,1-2H2,(H,11,12,17)/t5-,6+,7+/m0/s1
INCHIAUX=N/A
PUBMED=N/A
SUBMITUSER=mwang87
TAGS=
LIBRARYQUALITY=3
SPECTRUMID=CCMSLIB00000426530
SCANS=1502
43.626 2.834 
73.35 5.28 
99.248 3.882 
117.192 5.202 
137.112 100.0 
END IONS

BEGIN IONS
PEPMASS=228.098
CHARGE=1+
MSLEVEL=2
SOURCE_INSTRUMENT=Positive-Quattro_QQQ:25eV
FILENAME=hmdb_intermediate.mgf
SEQ=*..*
IONMODE=Positive
ORGANISM=HMDB
NAME=HMDB:HMDB00014-23 Deoxycytidine M+H
PI=HMDB
DATACOLLECTOR=HMDB
SMILES=NC1=NC(=O)N(C=C1)[C@H]1C[C@H](O)[C@@H](CO)O1
INCHI=InChI=1S/C9H13N3O4/c10-7-1-2-12(9(15)11-7)8-3-5(14)6(4-13)16-8/h1-2,5-6,8,13-14H,3-4H2,(H2,10,11,15)/t5-,6+,8+/m0/s1
INCHIAUX=N/A
PUBMED=N/A
SUBMITUSER=mwang87
TAGS=
LIBRARYQUALITY=3
SPECTRUMID=CCMSLIB00000426531
SCANS=1503
73.131 5.037 
94.967 4.779 
112.019 100.0 
117.008 3.971 
END IONS

BEGIN IONS
PEPMASS=565.047
CHARGE=1+
MSLEVEL=2
SOURCE_INSTRUMENT=Negative-Quattro_QQQ:40eV
FILENAME=hmdb_intermediate.mgf
SEQ=*..*
IONMODE=Negative
ORGANISM=HMDB
NAME=HMDB:HMDB00286-485 Uridine diphosphate glucose M-H
PI=HMDB
DATACOLLECTOR=HMDB
SMILES=OC[C@@H]1OC(OP(O)(=O)OP(O)(=O)OC[C@@H]2O[C@@H]([C@@H](O)[C@H]2O)N2C=CC(=O)NC2=O)[C@@H](O)[C@H](O)[C@H]1O
INCHI=InChI=1S/C15H24N2O17P2/c18-3-5-8(20)10(22)12(24)14(32-5)33-36(28,29)34-35(26,27)30-4-6-9(21)11(23)13(31-6)17-2-1-7(19)16-15(17)25/h1-2,5-6,8-14,18,20-24H,3-4H2,(H,26,27)(H,28,29)(H,16,19,25)/t5-,6-,8-,9-,10+,11-,12-,13-,14?/m0/s1
INCHIAUX=N/A
PUBMED=N/A
SUBMITUSER=mwang87
TAGS=
LIBRARYQUALITY=3
SPECTRUMID=CCMSLIB00000426532
SCANS=1504
64.424 79.5 
72.518 82.913 
84.407 86.325 
144.236 86.325 
158.403 72.651 
178.517 100.0 
187.246 82.913 
236.966 89.762 
254.932 72.651 
266.952 86.325 
313.643 72.651 
327.057 72.651 
414.252 76.064 
418.682 93.174 
449.311 72.651 
460.956 79.5 
472.6 82.913 
538.421 89.762 
549.434 89.762 
561.08 72.651 
573.866 100.0 
END IONS

BEGIN IONS
PEPMASS=111.008
CHARGE=1+
MSLEVEL=2
SOURCE_INSTRUMENT=Negative-Quattro_QQQ:40eV
FILENAME=hmdb_intermediate.mgf
SEQ=*..*
IONMODE=Negative
ORGANISM=HMDB
NAME=HMDB:HMDB00617-833 2-Furoic acid M-H
PI=HMDB
DATACOLLECTOR=HMDB
SMILES=OC(=O)C1=CC=CO1
INCHI=InChI=1S/C5H4O3/c6-5(7)4-2-1-3-8-4/h1-3H,(H,6,7)
INCHIAUX=N/A
PUBMED=N/A
SUBMITUSER=mwang87
TAGS=
LIBRARYQUALITY=3
SPECTRUMID=CCMSLIB00000426533
SCANS=1505
41.243 70.085 
49.163 96.581 
67.011 100.0 
110.992 14.316 
END IONS

BEGIN IONS
PEPMASS=159.102
CHARGE=1+
MSLEVEL=2
SOURCE_INSTRUMENT=Negative-Quattro_QQQ:10eV
FILENAME=hmdb_intermediate.mgf
SEQ=*..*
IONMODE=Negative
ORGANISM=HMDB
NAME=HMDB:HMDB00711-993 Hydroxyoctanoic acid M-H
PI=HMDB
DATACOLLECTOR=HMDB
SMILES=CCCCCCC(O)C(O)=O
INCHI=InChI=1S/C8H16O3/c1-2-3-4-5-6-7(9)8(10)11/h7,9H,2-6H2,1H3,(H,10,11)
INCHIAUX=N/A
PUBMED=N/A
SUBMITUSER=mwang87
TAGS=
LIBRARYQUALITY=3
SPECTRUMID=CCMSLIB00000426534
SCANS=1506
45.595 6.291 
113.279 42.763 
159.203 100.0 
END IONS

BEGIN IONS
PEPMASS=206.045
CHARGE=1+
MSLEVEL=2
SOURCE_INSTRUMENT=Positive-Quattro_QQQ:25eV
FILENAME=hmdb_intermediate.mgf
SEQ=*..*
IONMODE=Positive
ORGANISM=HMDB
NAME=HMDB:HMDB00881-1242 Xanthurenic acid M+H
PI=HMDB
DATACOLLECTOR=HMDB
SMILES=OC(=O)C1=NC2=C(O)C=CC=C2C(O)=C1
INCHI=InChI=1S/C10H7NO4/c12-7-3-1-2-5-8(13)4-6(10(14)15)11-9(5)7/h1-4,12H,(H,11,13)(H,14,15)
INCHIAUX=N/A
PUBMED=N/A
SUBMITUSER=mwang87
TAGS=
LIBRARYQUALITY=3
SPECTRUMID=CCMSLIB00000426535
SCANS=1507
77.139 3.298 
104.137 3.106 
132.01 73.006 
159.963 100.0 
178.016 3.144 
END IONS

BEGIN IONS
PEPMASS=175.061
CHARGE=1+
MSLEVEL=2
SOURCE_INSTRUMENT=Positive-Quattro_QQQ:25eV
FILENAME=hmdb_intermediate.mgf
SEQ=*..*
IONMODE=Positive
ORGANISM=HMDB
NAME=HMDB:HMDB03070-2189 Shikimic acid M+H
PI=HMDB
DATACOLLECTOR=HMDB
SMILES=O[C@@H]1CC(=C[C@@H](O)[C@H]1O)C(O)=O
INCHI=InChI=1S/C7H10O5/c8-4-1-3(7(11)12)2-5(9)6(4)10/h1,4-6,8-10H,2H2,(H,11,12)/t4-,5-,6-/m1/s1
INCHIAUX=N/A
PUBMED=N/A
SUBMITUSER=mwang87
TAGS=
LIBRARYQUALITY=3
SPECTRUMID=CCMSLIB00000426536
SCANS=1508
74.0 12.695 
83.0 10.449 
88.0 62.758 
97.0 13.639 
111.0 9.277 
129.0 100.0 
175.0 10.189 
END IONS

BEGIN IONS
PEPMASS=122.028
CHARGE=1+
MSLEVEL=2
SOURCE_INSTRUMENT=Positive-Quattro_QQQ:10eV
FILENAME=hmdb_intermediate.mgf
SEQ=*..*
IONMODE=Positive
ORGANISM=HMDB
NAME=HMDB:HMDB00574-800 L-Cysteine M+H
PI=HMDB
DATACOLLECTOR=HMDB
SMILES=N[C@@H](CS)C(O)=O
INCHI=InChI=1S/C3H7NO2S/c4-2(1-7)3(5)6/h2,7H,1,4H2,(H,5,6)/t2-/m0/s1
INCHIAUX=N/A
PUBMED=N/A
SUBMITUSER=mwang87
TAGS=
LIBRARYQUALITY=3
SPECTRUMID=CCMSLIB00000426537
SCANS=1509
59.155 10.764 
76.081 100.0 
87.035 35.648 
104.977 44.676 
121.936 62.037 
END IONS

BEGIN IONS
PEPMASS=134.045
CHARGE=1+
MSLEVEL=2
SOURCE_INSTRUMENT=Positive-Quattro_QQQ:25eV
FILENAME=hmdb_intermediate.mgf
SEQ=*..*
IONMODE=Positive
ORGANISM=HMDB
NAME=HMDB:HMDB06483-2488 D-Aspartic acid M+H
PI=HMDB
DATACOLLECTOR=HMDB
SMILES=N[C@H](CC(O)=O)C(O)=O
INCHI=InChI=1S/C4H7NO4/c5-2(4(8)9)1-3(6)7/h2H,1,5H2,(H,6,7)(H,8,9)/t2-/m1/s1
INCHIAUX=N/A
PUBMED=N/A
SUBMITUSER=mwang87
TAGS=
LIBRARYQUALITY=3
SPECTRUMID=CCMSLIB00000426538
SCANS=1510
74.04 84.9480263395 
88.02 100.0 
115.98 18.9516461044 
134.1 29.1174320141 
END IONS

BEGIN IONS
PEPMASS=768.123
CHARGE=1+
MSLEVEL=2
SOURCE_INSTRUMENT=Positive-Quattro_QQQ:40eV
FILENAME=hmdb_intermediate.mgf
SEQ=*..*
IONMODE=Positive
ORGANISM=HMDB
NAME=HMDB:HMDB01423-1573 Coenzyme A M+H
PI=HMDB
DATACOLLECTOR=HMDB
SMILES=CC(C)(COP(O)(=O)OP(O)(=O)OC[C@H]1O[C@H]([C@H](O)[C@@H]1OP(O)(O)=O)N1C=NC2=C1N=CN=C2N)C(O)C(=O)NCCC(=O)NCCS
INCHI=InChI=1S/C21H36N7O16P3S/c1-21(2,16(31)19(32)24-4-3-12(29)23-5-6-48)8-41-47(38,39)44-46(36,37)40-7-11-15(43-45(33,34)35)14(30)20(42-11)28-10-27-13-17(22)25-9-26-18(13)28/h9-11,14-16,20,30-31,48H,3-8H2,1-2H3,(H,23,29)(H,24,32)(H,36,37)(H,38,39)(H2,22,25,26)(H2,33,34,35)/t11-,14-,15-,16?,20-/m1/s1
INCHIAUX=N/A
PUBMED=N/A
SUBMITUSER=mwang87
TAGS=
LIBRARYQUALITY=3
SPECTRUMID=CCMSLIB00000426539
SCANS=1511
88.0 7.315 
99.0 3.54 
114.0 2.537 
132.0 3.51 
136.0 26.411 
159.0 13.057 
184.0 4.511 
243.0 6.7 
261.0 100.0 
330.0 1.476 
428.0 4.621 
END IONS

BEGIN IONS
PEPMASS=59.0497
CHARGE=1+
MSLEVEL=2
SOURCE_INSTRUMENT=Positive-Quattro_QQQ:40eV
FILENAME=hmdb_intermediate.mgf
SEQ=*..*
IONMODE=Positive
ORGANISM=HMDB
NAME=HMDB:HMDB03366-2273 Propanal M+H
PI=HMDB
DATACOLLECTOR=HMDB
SMILES=CCC=O
INCHI=InChI=1S/C3H6O/c1-2-3-4/h3H,2H2,1H3
INCHIAUX=N/A
PUBMED=N/A
SUBMITUSER=mwang87
TAGS=
LIBRARYQUALITY=3
SPECTRUMID=CCMSLIB00000426540
SCANS=1512
15.0 64.878 
31.0 65.432 
42.0 78.356 
58.0 100.0 
END IONS

BEGIN IONS
PEPMASS=115.076
CHARGE=1+
MSLEVEL=2
SOURCE_INSTRUMENT=Positive-Quattro_QQQ:25eV
FILENAME=hmdb_intermediate.mgf
SEQ=*..*
IONMODE=Positive
ORGANISM=HMDB
NAME=HMDB:HMDB03843-2347 Gamma-Caprolactone M+H
PI=HMDB
DATACOLLECTOR=HMDB
SMILES=CCC1CCC(=O)O1
INCHI=InChI=1S/C6H10O2/c1-2-5-3-4-6(7)8-5/h5H,2-4H2,1H3
INCHIAUX=N/A
PUBMED=N/A
SUBMITUSER=mwang87
TAGS=
LIBRARYQUALITY=3
SPECTRUMID=CCMSLIB00000426541
SCANS=1513
29.44 47.244 
42.35 100.0 
54.33 30.041 
55.13 98.555 
71.52 36.767 
114.24 20.508 
END IONS

BEGIN IONS
PEPMASS=293.248
CHARGE=1+
MSLEVEL=2
SOURCE_INSTRUMENT=Positive-Quattro_QQQ:25eV
FILENAME=hmdb_intermediate.mgf
SEQ=*..*
IONMODE=Positive
ORGANISM=HMDB
NAME=HMDB:HMDB00493-714 5a-Androstane-3b,17b-diol M+H
PI=HMDB
DATACOLLECTOR=HMDB
SMILES=[H][C@@]12CC[C@H](O)[C@@]1(C)CC[C@@]1([H])[C@@]2([H])CC[C@@]2([H])C[C@@H](O)CC[C@]12C
INCHI=InChI=1S/C19H32O2/c1-18-9-7-13(20)11-12(18)3-4-14-15-5-6-17(21)19(15,2)10-8-16(14)18/h12-17,20-21H,3-11H2,1-2H3/t12-,13-,14-,15-,16-,17-,18-,19-/m0/s1
INCHIAUX=N/A
PUBMED=N/A
SUBMITUSER=mwang87
TAGS=
LIBRARYQUALITY=3
SPECTRUMID=CCMSLIB00000426542
SCANS=1514
56.245 11.502 
74.655 100.0 
98.465 79.554 
114.421 28.432 
149.034 44.09 
171.129 14.055 
228.581 54.311 
303.109 14.055 
345.719 11.18 
END IONS

BEGIN IONS
PEPMASS=87.081
CHARGE=1+
MSLEVEL=2
SOURCE_INSTRUMENT=Positive-Quattro_QQQ:40eV
FILENAME=hmdb_intermediate.mgf
SEQ=*..*
IONMODE=Positive
ORGANISM=HMDB
NAME=HMDB:HMDB06478-2486 Iso-Valeraldehyde M+H
PI=HMDB
DATACOLLECTOR=HMDB
SMILES=CC(C)CC=O
INCHI=InChI=1S/C5H10O/c1-5(2)3-4-6/h4-5H,3H2,1-2H3
INCHIAUX=N/A
PUBMED=N/A
SUBMITUSER=mwang87
TAGS=
LIBRARYQUALITY=3
SPECTRUMID=CCMSLIB00000426543
SCANS=1515
45.17 12.889 
87.06 100.0 
END IONS

BEGIN IONS
PEPMASS=43.0058
CHARGE=1+
MSLEVEL=2
SOURCE_INSTRUMENT=Positive-Quattro_QQQ:10eV
FILENAME=hmdb_intermediate.mgf
SEQ=*..*
IONMODE=Positive
ORGANISM=HMDB
NAME=HMDB:HMDB02078-1987 Cyanate M+H
PI=HMDB
DATACOLLECTOR=HMDB
SMILES=[O-]C#N
INCHI=InChI=1S/CHNO/c2-1-3/h3H/p-1
INCHIAUX=N/A
PUBMED=N/A
SUBMITUSER=mwang87
TAGS=
LIBRARYQUALITY=3
SPECTRUMID=CCMSLIB00000426544
SCANS=1516
43.0 100.0 
END IONS

BEGIN IONS
PEPMASS=505.177
CHARGE=1+
MSLEVEL=2
SOURCE_INSTRUMENT=Positive-Quattro_QQQ:40eV
FILENAME=hmdb_intermediate.mgf
SEQ=*..*
IONMODE=Positive
ORGANISM=HMDB
NAME=HMDB:HMDB01262-1496 Maltotriose M+H
PI=HMDB
DATACOLLECTOR=HMDB
SMILES=OC[C@H]1O[C@H](O[C@H]2[C@H](O)[C@@H](O)[C@@H](O[C@H]3[C@H](O)[C@@H](O)C(O)O[C@@H]3CO)O[C@@H]2CO)[C@H](O)[C@@H](O)[C@@H]1O
INCHI=InChI=1S/C18H32O16/c19-1-4-7(22)8(23)12(27)17(31-4)34-15-6(3-21)32-18(13(28)10(15)25)33-14-5(2-20)30-16(29)11(26)9(14)24/h4-29H,1-3H2/t4-,5-,6-,7-,8+,9-,10-,11-,12-,13-,14-,15-,16?,17-,18-/m1/s1
INCHIAUX=N/A
PUBMED=N/A
SUBMITUSER=mwang87
TAGS=
LIBRARYQUALITY=3
SPECTRUMID=CCMSLIB00000426545
SCANS=1517
61.0 6.136 
69.0 6.243 
81.0 4.331 
85.0 100.0 
97.0 16.334 
109.0 6.267 
115.0 3.412 
127.0 23.907 
145.0 19.025 
163.0 10.827 
END IONS

BEGIN IONS
PEPMASS=428.037
CHARGE=1+
MSLEVEL=2
SOURCE_INSTRUMENT=Positive-Quattro_QQQ:10eV
FILENAME=hmdb_intermediate.mgf
SEQ=*..*
IONMODE=Positive
ORGANISM=HMDB
NAME=HMDB:HMDB01341-1522 ADP M+H
PI=HMDB
DATACOLLECTOR=HMDB
SMILES=NC1=NC=NC2=C1N=CN2[C@@H]1O[C@H](COP(O)(=O)OP(O)(O)=O)[C@@H](O)[C@H]1O
INCHI=InChI=1S/C10H15N5O10P2/c11-8-5-9(13-2-12-8)15(3-14-5)10-7(17)6(16)4(24-10)1-23-27(21,22)25-26(18,19)20/h2-4,6-7,10,16-17H,1H2,(H,21,22)(H2,11,12,13)(H2,18,19,20)/t4-,6-,7-,10-/m1/s1
INCHIAUX=N/A
PUBMED=N/A
SUBMITUSER=mwang87
TAGS=
LIBRARYQUALITY=3
SPECTRUMID=CCMSLIB00000426546
SCANS=1518
135.0 44.108 
347.0 6.806 
427.0 100.0 
END IONS

BEGIN IONS
PEPMASS=335.064
CHARGE=1+
MSLEVEL=2
SOURCE_INSTRUMENT=Positive-Quattro_QQQ:10eV
FILENAME=hmdb_intermediate.mgf
SEQ=*..*
IONMODE=Positive
ORGANISM=HMDB
NAME=HMDB:HMDB00229-382 Nicotinamide ribotide M+H
PI=HMDB
DATACOLLECTOR=HMDB
SMILES=NC(=O)C1=CC=C[N+](=C1)[C@@H]1O[C@H](COP(O)([O-])=O)[C@@H](O)[C@H]1O
INCHI=InChI=1S/C11H15N2O8P/c12-10(16)6-2-1-3-13(4-6)11-9(15)8(14)7(21-11)5-20-22(17,18)19/h1-4,7-9,11,14-15H,5H2,(H3-,12,16,17,18,19)/t7-,8-,9-,11-/m1/s1
INCHIAUX=N/A
PUBMED=N/A
SUBMITUSER=mwang87
TAGS=
LIBRARYQUALITY=3
SPECTRUMID=CCMSLIB00000426547
SCANS=1519
97.434 24.561 
122.618 100.0 
139.659 6.826 
207.326 7.204 
234.897 10.11 
252.819 14.756 
262.846 12.289 
293.93 6.962 
295.308 5.056 
317.119 6.402 
334.668 19.432 
END IONS

BEGIN IONS
PEPMASS=169.05
CHARGE=1+
MSLEVEL=2
SOURCE_INSTRUMENT=Positive-Quattro_QQQ:25eV
FILENAME=hmdb_intermediate.mgf
SEQ=*..*
IONMODE=Positive
ORGANISM=HMDB
NAME=HMDB:HMDB01868-1754 5-Methoxysalicylic acid M+H
PI=HMDB
DATACOLLECTOR=HMDB
SMILES=COC1=CC(C(O)=O)=C(O)C=C1
INCHI=InChI=1S/C8H8O4/c1-12-5-2-3-7(9)6(4-5)8(10)11/h2-4,9H,1H3,(H,10,11)
INCHIAUX=N/A
PUBMED=N/A
SUBMITUSER=mwang87
TAGS=
LIBRARYQUALITY=3
SPECTRUMID=CCMSLIB00000426548
SCANS=1520
54.98 16.586 
65.631 26.628 
84.427 27.113 
94.326 28.045 
95.204 71.328 
111.494 29.328 
122.898 72.127 
151.095 100.0 
END IONS

BEGIN IONS
PEPMASS=405.01
CHARGE=1+
MSLEVEL=2
SOURCE_INSTRUMENT=Positive-Quattro_QQQ:25eV
FILENAME=hmdb_intermediate.mgf
SEQ=*..*
IONMODE=Positive
ORGANISM=HMDB
NAME=HMDB:HMDB00295-502 Uridine 5'-diphosphate M+H
PI=HMDB
DATACOLLECTOR=HMDB
SMILES=O[C@H]1[C@@H](O)[C@@H](O[C@@H]1COP(O)(=O)OP(O)(O)=O)N1C=CC(=O)NC1=O
INCHI=InChI=1S/C9H14N2O12P2/c12-5-1-2-11(9(15)10-5)8-7(14)6(13)4(22-8)3-21-25(19,20)23-24(16,17)18/h1-2,4,6-8,13-14H,3H2,(H,19,20)(H,10,12,15)(H2,16,17,18)/t4-,6-,7-,8-/m1/s1
INCHIAUX=N/A
PUBMED=N/A
SUBMITUSER=mwang87
TAGS=
LIBRARYQUALITY=3
SPECTRUMID=CCMSLIB00000426549
SCANS=1521
96.83 100.0 
END IONS

BEGIN IONS
PEPMASS=223.075
CHARGE=1+
MSLEVEL=2
SOURCE_INSTRUMENT=Positive-Quattro_QQQ:40eV
FILENAME=hmdb_intermediate.mgf
SEQ=*..*
IONMODE=Positive
ORGANISM=HMDB
NAME=HMDB:HMDB00099-158 L-Cystathionine M+H
PI=HMDB
DATACOLLECTOR=HMDB
SMILES=N[C@@H](CCSC[C@H](N)C(O)=O)C(O)=O
INCHI=InChI=1S/C7H14N2O4S/c8-4(6(10)11)1-2-14-3-5(9)7(12)13/h4-5H,1-3,8-9H2,(H,10,11)(H,12,13)/t4-,5-/m0/s1
INCHIAUX=N/A
PUBMED=N/A
SUBMITUSER=mwang87
TAGS=
LIBRARYQUALITY=3
SPECTRUMID=CCMSLIB00000426550
SCANS=1522
56.253 5.362 
88.082 100.0 
133.95 26.183 
END IONS

BEGIN IONS
PEPMASS=347.222
CHARGE=1+
MSLEVEL=2
SOURCE_INSTRUMENT=Positive-Quattro_QQQ:40eV
FILENAME=hmdb_intermediate.mgf
SEQ=*..*
IONMODE=Positive
ORGANISM=HMDB
NAME=HMDB:HMDB01547-1648 Corticosterone M+H
PI=HMDB
DATACOLLECTOR=HMDB
SMILES=[H][C@@]12CC[C@H](C(=O)CO)[C@@]1(C)C[C@H](O)[C@@]1([H])[C@@]2([H])CCC2=CC(=O)CC[C@]12C
INCHI=InChI=1S/C21H30O4/c1-20-8-7-13(23)9-12(20)3-4-14-15-5-6-16(18(25)11-22)21(15,2)10-17(24)19(14)20/h9,14-17,19,22,24H,3-8,10-11H2,1-2H3/t14-,15-,16+,17-,19+,20-,21-/m0/s1
INCHIAUX=N/A
PUBMED=N/A
SUBMITUSER=mwang87
TAGS=
LIBRARYQUALITY=3
SPECTRUMID=CCMSLIB00000426551
SCANS=1523
55.247 28.488 
67.183 27.907 
79.118 58.915 
91.093 74.419 
97.081 72.868 
105.067 80.62 
121.009 100.0 
130.948 38.76 
143.245 23.837 
145.001 41.279 
158.883 22.868 
168.971 17.829 
END IONS

BEGIN IONS
PEPMASS=167.071
CHARGE=1+
MSLEVEL=2
SOURCE_INSTRUMENT=Positive-Quattro_QQQ:40eV
FILENAME=hmdb_intermediate.mgf
SEQ=*..*
IONMODE=Positive
ORGANISM=HMDB
NAME=HMDB:HMDB02199-2027 Desaminotyrosine M+H
PI=HMDB
DATACOLLECTOR=HMDB
SMILES=OC(=O)CCC1=CC=C(O)C=C1
INCHI=InChI=1S/C9H10O3/c10-8-4-1-7(2-5-8)3-6-9(11)12/h1-2,4-5,10H,3,6H2,(H,11,12)
INCHIAUX=N/A
PUBMED=N/A
SUBMITUSER=mwang87
TAGS=
LIBRARYQUALITY=3
SPECTRUMID=CCMSLIB00000426552
SCANS=1524
73.0 72.201 
77.0 100.0 
89.0 38.404 
103.0 12.122 
105.0 15.289 
END IONS

BEGIN IONS
PEPMASS=165.055
CHARGE=1+
MSLEVEL=2
SOURCE_INSTRUMENT=Positive-Quattro_QQQ:40eV
FILENAME=hmdb_intermediate.mgf
SEQ=*..*
IONMODE=Positive
ORGANISM=HMDB
NAME=HMDB:HMDB31629-330 Phenylpyruvic acid M+H
PI=HMDB
DATACOLLECTOR=HMDB
SMILES=OC(=O)C(=O)CC1=CC=CC=C1
INCHI=InChI=1S/C9H8O3/c10-8(9(11)12)6-7-4-2-1-3-5-7/h1-5H,6H2,(H,11,12)
INCHIAUX=N/A
PUBMED=N/A
SUBMITUSER=mwang87
TAGS=
LIBRARYQUALITY=3
SPECTRUMID=CCMSLIB00000426553
SCANS=1525
51.0 22.122 
77.0 100.0 
END IONS

BEGIN IONS
PEPMASS=289.18
CHARGE=1+
MSLEVEL=2
SOURCE_INSTRUMENT=Positive-Quattro_QQQ:10eV
FILENAME=hmdb_intermediate.mgf
SEQ=*..*
IONMODE=Positive
ORGANISM=HMDB
NAME=HMDB:HMDB00347-558 16b-Hydroxyestradiol M+H
PI=HMDB
DATACOLLECTOR=HMDB
SMILES=[H][C@@]12C[C@H](O)[C@H](O)[C@@]1(C)CC[C@]1([H])C3=C(CC[C@@]21[H])C=C(O)C=C3
INCHI=InChI=1S/C18H24O3/c1-18-7-6-13-12-5-3-11(19)8-10(12)2-4-14(13)15(18)9-16(20)17(18)21/h3,5,8,13-17,19-21H,2,4,6-7,9H2,1H3/t13-,14-,15+,16+,17+,18+/m1/s1
INCHIAUX=N/A
PUBMED=N/A
SUBMITUSER=mwang87
TAGS=
LIBRARYQUALITY=3
SPECTRUMID=CCMSLIB00000426554
SCANS=1526
107.208 15.402 
121.153 2.539 
133.165 6.083 
151.154 3.655 
159.089 6.501 
171.059 1.563 
196.976 1.814 
213.025 2.679 
215.046 2.874 
253.107 28.348 
256.964 5.469 
271.121 14.397 
289.169 100.0 
END IONS

BEGIN IONS
PEPMASS=184.028
CHARGE=1+
MSLEVEL=2
SOURCE_INSTRUMENT=Positive-Quattro_QQQ:40eV
FILENAME=hmdb_intermediate.mgf
SEQ=*..*
IONMODE=Positive
ORGANISM=HMDB
NAME=HMDB:HMDB02205-2030 L-Homocysteic acid M+H
PI=HMDB
DATACOLLECTOR=HMDB
SMILES=N[C@@H](CCS(O)(=O)=O)C(O)=O
INCHI=InChI=1S/C4H9NO5S/c5-3(4(6)7)1-2-11(8,9)10/h3H,1-2,5H2,(H,6,7)(H,8,9,10)/t3-/m0/s1
INCHIAUX=N/A
PUBMED=N/A
SUBMITUSER=mwang87
TAGS=
LIBRARYQUALITY=3
SPECTRUMID=CCMSLIB00000426555
SCANS=1527
56.06 100.0 
END IONS

BEGIN IONS
PEPMASS=185.082
CHARGE=1+
MSLEVEL=2
SOURCE_INSTRUMENT=Positive-Quattro_QQQ:40eV
FILENAME=hmdb_intermediate.mgf
SEQ=*..*
IONMODE=Positive
ORGANISM=HMDB
NAME=HMDB:HMDB01565-1653 Phosphorylcholine M+H
PI=HMDB
DATACOLLECTOR=HMDB
SMILES=C[N+](C)(C)CCOP(O)(O)=O
INCHI=InChI=1S/C5H14NO4P/c1-6(2,3)4-5-10-11(7,8)9/h4-5H2,1-3H3,(H-,7,8,9)/p+1
INCHIAUX=N/A
PUBMED=N/A
SUBMITUSER=mwang87
TAGS=
LIBRARYQUALITY=3
SPECTRUMID=CCMSLIB00000426556
SCANS=1528
61.0 14.48 
72.0 85.227 
81.0 51.928 
89.0 72.811 
99.0 100.0 
119.0 14.912 
125.0 9.846 
175.0 11.225 
END IONS

BEGIN IONS
PEPMASS=104.071
CHARGE=1+
MSLEVEL=2
SOURCE_INSTRUMENT=Positive-Quattro_QQQ:25eV
FILENAME=hmdb_intermediate.mgf
SEQ=*..*
IONMODE=Positive
ORGANISM=HMDB
NAME=HMDB:HMDB00092-142 Dimethylglycine M+H
PI=HMDB
DATACOLLECTOR=HMDB
SMILES=CN(C)CC(O)=O
INCHI=InChI=1S/C4H9NO2/c1-5(2)3-4(6)7/h3H2,1-2H3,(H,6,7)
INCHIAUX=N/A
PUBMED=N/A
SUBMITUSER=mwang87
TAGS=
LIBRARYQUALITY=3
SPECTRUMID=CCMSLIB00000426557
SCANS=1529
58.201 100.0 
104.447 6.407 
END IONS

BEGIN IONS
PEPMASS=300.29
CHARGE=1+
MSLEVEL=2
SOURCE_INSTRUMENT=Positive-Quattro_QQQ:40eV
FILENAME=hmdb_intermediate.mgf
SEQ=*..*
IONMODE=Positive
ORGANISM=HMDB
NAME=HMDB:HMDB00252-435 Sphingosine M+H
PI=HMDB
DATACOLLECTOR=HMDB
SMILES=CCCCCCCCCCCCC\C=C\C(O)C(N)CO
INCHI=InChI=1S/C18H37NO2/c1-2-3-4-5-6-7-8-9-10-11-12-13-14-15-18(21)17(19)16-20/h14-15,17-18,20-21H,2-13,16,19H2,1H3/b15-14+
INCHIAUX=N/A
PUBMED=N/A
SUBMITUSER=mwang87
TAGS=
LIBRARYQUALITY=3
SPECTRUMID=CCMSLIB00000426558
SCANS=1530
54.0 79.676 
55.0 100.0 
66.0 68.172 
81.0 39.076 
94.0 16.549 
95.0 14.258 
END IONS

BEGIN IONS
PEPMASS=111.045
CHARGE=1+
MSLEVEL=2
SOURCE_INSTRUMENT=Positive-Quattro_QQQ:40eV
FILENAME=hmdb_intermediate.mgf
SEQ=*..*
IONMODE=Positive
ORGANISM=HMDB
NAME=HMDB:HMDB00957-1359 Pyrocatechol M+H
PI=HMDB
DATACOLLECTOR=HMDB
SMILES=OC1=CC=CC=C1O
INCHI=InChI=1S/C6H6O2/c7-5-3-1-2-4-6(5)8/h1-4,7-8H
INCHIAUX=N/A
PUBMED=N/A
SUBMITUSER=mwang87
TAGS=
LIBRARYQUALITY=3
SPECTRUMID=CCMSLIB00000426559
SCANS=1531
53.207 7.0 
64.114 47.6 
65.152 100.0 
93.072 16.0 
111.101 22.5 
END IONS

BEGIN IONS
PEPMASS=232.118
CHARGE=1+
MSLEVEL=2
SOURCE_INSTRUMENT=Positive-Quattro_QQQ:40eV
FILENAME=hmdb_intermediate.mgf
SEQ=*..*
IONMODE=Positive
ORGANISM=HMDB
NAME=HMDB:HMDB00953-1347 Suberylglycine M+H
PI=HMDB
DATACOLLECTOR=HMDB
SMILES=OC(=O)CCCCCCC(=O)NCC(O)=O
INCHI=InChI=1S/C10H17NO5/c12-8(11-7-10(15)16)5-3-1-2-4-6-9(13)14/h1-7H2,(H,11,12)(H,13,14)(H,15,16)
INCHIAUX=N/A
PUBMED=N/A
SUBMITUSER=mwang87
TAGS=
LIBRARYQUALITY=3
SPECTRUMID=CCMSLIB00000426560
SCANS=1532
55.0 100.0 
69.0 40.696 
83.0 25.98 
END IONS

BEGIN IONS
PEPMASS=289.217
CHARGE=1+
MSLEVEL=2
SOURCE_INSTRUMENT=Positive-Quattro_QQQ:40eV
FILENAME=hmdb_intermediate.mgf
SEQ=*..*
IONMODE=Positive
ORGANISM=HMDB
NAME=HMDB:HMDB00077-128 Dehydroepiandrosterone M+H
PI=HMDB
DATACOLLECTOR=HMDB
SMILES=C[C@]12CCC3C(CC=C4C[C@@H](O)CC[C@]34C)C1CCC2=O
INCHI=InChI=1S/C19H28O2/c1-18-9-7-13(20)11-12(18)3-4-14-15-5-6-17(21)19(15,2)10-8-16(14)18/h3,13-16,20H,4-11H2,1-2H3/t13-,14?,15?,16?,18-,19-/m0/s1
INCHIAUX=N/A
PUBMED=N/A
SUBMITUSER=mwang87
TAGS=
LIBRARYQUALITY=3
SPECTRUMID=CCMSLIB00000426561
SCANS=1533
43.326 11.688 
55.238 22.25 
67.166 38.25 
81.109 69.0 
91.086 100.0 
95.122 17.0 
105.052 76.0 
116.982 36.5 
129.107 40.5 
142.614 35.5 
144.94 33.25 
156.965 30.5 
168.973 21.0 
182.646 14.188 
END IONS

BEGIN IONS
PEPMASS=143.107
CHARGE=1+
MSLEVEL=2
SOURCE_INSTRUMENT=Positive-Quattro_QQQ:25eV
FILENAME=hmdb_intermediate.mgf
SEQ=*..*
IONMODE=Positive
ORGANISM=HMDB
NAME=HMDB:HMDB00392-598 2-Octenoic acid M+H
PI=HMDB
DATACOLLECTOR=HMDB
SMILES=CCCCC\C=C/C(O)=O
INCHI=InChI=1S/C8H14O2/c1-2-3-4-5-6-7-8(9)10/h6-7H,2-5H2,1H3,(H,9,10)/b7-6-
INCHIAUX=N/A
PUBMED=N/A
SUBMITUSER=mwang87
TAGS=
LIBRARYQUALITY=3
SPECTRUMID=CCMSLIB00000426562
SCANS=1534
54.0 97.72 
72.0 100.0 
END IONS

BEGIN IONS
PEPMASS=151.04
CHARGE=1+
MSLEVEL=2
SOURCE_INSTRUMENT=Negative-Quattro_QQQ:10eV
FILENAME=hmdb_intermediate.mgf
SEQ=*..*
IONMODE=Negative
ORGANISM=HMDB
NAME=HMDB:HMDB00440-641 3-Hydroxyphenylacetic acid M-H
PI=HMDB
DATACOLLECTOR=HMDB
SMILES=OC(=O)CC1=CC=CC(O)=C1
INCHI=InChI=1S/C8H8O3/c9-7-3-1-2-6(4-7)5-8(10)11/h1-4,9H,5H2,(H,10,11)
INCHIAUX=N/A
PUBMED=N/A
SUBMITUSER=mwang87
TAGS=
LIBRARYQUALITY=3
SPECTRUMID=CCMSLIB00000426563
SCANS=1535
107.222 100.0 
151.123 1.915 
END IONS

BEGIN IONS
PEPMASS=103.003
CHARGE=1+
MSLEVEL=2
SOURCE_INSTRUMENT=Negative-Quattro_QQQ:40eV
FILENAME=hmdb_intermediate.mgf
SEQ=*..*
IONMODE=Negative
ORGANISM=HMDB
NAME=HMDB:HMDB00691-960 Malonic acid M-H
PI=HMDB
DATACOLLECTOR=HMDB
SMILES=OC(=O)CC(O)=O
INCHI=InChI=1S/C3H4O4/c4-2(5)1-3(6)7/h1H2,(H,4,5)(H,6,7)
INCHIAUX=N/A
PUBMED=N/A
SUBMITUSER=mwang87
TAGS=
LIBRARYQUALITY=3
SPECTRUMID=CCMSLIB00000426564
SCANS=1536
41.594 100.0 
59.277 57.051 
103.163 24.679 
END IONS

BEGIN IONS
PEPMASS=307.264
CHARGE=1+
MSLEVEL=2
SOURCE_INSTRUMENT=Positive-Quattro_QQQ:10eV
FILENAME=hmdb_intermediate.mgf
SEQ=*..*
IONMODE=Positive
ORGANISM=HMDB
NAME=HMDB:HMDB02925-2166 8,11,14-Eicosatrienoic acid M+H
PI=HMDB
DATACOLLECTOR=HMDB
SMILES=CCCCC\C=C/C\C=C/C\C=C/CCCCCCC(O)=O
INCHI=InChI=1S/C20H34O2/c1-2-3-4-5-6-7-8-9-10-11-12-13-14-15-16-17-18-19-20(21)22/h6-7,9-10,12-13H,2-5,8,11,14-19H2,1H3,(H,21,22)/b7-6-,10-9-,13-12-
INCHIAUX=N/A
PUBMED=N/A
SUBMITUSER=mwang87
TAGS=
LIBRARYQUALITY=3
SPECTRUMID=CCMSLIB00000426565
SCANS=1537
71.0 1.657 
82.0 2.419 
94.0 1.517 
109.0 1.57 
134.0 1.835 
150.0 1.509 
162.0 3.395 
165.0 2.939 
208.0 1.54 
222.0 2.309 
228.0 1.675 
247.0 2.069 
274.0 4.734 
275.0 2.158 
289.0 7.916 
306.0 100.0 
325.0 1.737 
END IONS

BEGIN IONS
PEPMASS=269.089
CHARGE=1+
MSLEVEL=2
SOURCE_INSTRUMENT=Positive-Quattro_QQQ:40eV
FILENAME=hmdb_intermediate.mgf
SEQ=*..*
IONMODE=Positive
ORGANISM=HMDB
NAME=HMDB:HMDB00195-318 Inosine M+H
PI=HMDB
DATACOLLECTOR=HMDB
SMILES=OC[C@H]1O[C@H]([C@H](O)[C@@H]1O)N1C=NC2=C1N=CNC2=O
INCHI=InChI=1S/C10H12N4O5/c15-1-4-6(16)7(17)10(19-4)14-3-13-5-8(14)11-2-12-9(5)18/h2-4,6-7,10,15-17H,1H2,(H,11,12,18)/t4-,6-,7-,10-/m1/s1
INCHIAUX=N/A
PUBMED=N/A
SUBMITUSER=mwang87
TAGS=
LIBRARYQUALITY=3
SPECTRUMID=CCMSLIB00000426566
SCANS=1538
55.248 5.922 
69.182 2.866 
82.149 6.277 
94.078 11.9 
110.02 24.672 
119.022 19.869 
136.971 100.0 
END IONS

BEGIN IONS
PEPMASS=160.134
CHARGE=1+
MSLEVEL=2
SOURCE_INSTRUMENT=Positive-Quattro_QQQ:25eV
FILENAME=hmdb_intermediate.mgf
SEQ=*..*
IONMODE=Positive
ORGANISM=HMDB
NAME=HMDB:HMDB00991-1382 DL-2-Aminooctanoic acid M+H
PI=HMDB
DATACOLLECTOR=HMDB
SMILES=CCCCCCC(N)C(O)=O
INCHI=InChI=1S/C8H17NO2/c1-2-3-4-5-6-7(9)8(10)11/h7H,2-6,9H2,1H3,(H,10,11)
INCHIAUX=N/A
PUBMED=N/A
SUBMITUSER=mwang87
TAGS=
LIBRARYQUALITY=3
SPECTRUMID=CCMSLIB00000426567
SCANS=1539
43.379 36.025 
55.261 100.0 
69.189 12.267 
97.148 5.318 
114.059 42.857 
END IONS

BEGIN IONS
PEPMASS=153.055
CHARGE=1+
MSLEVEL=2
SOURCE_INSTRUMENT=Positive-Quattro_QQQ:25eV
FILENAME=hmdb_intermediate.mgf
SEQ=*..*
IONMODE=Positive
ORGANISM=HMDB
NAME=HMDB:HMDB01101-1422 p-Anisic acid M+H
PI=HMDB
DATACOLLECTOR=HMDB
SMILES=COC1=CC=C(C=C1)C(O)=O
INCHI=InChI=1S/C8H8O3/c1-11-7-4-2-6(3-5-7)8(9)10/h2-5H,1H3,(H,9,10)
INCHIAUX=N/A
PUBMED=N/A
SUBMITUSER=mwang87
TAGS=
LIBRARYQUALITY=3
SPECTRUMID=CCMSLIB00000426568
SCANS=1540
76.92 100.0 
93.9 32.817 
134.81 11.149 
END IONS

BEGIN IONS
PEPMASS=155.034
CHARGE=1+
MSLEVEL=2
SOURCE_INSTRUMENT=Positive-Quattro_QQQ:25eV
FILENAME=hmdb_intermediate.mgf
SEQ=*..*
IONMODE=Positive
ORGANISM=HMDB
NAME=HMDB:HMDB01856-1724 Protocatechuic acid M+H
PI=HMDB
DATACOLLECTOR=HMDB
SMILES=OC(=O)C1=CC(O)=C(O)C=C1
INCHI=InChI=1S/C7H6O4/c8-5-2-1-4(7(10)11)3-6(5)9/h1-3,8-9H,(H,10,11)
INCHIAUX=N/A
PUBMED=N/A
SUBMITUSER=mwang87
TAGS=
LIBRARYQUALITY=3
SPECTRUMID=CCMSLIB00000426569
SCANS=1541
64.464 15.642 
64.966 100.0 
81.531 17.801 
93.327 86.094 
114.16 14.564 
114.536 12.125 
137.253 19.359 
END IONS

BEGIN IONS
PEPMASS=167.107
CHARGE=1+
MSLEVEL=2
SOURCE_INSTRUMENT=Positive-Quattro_QQQ:25eV
FILENAME=hmdb_intermediate.mgf
SEQ=*..*
IONMODE=Positive
ORGANISM=HMDB
NAME=HMDB:HMDB04586-2398 Perillic acid M+H
PI=HMDB
DATACOLLECTOR=HMDB
SMILES=CC(=C)C1CCC(=CC1)C(O)=O
INCHI=InChI=1S/C10H14O2/c1-7(2)8-3-5-9(6-4-8)10(11)12/h5,8H,1,3-4,6H2,2H3,(H,11,12)
INCHIAUX=N/A
PUBMED=N/A
SUBMITUSER=mwang87
TAGS=
LIBRARYQUALITY=3
SPECTRUMID=CCMSLIB00000426570
SCANS=1542
67.0 63.481 
79.0 100.0 
93.0 68.188 
95.0 17.38 
105.0 17.512 
121.0 15.276 
END IONS

BEGIN IONS
PEPMASS=281.114
CHARGE=1+
MSLEVEL=2
SOURCE_INSTRUMENT=Positive-Quattro_QQQ:40eV
FILENAME=hmdb_intermediate.mgf
SEQ=*..*
IONMODE=Positive
ORGANISM=HMDB
NAME=HMDB:HMDB00706-989 L-Aspartyl-L-phenylalanine M+H
PI=HMDB
DATACOLLECTOR=HMDB
SMILES=N[C@@H](CC(O)=O)C(=O)N[C@@H](CC1=CC=CC=C1)C(O)=O
INCHI=InChI=1S/C13H16N2O5/c14-9(7-11(16)17)12(18)15-10(13(19)20)6-8-4-2-1-3-5-8/h1-5,9-10H,6-7,14H2,(H,15,18)(H,16,17)(H,19,20)/t9-,10-/m0/s1
INCHIAUX=N/A
PUBMED=N/A
SUBMITUSER=mwang87
TAGS=
LIBRARYQUALITY=3
SPECTRUMID=CCMSLIB00000426571
SCANS=1543
43.326 11.607 
70.156 38.776 
79.157 7.143 
91.101 39.796 
103.061 43.878 
107.035 4.273 
120.026 100.0 
129.965 7.589 
END IONS

BEGIN IONS
PEPMASS=132.102
CHARGE=1+
MSLEVEL=2
SOURCE_INSTRUMENT=Positive-Quattro_QQQ:40eV
FILENAME=hmdb_intermediate.mgf
SEQ=*..*
IONMODE=Positive
ORGANISM=HMDB
NAME=HMDB:HMDB00172-273 L-Isoleucine M+H
PI=HMDB
DATACOLLECTOR=HMDB
SMILES=CC[C@H](C)[C@H](N)C(O)=O
INCHI=InChI=1S/C6H13NO2/c1-3-4(2)5(7)6(8)9/h4-5H,3,7H2,1-2H3,(H,8,9)/t4-,5-/m0/s1
INCHIAUX=N/A
PUBMED=N/A
SUBMITUSER=mwang87
TAGS=
LIBRARYQUALITY=3
SPECTRUMID=CCMSLIB00000426572
SCANS=1544
41.305 100.0 
45.378 17.722 
55.961 44.937 
69.072 33.544 
85.977 43.354 
132.064 9.494 
END IONS

BEGIN IONS
PEPMASS=185.154
CHARGE=1+
MSLEVEL=2
SOURCE_INSTRUMENT=Negative-Quattro_QQQ:10eV
FILENAME=hmdb_intermediate.mgf
SEQ=*..*
IONMODE=Negative
ORGANISM=HMDB
NAME=HMDB:HMDB00947-1342 Undecanoic acid M-H
PI=HMDB
DATACOLLECTOR=HMDB
SMILES=CCCCCCCCCCC(O)=O
INCHI=InChI=1S/C11H22O2/c1-2-3-4-5-6-7-8-9-10-11(12)13/h2-10H2,1H3,(H,12,13)
INCHIAUX=N/A
PUBMED=N/A
SUBMITUSER=mwang87
TAGS=
LIBRARYQUALITY=3
SPECTRUMID=CCMSLIB00000426573
SCANS=1545
185.076 100.0 
END IONS

BEGIN IONS
PEPMASS=201.984
CHARGE=1+
MSLEVEL=2
SOURCE_INSTRUMENT=Positive-Quattro_QQQ:10eV
FILENAME=hmdb_intermediate.mgf
SEQ=*..*
IONMODE=Positive
ORGANISM=HMDB
NAME=HMDB:HMDB00731-1029 Cysteine-S-sulfate M+H
PI=HMDB
DATACOLLECTOR=HMDB
SMILES=N[C@@H](CSS(O)(=O)=O)C(O)=O
INCHI=InChI=1S/C3H7NO5S2/c4-2(3(5)6)1-10-11(7,8)9/h2H,1,4H2,(H,5,6)(H,7,8,9)/t2-/m0/s1
INCHIAUX=N/A
PUBMED=N/A
SUBMITUSER=mwang87
TAGS=
LIBRARYQUALITY=3
SPECTRUMID=CCMSLIB00000426574
SCANS=1546
74.0 9.961 
120.0 100.0 
156.0 3.449 
202.0 38.018 
END IONS

BEGIN IONS
PEPMASS=316.249
CHARGE=1+
MSLEVEL=2
SOURCE_INSTRUMENT=Positive-Quattro_QQQ:40eV
FILENAME=hmdb_intermediate.mgf
SEQ=*..*
IONMODE=Positive
ORGANISM=HMDB
NAME=HMDB:HMDB00651-890 Decanoylcarnitine M+H
PI=HMDB
DATACOLLECTOR=HMDB
SMILES=CCCCCCCCCC(=O)OC(CC([O-])=O)C[N+](C)(C)C
INCHI=InChI=1S/C17H33NO4/c1-5-6-7-8-9-10-11-12-17(21)22-15(13-16(19)20)14-18(2,3)4/h15H,5-14H2,1-4H3
INCHIAUX=N/A
PUBMED=N/A
SUBMITUSER=mwang87
TAGS=
LIBRARYQUALITY=3
SPECTRUMID=CCMSLIB00000426575
SCANS=1547
43.626 8.036 
57.49 22.421 
71.404 3.72 
85.218 100.0 
END IONS

BEGIN IONS
PEPMASS=133.05
CHARGE=1+
MSLEVEL=2
SOURCE_INSTRUMENT=Positive-Quattro_QQQ:10eV
FILENAME=hmdb_intermediate.mgf
SEQ=*..*
IONMODE=Positive
ORGANISM=HMDB
NAME=HMDB:HMDB01844-1696 Methylsuccinic acid M+H
PI=HMDB
DATACOLLECTOR=HMDB
SMILES=CC(CC(O)=O)C(O)=O
INCHI=InChI=1S/C5H8O4/c1-3(5(8)9)2-4(6)7/h3H,2H2,1H3,(H,6,7)(H,8,9)
INCHIAUX=N/A
PUBMED=N/A
SUBMITUSER=mwang87
TAGS=
LIBRARYQUALITY=3
SPECTRUMID=CCMSLIB00000426576
SCANS=1548
87.1 38.3745700541 
115.0 100.0 
133.1 3.1888278739 
END IONS

BEGIN IONS
PEPMASS=173.06
CHARGE=1+
MSLEVEL=2
SOURCE_INSTRUMENT=Positive-Quattro_QQQ:25eV
FILENAME=hmdb_intermediate.mgf
SEQ=*..*
IONMODE=Positive
ORGANISM=HMDB
NAME=HMDB:HMDB01892-1802 Menadione M+H
PI=HMDB
DATACOLLECTOR=HMDB
SMILES=CC1=CC(=O)C2=CC=CC=C2C1=O
INCHI=InChI=1S/C11H8O2/c1-7-6-10(12)8-4-2-3-5-9(8)11(7)13/h2-6H,1H3
INCHIAUX=N/A
PUBMED=N/A
SUBMITUSER=mwang87
TAGS=
LIBRARYQUALITY=3
SPECTRUMID=CCMSLIB00000426577
SCANS=1549
76.966 24.724 
104.446 41.688 
105.324 100.0 
117.245 27.924 
126.657 10.878 
145.103 12.231 
END IONS

BEGIN IONS
PEPMASS=268.105
CHARGE=1+
MSLEVEL=2
SOURCE_INSTRUMENT=Positive-Quattro_QQQ:40eV
FILENAME=hmdb_intermediate.mgf
SEQ=*..*
IONMODE=Positive
ORGANISM=HMDB
NAME=HMDB:HMDB00085-137 Deoxyguanosine M+H
PI=HMDB
DATACOLLECTOR=HMDB
SMILES=NC1=NC2=C(N=CN2[C@H]2C[C@H](O)[C@@H](CO)O2)C(=O)N1
INCHI=InChI=1S/C10H13N5O4/c11-10-13-8-7(9(18)14-10)12-3-15(8)6-1-4(17)5(2-16)19-6/h3-6,16-17H,1-2H2,(H3,11,13,14,18)/t4-,5+,6+/m0/s1
INCHIAUX=N/A
PUBMED=N/A
SUBMITUSER=mwang87
TAGS=
LIBRARYQUALITY=3
SPECTRUMID=CCMSLIB00000426578
SCANS=1550
43.298 18.328 
45.273 13.176 
73.071 13.176 
82.165 4.392 
99.021 4.54 
109.897 43.919 
134.881 100.0 
151.911 65.878 
END IONS

BEGIN IONS
PEPMASS=130.05
CHARGE=1+
MSLEVEL=2
SOURCE_INSTRUMENT=Positive-Quattro_QQQ:10eV
FILENAME=hmdb_intermediate.mgf
SEQ=*..*
IONMODE=Positive
ORGANISM=HMDB
NAME=HMDB:HMDB01843-1693 N-Acryloylglycine M+H
PI=HMDB
DATACOLLECTOR=HMDB
SMILES=OC(=O)CNC(=O)C=C
INCHI=InChI=1S/C5H7NO3/c1-2-4(7)6-3-5(8)9/h2H,1,3H2,(H,6,7)(H,8,9)
INCHIAUX=N/A
PUBMED=N/A
SUBMITUSER=mwang87
TAGS=
LIBRARYQUALITY=3
SPECTRUMID=CCMSLIB00000426579
SCANS=1551
55.485 100.0 
73.298 4.605 
84.326 62.105 
88.325 5.855 
102.255 14.539 
112.212 14.737 
130.233 38.684 
END IONS

BEGIN IONS
PEPMASS=89.1079
CHARGE=1+
MSLEVEL=2
SOURCE_INSTRUMENT=Positive-Quattro_QQQ:40eV
FILENAME=hmdb_intermediate.mgf
SEQ=*..*
IONMODE=Positive
ORGANISM=HMDB
NAME=HMDB:HMDB01414-1570 Putrescine M+H
PI=HMDB
DATACOLLECTOR=HMDB
SMILES=NCCCCN
INCHI=InChI=1S/C4H12N2/c5-3-1-2-4-6/h1-6H2
INCHIAUX=N/A
PUBMED=N/A
SUBMITUSER=mwang87
TAGS=
LIBRARYQUALITY=3
SPECTRUMID=CCMSLIB00000426580
SCANS=1552
44.339 28.963 
55.254 16.159 
72.18 100.0 
89.131 64.024 
END IONS

BEGIN IONS
PEPMASS=91.0395
CHARGE=1+
MSLEVEL=2
SOURCE_INSTRUMENT=Positive-Quattro_QQQ:25eV
FILENAME=hmdb_intermediate.mgf
SEQ=*..*
IONMODE=Positive
ORGANISM=HMDB
NAME=HMDB:HMDB01051-1404 Glyceraldehyde M+H
PI=HMDB
DATACOLLECTOR=HMDB
SMILES=OCC(O)C=O
INCHI=InChI=1S/C3H6O3/c4-1-3(6)2-5/h1,3,5-6H,2H2
INCHIAUX=N/A
PUBMED=N/A
SUBMITUSER=mwang87
TAGS=
LIBRARYQUALITY=3
SPECTRUMID=CCMSLIB00000426581
SCANS=1553
43.277 100.0 
45.252 27.119 
61.094 64.407 
90.927 46.398 
END IONS

BEGIN IONS
PEPMASS=151.061
CHARGE=1+
MSLEVEL=2
SOURCE_INSTRUMENT=Positive-Quattro_QQQ:10eV
FILENAME=hmdb_intermediate.mgf
SEQ=*..*
IONMODE=Positive
ORGANISM=HMDB
NAME=HMDB:HMDB00098-153 D-Xylose M+H
PI=HMDB
DATACOLLECTOR=HMDB
SMILES=O[C@@H]1COC(O)[C@H](O)[C@H]1O
INCHI=InChI=1S/C5H10O5/c6-2-1-10-5(9)4(8)3(2)7/h2-9H,1H2/t2-,3+,4-,5?/m1/s1
INCHIAUX=N/A
PUBMED=N/A
SUBMITUSER=mwang87
TAGS=
LIBRARYQUALITY=3
SPECTRUMID=CCMSLIB00000426582
SCANS=1554
79.0 13.083 
89.0 54.071 
101.0 100.0 
107.0 7.933 
119.0 58.898 
133.0 61.136 
151.0 55.317 
END IONS

BEGIN IONS
PEPMASS=153.055
CHARGE=1+
MSLEVEL=2
SOURCE_INSTRUMENT=Positive-Quattro_QQQ:40eV
FILENAME=hmdb_intermediate.mgf
SEQ=*..*
IONMODE=Positive
ORGANISM=HMDB
NAME=HMDB:HMDB01101-1423 p-Anisic acid M+H
PI=HMDB
DATACOLLECTOR=HMDB
SMILES=COC1=CC=C(C=C1)C(O)=O
INCHI=InChI=1S/C8H8O3/c1-11-7-4-2-6(3-5-7)8(9)10/h2-5H,1H3,(H,9,10)
INCHIAUX=N/A
PUBMED=N/A
SUBMITUSER=mwang87
TAGS=
LIBRARYQUALITY=3
SPECTRUMID=CCMSLIB00000426583
SCANS=1555
51.06 52.341 
64.22 24.275 
65.58 14.969 
76.95 100.0 
91.72 25.115 
END IONS

BEGIN IONS
PEPMASS=267.171
CHARGE=1+
MSLEVEL=2
SOURCE_INSTRUMENT=Positive-Quattro_QQQ:10eV
FILENAME=hmdb_intermediate.mgf
SEQ=*..*
IONMODE=Positive
ORGANISM=HMDB
NAME=HMDB:HMDB01924-1852 Atenolol M+H
PI=HMDB
DATACOLLECTOR=HMDB
SMILES=CC(C)NCC(O)COC1=CC=C(CC(N)=O)C=C1
INCHI=InChI=1S/C14H22N2O3/c1-10(2)16-8-12(17)9-19-13-5-3-11(4-6-13)7-14(15)18/h3-6,10,12,16-17H,7-9H2,1-2H3,(H2,15,18)
INCHIAUX=N/A
PUBMED=N/A
SUBMITUSER=mwang87
TAGS=
LIBRARYQUALITY=3
SPECTRUMID=CCMSLIB00000426584
SCANS=1556
142.439 22.229 
150.302 57.466 
154.995 100.0 
166.917 29.969 
185.055 95.701 
226.154 32.115 
267.003 87.968 
284.131 26.099 
END IONS

BEGIN IONS
PEPMASS=203.224
CHARGE=1+
MSLEVEL=2
SOURCE_INSTRUMENT=Positive-Quattro_QQQ:10eV
FILENAME=hmdb_intermediate.mgf
SEQ=*..*
IONMODE=Positive
ORGANISM=HMDB
NAME=HMDB:HMDB01256-1487 Spermine M+H
PI=HMDB
DATACOLLECTOR=HMDB
SMILES=NCCCNCCCCNCCCN
INCHI=InChI=1S/C10H26N4/c11-5-3-9-13-7-1-2-8-14-10-4-6-12/h13-14H,1-12H2
INCHIAUX=N/A
PUBMED=N/A
SUBMITUSER=mwang87
TAGS=
LIBRARYQUALITY=3
SPECTRUMID=CCMSLIB00000426585
SCANS=1557
54.131 6.106 
63.478 6.802 
71.079 6.338 
80.551 5.99 
88.028 5.758 
100.615 24.304 
111.582 33.927 
121.802 20.016 
141.494 44.01 
144.61 8.771 
161.685 41.46 
173.775 23.377 
175.769 28.478 
184.869 11.439 
203.441 100.0 
208.926 7.034 
214.66 5.758 
END IONS

BEGIN IONS
PEPMASS=209.093
CHARGE=1+
MSLEVEL=2
SOURCE_INSTRUMENT=Positive-Quattro_QQQ:25eV
FILENAME=hmdb_intermediate.mgf
SEQ=*..*
IONMODE=Positive
ORGANISM=HMDB
NAME=HMDB:HMDB00684-949 L-Kynurenine M+H
PI=HMDB
DATACOLLECTOR=HMDB
SMILES=N[C@@H](CC(=O)C1=CC=CC=C1N)C(O)=O
INCHI=InChI=1S/C10H12N2O3/c11-7-4-2-1-3-6(7)9(13)5-8(12)10(14)15/h1-4,8H,5,11-12H2,(H,14,15)/t8-/m0/s1
INCHIAUX=N/A
PUBMED=N/A
SUBMITUSER=mwang87
TAGS=
LIBRARYQUALITY=3
SPECTRUMID=CCMSLIB00000426586
SCANS=1558
43.288 6.291 
46.239 7.113 
74.042 55.921 
77.055 7.648 
94.033 85.526 
98.928 19.572 
117.914 84.211 
131.913 42.105 
135.926 19.408 
145.912 100.0 
173.85 22.862 
END IONS

BEGIN IONS
PEPMASS=323.064
CHARGE=1+
MSLEVEL=2
SOURCE_INSTRUMENT=Positive-Quattro_QQQ:10eV
FILENAME=hmdb_intermediate.mgf
SEQ=*..*
IONMODE=Positive
ORGANISM=HMDB
NAME=HMDB:HMDB01227-1472 5-Thymidylic acid M+H
PI=HMDB
DATACOLLECTOR=HMDB
SMILES=CC1=CN([C@H]2C[C@H](O)[C@@H](COP(O)(O)=O)O2)C(=O)NC1=O
INCHI=InChI=1S/C10H15N2O8P/c1-5-3-12(10(15)11-9(5)14)8-2-6(13)7(20-8)4-19-21(16,17)18/h3,6-8,13H,2,4H2,1H3,(H,11,14,15)(H2,16,17,18)/t6-,7+,8+/m0/s1
INCHIAUX=N/A
PUBMED=N/A
SUBMITUSER=mwang87
TAGS=
LIBRARYQUALITY=3
SPECTRUMID=CCMSLIB00000426587
SCANS=1559
81.0 100.0 
127.0 2.564 
179.0 3.919 
197.0 5.319 
207.0 21.011 
323.0 2.036 
END IONS

BEGIN IONS
PEPMASS=127.051
CHARGE=1+
MSLEVEL=2
SOURCE_INSTRUMENT=Positive-Quattro_QQQ:40eV
FILENAME=hmdb_intermediate.mgf
SEQ=*..*
IONMODE=Positive
ORGANISM=HMDB
NAME=HMDB:HMDB00262-456 Thymine M+H
PI=HMDB
DATACOLLECTOR=HMDB
SMILES=CC1=CNC(=O)NC1=O
INCHI=InChI=1S/C5H6N2O2/c1-3-2-6-5(9)7-4(3)8/h2H,1H3,(H2,6,7,8,9)
INCHIAUX=N/A
PUBMED=N/A
SUBMITUSER=mwang87
TAGS=
LIBRARYQUALITY=3
SPECTRUMID=CCMSLIB00000426588
SCANS=1560
44.235 42.953 
54.169 100.0 
56.152 38.087 
84.021 14.43 
110.1 9.438 
126.961 33.054 
END IONS

BEGIN IONS
PEPMASS=244.093
CHARGE=1+
MSLEVEL=2
SOURCE_INSTRUMENT=Positive-Quattro_QQQ:10eV
FILENAME=hmdb_intermediate.mgf
SEQ=*..*
IONMODE=Positive
ORGANISM=HMDB
NAME=HMDB:HMDB00089-138 Cytidine M+H
PI=HMDB
DATACOLLECTOR=HMDB
SMILES=NC1=NC(=O)N(C=C1)[C@@H]1O[C@H](CO)[C@@H](O)[C@H]1O
INCHI=InChI=1S/C9H13N3O5/c10-5-1-2-12(9(16)11-5)8-7(15)6(14)4(3-13)17-8/h1-2,4,6-8,13-15H,3H2,(H2,10,11,16)/t4-,6-,7-,8-/m1/s1
INCHIAUX=N/A
PUBMED=N/A
SUBMITUSER=mwang87
TAGS=
LIBRARYQUALITY=3
SPECTRUMID=CCMSLIB00000426589
SCANS=1561
112.007 100.0 
243.94 8.163 
END IONS

BEGIN IONS
PEPMASS=117.055
CHARGE=1+
MSLEVEL=2
SOURCE_INSTRUMENT=Positive-Quattro_QQQ:10eV
FILENAME=hmdb_intermediate.mgf
SEQ=*..*
IONMODE=Positive
ORGANISM=HMDB
NAME=HMDB:HMDB00019-31 Alpha-ketoisovaleric acid M+H
PI=HMDB
DATACOLLECTOR=HMDB
SMILES=CC(C)C(=O)C(O)=O
INCHI=InChI=1S/C5H8O3/c1-3(2)4(6)5(7)8/h3H,1-2H3,(H,7,8)
INCHIAUX=N/A
PUBMED=N/A
SUBMITUSER=mwang87
TAGS=
LIBRARYQUALITY=3
SPECTRUMID=CCMSLIB00000426590
SCANS=1562
85.0 100.0 
99.0 2.299 
117.0 8.615 
END IONS

BEGIN IONS
PEPMASS=148.061
CHARGE=1+
MSLEVEL=2
SOURCE_INSTRUMENT=Positive-Quattro_QQQ:40eV
FILENAME=hmdb_intermediate.mgf
SEQ=*..*
IONMODE=Positive
ORGANISM=HMDB
NAME=HMDB:HMDB00148-223 L-Glutamic acid M+H
PI=HMDB
DATACOLLECTOR=HMDB
SMILES=N[C@@H](CCC(O)=O)C(O)=O
INCHI=InChI=1S/C5H9NO4/c6-3(5(9)10)1-2-4(7)8/h3H,1-2,6H2,(H,7,8)(H,9,10)/t3-/m0/s1
INCHIAUX=N/A
PUBMED=N/A
SUBMITUSER=mwang87
TAGS=
LIBRARYQUALITY=3
SPECTRUMID=CCMSLIB00000426591
SCANS=1563
41.309 30.446 
56.175 100.0 
84.015 54.455 
102.054 4.27 
148.02 3.342 
END IONS

BEGIN IONS
PEPMASS=138.055
CHARGE=1+
MSLEVEL=2
SOURCE_INSTRUMENT=Positive-Quattro_QQQ:10eV
FILENAME=hmdb_intermediate.mgf
SEQ=*..*
IONMODE=Positive
ORGANISM=HMDB
NAME=HMDB:HMDB01392-1550 p-Aminobenzoic acid M+H
PI=HMDB
DATACOLLECTOR=HMDB
SMILES=NC1=CC=C(C=C1)C(O)=O
INCHI=InChI=1S/C7H7NO2/c8-6-3-1-5(2-4-6)7(9)10/h1-4H,8H2,(H,9,10)
INCHIAUX=N/A
PUBMED=N/A
SUBMITUSER=mwang87
TAGS=
LIBRARYQUALITY=3
SPECTRUMID=CCMSLIB00000426592
SCANS=1564
77.078 6.818 
94.06 76.68 
119.966 62.846 
137.925 100.0 
END IONS

BEGIN IONS
PEPMASS=181.061
CHARGE=1+
MSLEVEL=2
SOURCE_INSTRUMENT=Positive-Quattro_QQQ:25eV
FILENAME=hmdb_intermediate.mgf
SEQ=*..*
IONMODE=Positive
ORGANISM=HMDB
NAME=HMDB:HMDB03269-2225 Nicotinuric acid M+H
PI=HMDB
DATACOLLECTOR=HMDB
SMILES=OC(=O)CNC(=O)C1=CN=CC=C1
INCHI=InChI=1S/C8H8N2O3/c11-7(12)5-10-8(13)6-2-1-3-9-4-6/h1-4H,5H2,(H,10,13)(H,11,12)
INCHIAUX=N/A
PUBMED=N/A
SUBMITUSER=mwang87
TAGS=
LIBRARYQUALITY=3
SPECTRUMID=CCMSLIB00000426593
SCANS=1565
79.0 39.508 
92.0 6.778 
107.0 54.693 
117.0 23.076 
135.0 100.0 
END IONS

BEGIN IONS
PEPMASS=101.06
CHARGE=1+
MSLEVEL=2
SOURCE_INSTRUMENT=Positive-Quattro_QQQ:10eV
FILENAME=hmdb_intermediate.mgf
SEQ=*..*
IONMODE=Positive
ORGANISM=HMDB
NAME=HMDB:HMDB01862-1741 2-Ethylacrylic acid M+H
PI=HMDB
DATACOLLECTOR=HMDB
SMILES=CCC(=C)C(O)=O
INCHI=InChI=1S/C5H8O2/c1-3-4(2)5(6)7/h2-3H2,1H3,(H,6,7)
INCHIAUX=N/A
PUBMED=N/A
SUBMITUSER=mwang87
TAGS=
LIBRARYQUALITY=3
SPECTRUMID=CCMSLIB00000426594
SCANS=1566
44.0 42.158 
54.0 96.566 
59.0 66.253 
72.0 37.842 
82.0 43.062 
100.0 100.0 
END IONS

BEGIN IONS
PEPMASS=197.067
CHARGE=1+
MSLEVEL=2
SOURCE_INSTRUMENT=Positive-Quattro_QQQ:40eV
FILENAME=hmdb_intermediate.mgf
SEQ=*..*
IONMODE=Positive
ORGANISM=HMDB
NAME=HMDB:HMDB01982-1925 3,7-Dimethyluric acid M+H
PI=HMDB
DATACOLLECTOR=HMDB
SMILES=CN1C(=O)NC2=C1C(=O)NC(=O)N2C
INCHI=InChI=1S/C7H8N4O3/c1-10-3-4(8-6(10)13)11(2)7(14)9-5(3)12/h1-2H3,(H,8,13)(H,9,12,14)
INCHIAUX=N/A
PUBMED=N/A
SUBMITUSER=mwang87
TAGS=
LIBRARYQUALITY=3
SPECTRUMID=CCMSLIB00000426595
SCANS=1567
42.0 100.0 
53.0 11.512 
57.0 37.39 
68.0 66.463 
83.0 37.24 
85.0 8.476 
111.0 10.428 
139.0 8.66 
END IONS

BEGIN IONS
PEPMASS=131.034
CHARGE=1+
MSLEVEL=2
SOURCE_INSTRUMENT=Positive-Quattro_QQQ:25eV
FILENAME=hmdb_intermediate.mgf
SEQ=*..*
IONMODE=Positive
ORGANISM=HMDB
NAME=HMDB:HMDB00749-1069 Mesaconic acid M+H
PI=HMDB
DATACOLLECTOR=HMDB
SMILES=C\C(=C/C(O)=O)C(O)=O
INCHI=InChI=1S/C5H6O4/c1-3(5(8)9)2-4(6)7/h2H,1H3,(H,6,7)(H,8,9)/b3-2+
INCHIAUX=N/A
PUBMED=N/A
SUBMITUSER=mwang87
TAGS=
LIBRARYQUALITY=3
SPECTRUMID=CCMSLIB00000426596
SCANS=1568
67.0 67.641 
81.0 79.506 
85.0 100.0 
99.0 66.206 
131.0 32.235 
END IONS

BEGIN IONS
PEPMASS=427.096
CHARGE=1+
MSLEVEL=2
SOURCE_INSTRUMENT=Positive-Quattro_QQQ:10eV
FILENAME=hmdb_intermediate.mgf
SEQ=*..*
IONMODE=Positive
ORGANISM=HMDB
NAME=HMDB:HMDB00656-894 Cysteineglutathione disulfide M+H
PI=HMDB
DATACOLLECTOR=HMDB
SMILES=N[C@@H](CCC(=O)N[C@@H](CSSCC(N)C(O)=O)C(=O)NCC(O)=O)C(O)=O
INCHI=InChI=1S/C13H22N4O8S2/c14-6(12(22)23)1-2-9(18)17-8(11(21)16-3-10(19)20)5-27-26-4-7(15)13(24)25/h6-8H,1-5,14-15H2,(H,16,21)(H,17,18)(H,19,20)(H,22,23)(H,24,25)/t6-,7?,8-/m0/s1
INCHIAUX=N/A
PUBMED=N/A
SUBMITUSER=mwang87
TAGS=
LIBRARYQUALITY=3
SPECTRUMID=CCMSLIB00000426597
SCANS=1569
129.954 11.355 
149.47 10.736 
161.622 10.287 
179.789 15.346 
194.275 12.254 
194.52 11.917 
209.006 11.692 
230.735 13.266 
288.316 11.692 
298.507 100.0 
427.694 20.124 
END IONS

BEGIN IONS
PEPMASS=331.227
CHARGE=1+
MSLEVEL=2
SOURCE_INSTRUMENT=Positive-Quattro_QQQ:10eV
FILENAME=hmdb_intermediate.mgf
SEQ=*..*
IONMODE=Positive
ORGANISM=HMDB
NAME=HMDB:HMDB00016-28 Deoxycorticosterone M+H
PI=HMDB
DATACOLLECTOR=HMDB
SMILES=[H][C@@]12CC[C@H](C(=O)CO)[C@@]1(C)CC[C@@]1([H])[C@@]2([H])CCC2=CC(=O)CC[C@]12C
INCHI=InChI=1S/C21H30O3/c1-20-9-7-14(23)11-13(20)3-4-15-16-5-6-18(19(24)12-22)21(16,2)10-8-17(15)20/h11,15-18,22H,3-10,12H2,1-2H3/t15-,16-,17-,18+,20-,21-/m0/s1
INCHIAUX=N/A
PUBMED=N/A
SUBMITUSER=mwang87
TAGS=
LIBRARYQUALITY=3
SPECTRUMID=CCMSLIB00000426598
SCANS=1570
97.226 6.854 
109.181 3.744 
295.125 0.815 
313.081 0.755 
331.195 100.0 
END IONS

BEGIN IONS
PEPMASS=287.113
CHARGE=1+
MSLEVEL=2
SOURCE_INSTRUMENT=Positive-Quattro_QQQ:40eV
FILENAME=hmdb_intermediate.mgf
SEQ=*..*
IONMODE=Positive
ORGANISM=HMDB
NAME=HMDB:HMDB03546-2327 Salicin M+H
PI=HMDB
DATACOLLECTOR=HMDB
SMILES=OC[C@H]1O[C@@H](OC2=C(CO)C=CC=C2)[C@H](O)[C@@H](O)[C@@H]1O
INCHI=InChI=1S/C13H18O7/c14-5-7-3-1-2-4-8(7)19-13-12(18)11(17)10(16)9(6-15)20-13/h1-4,9-18H,5-6H2/t9-,10-,11+,12-,13-/m1/s1
INCHIAUX=N/A
PUBMED=N/A
SUBMITUSER=mwang87
TAGS=
LIBRARYQUALITY=3
SPECTRUMID=CCMSLIB00000426599
SCANS=1571
79.26 38.966 
107.04 100.0 
END IONS

BEGIN IONS
PEPMASS=163.04
CHARGE=1+
MSLEVEL=2
SOURCE_INSTRUMENT=Negative-Quattro_QQQ:40eV
FILENAME=hmdb_intermediate.mgf
SEQ=*..*
IONMODE=Negative
ORGANISM=HMDB
NAME=HMDB:HMDB01713-1677 m-Coumaric acid M-H
PI=HMDB
DATACOLLECTOR=HMDB
SMILES=OC(=O)\C=C\C1=CC=CC(O)=C1
INCHI=InChI=1S/C9H8O3/c10-8-3-1-2-7(6-8)4-5-9(11)12/h1-6,10H,(H,11,12)/b5-4+
INCHIAUX=N/A
PUBMED=N/A
SUBMITUSER=mwang87
TAGS=
LIBRARYQUALITY=3
SPECTRUMID=CCMSLIB00000426600
SCANS=1572
41.628 13.47 
51.529 14.978 
65.414 62.5 
93.201 100.0 
119.18 88.362 
END IONS

BEGIN IONS
PEPMASS=157.006
CHARGE=1+
MSLEVEL=2
SOURCE_INSTRUMENT=Positive-Quattro_QQQ:40eV
FILENAME=hmdb_intermediate.mgf
SEQ=*..*
IONMODE=Positive
ORGANISM=HMDB
NAME=HMDB:HMDB01544-1642 m-Chlorobenzoic acid M+H
PI=HMDB
DATACOLLECTOR=HMDB
SMILES=OC(=O)C1=CC(Cl)=CC=C1
INCHI=InChI=1S/C7H5ClO2/c8-6-3-1-2-5(4-6)7(9)10/h1-4H,(H,9,10)
INCHIAUX=N/A
PUBMED=N/A
SUBMITUSER=mwang87
TAGS=
LIBRARYQUALITY=3
SPECTRUMID=CCMSLIB00000426601
SCANS=1573
46.0 9.909 
63.0 100.0 
78.0 96.598 
END IONS

BEGIN IONS
PEPMASS=300.29
CHARGE=1+
MSLEVEL=2
SOURCE_INSTRUMENT=Positive-Quattro_QQQ:25eV
FILENAME=hmdb_intermediate.mgf
SEQ=*..*
IONMODE=Positive
ORGANISM=HMDB
NAME=HMDB:HMDB00252-434 Sphingosine M+H
PI=HMDB
DATACOLLECTOR=HMDB
SMILES=CCCCCCCCCCCCC\C=C\C(O)C(N)CO
INCHI=InChI=1S/C18H37NO2/c1-2-3-4-5-6-7-8-9-10-11-12-13-14-15-18(21)17(19)16-20/h14-15,17-18,20-21H,2-13,16,19H2,1H3/b15-14+
INCHIAUX=N/A
PUBMED=N/A
SUBMITUSER=mwang87
TAGS=
LIBRARYQUALITY=3
SPECTRUMID=CCMSLIB00000426602
SCANS=1574
54.0 12.269 
56.0 100.0 
68.0 38.619 
82.0 39.748 
94.0 20.587 
95.0 30.912 
108.0 16.785 
120.0 11.686 
252.0 13.239 
263.0 21.387 
281.0 27.022 
END IONS

BEGIN IONS
PEPMASS=359.147
CHARGE=1+
MSLEVEL=2
SOURCE_INSTRUMENT=Positive-Quattro_QQQ:25eV
FILENAME=hmdb_intermediate.mgf
SEQ=*..*
IONMODE=Positive
ORGANISM=HMDB
NAME=HMDB:HMDB01069-1416 2-Phenylaminoadenosine M+H
PI=HMDB
DATACOLLECTOR=HMDB
SMILES=NC1=C2N=CN(C3OC(CO)C(O)C3O)C2=NC(NC2=CC=CC=C2)=N1
INCHI=InChI=1S/C16H18N6O4/c17-13-10-14(21-16(20-13)19-8-4-2-1-3-5-8)22(7-18-10)15-12(25)11(24)9(6-23)26-15/h1-5,7,9,11-12,15,23-25H,6H2,(H3,17,19,20,21)
INCHIAUX=N/A
PUBMED=N/A
SUBMITUSER=mwang87
TAGS=
LIBRARYQUALITY=3
SPECTRUMID=CCMSLIB00000426603
SCANS=1575
226.86 100.0 
END IONS

BEGIN IONS
PEPMASS=287.237
CHARGE=1+
MSLEVEL=2
SOURCE_INSTRUMENT=Positive-Quattro_QQQ:25eV
FILENAME=hmdb_intermediate.mgf
SEQ=*..*
IONMODE=Positive
ORGANISM=HMDB
NAME=HMDB:HMDB00305-520 Vitamin A M+H
PI=HMDB
DATACOLLECTOR=HMDB
SMILES=C\C(=C/CO)\C=C\C=C(/C)\C=C\C1=C(C)CCCC1(C)C
INCHI=InChI=1S/C20H30O/c1-16(8-6-9-17(2)13-15-21)11-12-19-18(3)10-7-14-20(19,4)5/h6,8-9,11-13,21H,7,10,14-15H2,1-5H3/b9-6+,12-11+,16-8+,17-13+
INCHIAUX=N/A
PUBMED=N/A
SUBMITUSER=mwang87
TAGS=
LIBRARYQUALITY=3
SPECTRUMID=CCMSLIB00000426604
SCANS=1576
55.301 12.753 
69.204 39.189 
81.102 26.351 
93.14 30.405 
95.091 50.0 
109.035 31.757 
121.035 100.0 
132.972 31.419 
137.048 26.689 
150.992 27.027 
161.08 16.639 
171.028 12.331 
174.916 12.584 
185.099 12.5 
199.295 8.024 
216.966 12.078 
244.947 13.936 
END IONS

BEGIN IONS
PEPMASS=146.093
CHARGE=1+
MSLEVEL=2
SOURCE_INSTRUMENT=Positive-Quattro_QQQ:10eV
FILENAME=hmdb_intermediate.mgf
SEQ=*..*
IONMODE=Positive
ORGANISM=HMDB
NAME=HMDB:HMDB03464-2319 4-Guanidinobutanoic acid M+H
PI=HMDB
DATACOLLECTOR=HMDB
SMILES=NC(N)=NCCCC(O)=O
INCHI=InChI=1S/C5H11N3O2/c6-5(7)8-3-1-2-4(9)10/h1-3H2,(H,9,10)(H4,6,7,8)
INCHIAUX=N/A
PUBMED=N/A
SUBMITUSER=mwang87
TAGS=
LIBRARYQUALITY=3
SPECTRUMID=CCMSLIB00000426605
SCANS=1577
86.0 13.672 
104.0 6.209 
128.0 5.32 
146.0 100.0 
END IONS

BEGIN IONS
PEPMASS=171.139
CHARGE=1+
MSLEVEL=2
SOURCE_INSTRUMENT=Positive-Quattro_QQQ:25eV
FILENAME=hmdb_intermediate.mgf
SEQ=*..*
IONMODE=Positive
ORGANISM=HMDB
NAME=HMDB:HMDB04980-2416 cis-4-Decenoic acid M+H
PI=HMDB
DATACOLLECTOR=HMDB
SMILES=CCCCC\C=C/CCC(O)=O
INCHI=InChI=1S/C10H18O2/c1-2-3-4-5-6-7-8-9-10(11)12/h6-7H,2-5,8-9H2,1H3,(H,11,12)/b7-6-
INCHIAUX=N/A
PUBMED=N/A
SUBMITUSER=mwang87
TAGS=
LIBRARYQUALITY=3
SPECTRUMID=CCMSLIB00000426606
SCANS=1578
43.0 100.0 
55.0 48.932 
71.0 56.414 
82.0 23.167 
93.0 27.647 
95.0 30.821 
113.0 29.484 
END IONS

BEGIN IONS
PEPMASS=260.186
CHARGE=1+
MSLEVEL=2
SOURCE_INSTRUMENT=Positive-Quattro_QQQ:40eV
FILENAME=hmdb_intermediate.mgf
SEQ=*..*
IONMODE=Positive
ORGANISM=HMDB
NAME=HMDB:HMDB00705-986 Hexanoylcarnitine M+H
PI=HMDB
DATACOLLECTOR=HMDB
SMILES=CCCCCC(=O)OC(CC([O-])=O)C[N+](C)(C)C
INCHI=InChI=1S/C13H25NO4/c1-5-6-7-8-13(17)18-11(9-12(15)16)10-14(2,3)4/h11H,5-10H2,1-4H3
INCHIAUX=N/A
PUBMED=N/A
SUBMITUSER=mwang87
TAGS=
LIBRARYQUALITY=3
SPECTRUMID=CCMSLIB00000426607
SCANS=1579
43.598 17.219 
57.468 18.367 
71.372 3.284 
85.201 100.0 
END IONS

BEGIN IONS
PEPMASS=268.105
CHARGE=1+
MSLEVEL=2
SOURCE_INSTRUMENT=Positive-Quattro_QQQ:25eV
FILENAME=hmdb_intermediate.mgf
SEQ=*..*
IONMODE=Positive
ORGANISM=HMDB
NAME=HMDB:HMDB00085-136 Deoxyguanosine M+H
PI=HMDB
DATACOLLECTOR=HMDB
SMILES=NC1=NC2=C(N=CN2[C@H]2C[C@H](O)[C@@H](CO)O2)C(=O)N1
INCHI=InChI=1S/C10H13N5O4/c11-10-13-8-7(9(18)14-10)12-3-15(8)6-1-4(17)5(2-16)19-6/h3-6,16-17H,1-2H2,(H3,11,13,14,18)/t4-,5+,6+/m0/s1
INCHIAUX=N/A
PUBMED=N/A
SUBMITUSER=mwang87
TAGS=
LIBRARYQUALITY=3
SPECTRUMID=CCMSLIB00000426608
SCANS=1580
43.298 2.38 
73.071 4.524 
98.997 3.661 
109.904 4.367 
116.962 4.576 
134.897 15.586 
151.911 100.0 
END IONS

BEGIN IONS
PEPMASS=157.159
CHARGE=1+
MSLEVEL=2
SOURCE_INSTRUMENT=Positive-Quattro_QQQ:40eV
FILENAME=hmdb_intermediate.mgf
SEQ=*..*
IONMODE=Positive
ORGANISM=HMDB
NAME=HMDB:HMDB03352-2261 Menthol M+H
PI=HMDB
DATACOLLECTOR=HMDB
SMILES=CC(C)[C@@H]1CC[C@@H](C)C[C@H]1O
INCHI=InChI=1S/C10H20O/c1-7(2)9-5-4-8(3)6-10(9)11/h7-11H,4-6H2,1-3H3/t8-,9+,10-/m1/s1
INCHIAUX=N/A
PUBMED=N/A
SUBMITUSER=mwang87
TAGS=
LIBRARYQUALITY=3
SPECTRUMID=CCMSLIB00000426609
SCANS=1581
41.0 93.988 
45.0 100.0 
74.0 76.437 
76.0 64.34 
END IONS

BEGIN IONS
PEPMASS=293.248
CHARGE=1+
MSLEVEL=2
SOURCE_INSTRUMENT=Positive-Quattro_QQQ:10eV
FILENAME=hmdb_intermediate.mgf
SEQ=*..*
IONMODE=Positive
ORGANISM=HMDB
NAME=HMDB:HMDB00493-713 5a-Androstane-3b,17b-diol M+H
PI=HMDB
DATACOLLECTOR=HMDB
SMILES=[H][C@@]12CC[C@H](O)[C@@]1(C)CC[C@@]1([H])[C@@]2([H])CC[C@@]2([H])C[C@@H](O)CC[C@]12C
INCHI=InChI=1S/C19H32O2/c1-18-9-7-13(20)11-12(18)3-4-14-15-5-6-17(21)19(15,2)10-8-16(14)18/h12-17,20-21H,3-11H2,1-2H3/t12-,13-,14-,15-,16-,17-,18-,19-/m0/s1
INCHIAUX=N/A
PUBMED=N/A
SUBMITUSER=mwang87
TAGS=
LIBRARYQUALITY=3
SPECTRUMID=CCMSLIB00000426610
SCANS=1582
102.27 33.108 
116.262 11.824 
131.973 14.865 
149.28 100.0 
170.516 52.704 
181.318 38.008 
211.394 33.783 
END IONS

BEGIN IONS
PEPMASS=132.15
CHARGE=1+
MSLEVEL=2
SOURCE_INSTRUMENT=Positive-Quattro_QQQ:10eV
FILENAME=hmdb_intermediate.mgf
SEQ=*..*
IONMODE=Positive
ORGANISM=HMDB
NAME=HMDB:HMDB11634-2493 Norspermidine M+H
PI=HMDB
DATACOLLECTOR=HMDB
SMILES=NCCCNCCCN
INCHI=InChI=1S/C6H17N3/c7-3-1-5-9-6-2-4-8/h9H,1-8H2
INCHIAUX=N/A
PUBMED=N/A
SUBMITUSER=mwang87
TAGS=
LIBRARYQUALITY=3
SPECTRUMID=CCMSLIB00000426611
SCANS=1583
131.86 100.0 
END IONS

BEGIN IONS
PEPMASS=483.992
CHARGE=1+
MSLEVEL=2
SOURCE_INSTRUMENT=Positive-Quattro_QQQ:40eV
FILENAME=hmdb_intermediate.mgf
SEQ=*..*
IONMODE=Positive
ORGANISM=HMDB
NAME=HMDB:HMDB00082-134 Cytidine triphosphate M+H
PI=HMDB
DATACOLLECTOR=HMDB
SMILES=NC1=NC(=O)N(C=C1)[C@@H]1O[C@H](COP(O)(=O)OP(O)(=O)OP(O)(O)=O)[C@@H](O)[C@H]1O
INCHI=InChI=1S/C9H16N3O14P3/c10-5-1-2-12(9(15)11-5)8-7(14)6(13)4(24-8)3-23-28(19,20)26-29(21,22)25-27(16,17)18/h1-2,4,6-8,13-14H,3H2,(H,19,20)(H,21,22)(H2,10,11,15)(H2,16,17,18)/t4-,6-,7-,8-/m1/s1
INCHIAUX=N/A
PUBMED=N/A
SUBMITUSER=mwang87
TAGS=
LIBRARYQUALITY=3
SPECTRUMID=CCMSLIB00000426612
SCANS=1584
58.033 44.828 
103.688 44.828 
116.085 44.828 
128.727 58.621 
160.763 39.655 
168.496 44.828 
215.88 43.103 
243.134 50.0 
308.207 51.724 
333.011 67.241 
358.184 44.828 
365.429 39.655 
406.938 41.379 
438.01 51.724 
447.959 39.655 
497.334 100.0 
END IONS

BEGIN IONS
PEPMASS=189.124
CHARGE=1+
MSLEVEL=2
SOURCE_INSTRUMENT=Positive-Quattro_QQQ:25eV
FILENAME=hmdb_intermediate.mgf
SEQ=*..*
IONMODE=Positive
ORGANISM=HMDB
NAME=HMDB:HMDB00206-332 N6-Acetyl-L-lysine M+H
PI=HMDB
DATACOLLECTOR=HMDB
SMILES=CC(=O)NCCCC[C@H](N)C(O)=O
INCHI=InChI=1S/C8H16N2O3/c1-6(11)10-5-3-2-4-7(9)8(12)13/h7H,2-5,9H2,1H3,(H,10,11)(H,12,13)/t7-/m0/s1
INCHIAUX=N/A
PUBMED=N/A
SUBMITUSER=mwang87
TAGS=
LIBRARYQUALITY=3
SPECTRUMID=CCMSLIB00000426613
SCANS=1585
56.187 2.304 
84.121 100.0 
126.001 5.858 
END IONS

BEGIN IONS
PEPMASS=175.061
CHARGE=1+
MSLEVEL=2
SOURCE_INSTRUMENT=Negative-Quattro_QQQ:40eV
FILENAME=hmdb_intermediate.mgf
SEQ=*..*
IONMODE=Negative
ORGANISM=HMDB
NAME=HMDB:HMDB00402-611 2-Isopropylmalic acid M-H
PI=HMDB
DATACOLLECTOR=HMDB
SMILES=CC(C)[C@@](O)(CC(O)=O)C(O)=O
INCHI=InChI=1S/C7H12O5/c1-4(2)7(12,6(10)11)3-5(8)9/h4,12H,3H2,1-2H3,(H,8,9)(H,10,11)/t7-/m0/s1
INCHIAUX=N/A
PUBMED=N/A
SUBMITUSER=mwang87
TAGS=
LIBRARYQUALITY=3
SPECTRUMID=CCMSLIB00000426614
SCANS=1586
41.631 48.929 
45.541 41.071 
59.426 85.714 
71.364 30.714 
85.324 100.0 
113.414 20.625 
115.176 57.857 
174.164 8.482 
175.233 22.5 
END IONS

BEGIN IONS
PEPMASS=116.071
CHARGE=1+
MSLEVEL=2
SOURCE_INSTRUMENT=Positive-Quattro_QQQ:40eV
FILENAME=hmdb_intermediate.mgf
SEQ=*..*
IONMODE=Positive
ORGANISM=HMDB
NAME=HMDB:HMDB00162-256 L-Proline M+H
PI=HMDB
DATACOLLECTOR=HMDB
SMILES=OC(=O)[C@@H]1CCCN1
INCHI=InChI=1S/C5H9NO2/c7-5(8)4-2-1-3-6-4/h4,6H,1-3H2,(H,7,8)/t4-/m0/s1
INCHIAUX=N/A
PUBMED=N/A
SUBMITUSER=mwang87
TAGS=
LIBRARYQUALITY=3
SPECTRUMID=CCMSLIB00000426615
SCANS=1587
43.225 28.659 
70.117 100.0 
115.973 11.484 
END IONS

BEGIN IONS
PEPMASS=245.077
CHARGE=1+
MSLEVEL=2
SOURCE_INSTRUMENT=Positive-Quattro_QQQ:25eV
FILENAME=hmdb_intermediate.mgf
SEQ=*..*
IONMODE=Positive
ORGANISM=HMDB
NAME=HMDB:HMDB00296-505 Uridine M+H
PI=HMDB
DATACOLLECTOR=HMDB
SMILES=OC[C@H]1O[C@H]([C@H](O)[C@@H]1O)N1C=CC(=O)NC1=O
INCHI=InChI=1S/C9H12N2O6/c12-3-4-6(14)7(15)8(17-4)11-2-1-5(13)10-9(11)16/h1-2,4,6-8,12,14-15H,3H2,(H,10,13,16)/t4-,6-,7-,8-/m1/s1
INCHIAUX=N/A
PUBMED=N/A
SUBMITUSER=mwang87
TAGS=
LIBRARYQUALITY=3
SPECTRUMID=CCMSLIB00000426616
SCANS=1588
57.226 6.883 
70.099 12.184 
85.073 4.767 
96.003 6.487 
112.991 100.0 
END IONS

BEGIN IONS
PEPMASS=269.063
CHARGE=1+
MSLEVEL=2
SOURCE_INSTRUMENT=Positive-Quattro_QQQ:40eV
FILENAME=hmdb_intermediate.mgf
SEQ=*..*
IONMODE=Positive
ORGANISM=HMDB
NAME=HMDB:HMDB00676-938 L-Homocystine M+H
PI=HMDB
DATACOLLECTOR=HMDB
SMILES=NC(CCSSCC[C@H](N)C(O)=O)C(O)=O
INCHI=InChI=1S/C8H16N2O4S2/c9-5(7(11)12)1-3-15-16-4-2-6(10)8(13)14/h5-6H,1-4,9-10H2,(H,11,12)(H,13,14)/t5-,6?/m0/s1
INCHIAUX=N/A
PUBMED=N/A
SUBMITUSER=mwang87
TAGS=
LIBRARYQUALITY=3
SPECTRUMID=CCMSLIB00000426617
SCANS=1589
56.0 24.828 
87.0 100.0 
133.0 8.553 
END IONS

BEGIN IONS
PEPMASS=163.061
CHARGE=1+
MSLEVEL=2
SOURCE_INSTRUMENT=Positive-Quattro_QQQ:25eV
FILENAME=hmdb_intermediate.mgf
SEQ=*..*
IONMODE=Positive
ORGANISM=HMDB
NAME=HMDB:HMDB00640-877 Levoglucosan M+H
PI=HMDB
DATACOLLECTOR=HMDB
SMILES=[H][C@@]12OC[C@@H](O1)[C@@H](O)[C@H](O)[C@H]2O
INCHI=InChI=1S/C6H10O5/c7-3-2-1-10-6(11-2)5(9)4(3)8/h2-9H,1H2/t2-,3-,4+,5-,6-/m1/s1
INCHIAUX=N/A
PUBMED=N/A
SUBMITUSER=mwang87
TAGS=
LIBRARYQUALITY=3
SPECTRUMID=CCMSLIB00000426618
SCANS=1590
43.348 51.736 
45.339 43.056 
57.237 60.764 
69.158 93.056 
81.111 22.569 
85.093 100.0 
97.03 17.014 
107.079 44.792 
END IONS

BEGIN IONS
PEPMASS=121.065
CHARGE=1+
MSLEVEL=2
SOURCE_INSTRUMENT=Positive-Quattro_QQQ:10eV
FILENAME=hmdb_intermediate.mgf
SEQ=*..*
IONMODE=Positive
ORGANISM=HMDB
NAME=HMDB:HMDB06236-2478 Phenylacetaldehyde M+H
PI=HMDB
DATACOLLECTOR=HMDB
SMILES=O=CCC1=CC=CC=C1
INCHI=InChI=1S/C8H8O/c9-7-6-8-4-2-1-3-5-8/h1-5,7H,6H2
INCHIAUX=N/A
PUBMED=N/A
SUBMITUSER=mwang87
TAGS=
LIBRARYQUALITY=3
SPECTRUMID=CCMSLIB00000426619
SCANS=1591
63.0 15.983 
71.0 14.834 
79.0 16.81 
85.0 36.703 
103.0 100.0 
121.0 44.3 
END IONS

BEGIN IONS
PEPMASS=343.124
CHARGE=1+
MSLEVEL=2
SOURCE_INSTRUMENT=Positive-Quattro_QQQ:40eV
FILENAME=hmdb_intermediate.mgf
SEQ=*..*
IONMODE=Positive
ORGANISM=HMDB
NAME=HMDB:HMDB02923-2165 Isomaltose M+H
PI=HMDB
DATACOLLECTOR=HMDB
SMILES=OC[C@H]1O[C@H](OC[C@H]2OC(O)[C@H](O)[C@@H](O)[C@@H]2O)[C@H](O)[C@@H](O)[C@@H]1O
INCHI=InChI=1S/C12H22O11/c13-1-3-5(14)8(17)10(19)12(23-3)21-2-4-6(15)7(16)9(18)11(20)22-4/h3-20H,1-2H2/t3-,4-,5-,6-,7+,8+,9-,10-,11?,12+/m1/s1
INCHIAUX=N/A
PUBMED=N/A
SUBMITUSER=mwang87
TAGS=
LIBRARYQUALITY=3
SPECTRUMID=CCMSLIB00000426620
SCANS=1592
69.0 46.745 
85.0 100.0 
97.0 40.536 
END IONS

BEGIN IONS
PEPMASS=163.04
CHARGE=1+
MSLEVEL=2
SOURCE_INSTRUMENT=Negative-Quattro_QQQ:25eV
FILENAME=hmdb_intermediate.mgf
SEQ=*..*
IONMODE=Negative
ORGANISM=HMDB
NAME=HMDB:HMDB01713-1676 m-Coumaric acid M-H
PI=HMDB
DATACOLLECTOR=HMDB
SMILES=OC(=O)\C=C\C1=CC=CC(O)=C1
INCHI=InChI=1S/C9H8O3/c10-8-3-1-2-7(6-8)4-5-9(11)12/h1-6,10H,(H,11,12)/b5-4+
INCHIAUX=N/A
PUBMED=N/A
SUBMITUSER=mwang87
TAGS=
LIBRARYQUALITY=3
SPECTRUMID=CCMSLIB00000426621
SCANS=1593
65.43 3.89 
91.337 30.07 
119.196 100.0 
END IONS

BEGIN IONS
PEPMASS=151.061
CHARGE=1+
MSLEVEL=2
SOURCE_INSTRUMENT=Positive-Quattro_QQQ:10eV
FILENAME=hmdb_intermediate.mgf
SEQ=*..*
IONMODE=Positive
ORGANISM=HMDB
NAME=HMDB:HMDB00621-840 D-Ribulose M+H
PI=HMDB
DATACOLLECTOR=HMDB
SMILES=OC[C@@H](O)[C@@H](O)C(=O)CO
INCHI=InChI=1S/C5H10O5/c6-1-3(8)5(10)4(9)2-7/h3,5-8,10H,1-2H2/t3-,5-/m1/s1
INCHIAUX=N/A
PUBMED=N/A
SUBMITUSER=mwang87
TAGS=
LIBRARYQUALITY=3
SPECTRUMID=CCMSLIB00000426622
SCANS=1594
69.0 31.4035888738 
89.5 100.0 
98.5 5.5329415423 
114.0 31.0116078697 
115.1 2.6383234396 
151.1 2.4875621891 
END IONS

BEGIN IONS
PEPMASS=192.102
CHARGE=1+
MSLEVEL=2
SOURCE_INSTRUMENT=Positive-Quattro_QQQ:25eV
FILENAME=hmdb_intermediate.mgf
SEQ=*..*
IONMODE=Positive
ORGANISM=HMDB
NAME=HMDB:HMDB01896-1814 5-Methoxytryptophol M+H
PI=HMDB
DATACOLLECTOR=HMDB
SMILES=COC1=CC=C2NC=C(CCO)C2=C1
INCHI=InChI=1S/C11H13NO2/c1-14-9-2-3-11-10(6-9)8(4-5-13)7-12-11/h2-3,6-7,12-13H,4-5H2,1H3
INCHIAUX=N/A
PUBMED=N/A
SUBMITUSER=mwang87
TAGS=
LIBRARYQUALITY=3
SPECTRUMID=CCMSLIB00000426623
SCANS=1595
115.0 10.387 
131.0 60.278 
143.0 54.358 
146.0 10.941 
159.0 100.0 
174.0 25.222 
END IONS

BEGIN IONS
PEPMASS=109.065
CHARGE=1+
MSLEVEL=2
SOURCE_INSTRUMENT=Positive-Quattro_QQQ:25eV
FILENAME=hmdb_intermediate.mgf
SEQ=*..*
IONMODE=Positive
ORGANISM=HMDB
NAME=HMDB:HMDB02048-1969 m-Cresol M+H
PI=HMDB
DATACOLLECTOR=HMDB
SMILES=CC1=CC(O)=CC=C1
INCHI=InChI=1S/C7H8O/c1-6-3-2-4-7(8)5-6/h2-5,8H,1H3
INCHIAUX=N/A
PUBMED=N/A
SUBMITUSER=mwang87
TAGS=
LIBRARYQUALITY=3
SPECTRUMID=CCMSLIB00000426624
SCANS=1596
39.0 14.534 
65.0 62.979 
77.0 15.496 
94.0 100.0 
109.0 7.766 
END IONS

BEGIN IONS
PEPMASS=163.108
CHARGE=1+
MSLEVEL=2
SOURCE_INSTRUMENT=Positive-Quattro_QQQ:40eV
FILENAME=hmdb_intermediate.mgf
SEQ=*..*
IONMODE=Positive
ORGANISM=HMDB
NAME=HMDB:HMDB00450-658 5-Hydroxylysine M+H
PI=HMDB
DATACOLLECTOR=HMDB
SMILES=NC[C@H](O)CC[C@H](N)C(O)=O
INCHI=InChI=1S/C6H14N2O3/c7-3-4(9)1-2-5(8)6(10)11/h4-5,9H,1-3,7-8H2,(H,10,11)/t4-,5+/m1/s1
INCHIAUX=N/A
PUBMED=N/A
SUBMITUSER=mwang87
TAGS=
LIBRARYQUALITY=3
SPECTRUMID=CCMSLIB00000426625
SCANS=1597
74.0 46.752 
82.0 100.0 
END IONS

BEGIN IONS
PEPMASS=87.0446
CHARGE=1+
MSLEVEL=2
SOURCE_INSTRUMENT=Positive-Quattro_QQQ:10eV
FILENAME=hmdb_intermediate.mgf
SEQ=*..*
IONMODE=Positive
ORGANISM=HMDB
NAME=HMDB:HMDB00549-773 Gamma-Butyrolactone M+H
PI=HMDB
DATACOLLECTOR=HMDB
SMILES=O=C1CCCO1
INCHI=InChI=1S/C4H6O2/c5-4-2-1-3-6-4/h1-3H2
INCHIAUX=N/A
PUBMED=N/A
SUBMITUSER=mwang87
TAGS=
LIBRARYQUALITY=3
SPECTRUMID=CCMSLIB00000426626
SCANS=1598
87.1 100.0 
END IONS

BEGIN IONS
PEPMASS=130.109
CHARGE=1+
MSLEVEL=2
SOURCE_INSTRUMENT=Positive-Quattro_QQQ:40eV
FILENAME=hmdb_intermediate.mgf
SEQ=*..*
IONMODE=Positive
ORGANISM=HMDB
NAME=HMDB:HMDB01921-1845 1,1-Dimethylbiguanide M+H
PI=HMDB
DATACOLLECTOR=HMDB
SMILES=CN(C)C(=N)NC(N)=N
INCHI=InChI=1S/C4H11N5/c1-9(2)4(7)8-3(5)6/h1-2H3,(H5,5,6,7,8)
INCHIAUX=N/A
PUBMED=N/A
SUBMITUSER=mwang87
TAGS=
LIBRARYQUALITY=3
SPECTRUMID=CCMSLIB00000426627
SCANS=1599
60.0 16.4233305883 
71.04 100.0 
85.02 41.4455279373 
96.06 5.7369140414 
113.04 13.7358875471 
END IONS

BEGIN IONS
PEPMASS=32.05
CHARGE=1+
MSLEVEL=2
SOURCE_INSTRUMENT=Positive-Quattro_QQQ:40eV
FILENAME=hmdb_intermediate.mgf
SEQ=*..*
IONMODE=Positive
ORGANISM=HMDB
NAME=HMDB:HMDB60291-262 Methylammonium M+H
PI=HMDB
DATACOLLECTOR=HMDB
SMILES=CN
INCHI=InChI=1S/CH5N/c1-2/h2H2,1H3
INCHIAUX=N/A
PUBMED=N/A
SUBMITUSER=mwang87
TAGS=
LIBRARYQUALITY=3
SPECTRUMID=CCMSLIB00000426628
SCANS=1600
32.0 100.0 
END IONS

BEGIN IONS
PEPMASS=109.065
CHARGE=1+
MSLEVEL=2
SOURCE_INSTRUMENT=Positive-Quattro_QQQ:40eV
FILENAME=hmdb_intermediate.mgf
SEQ=*..*
IONMODE=Positive
ORGANISM=HMDB
NAME=HMDB:HMDB01858-1731 p-Cresol M+H
PI=HMDB
DATACOLLECTOR=HMDB
SMILES=CC1=CC=C(O)C=C1
INCHI=InChI=1S/C7H8O/c1-6-2-4-7(8)5-3-6/h2-5,8H,1H3
INCHIAUX=N/A
PUBMED=N/A
SUBMITUSER=mwang87
TAGS=
LIBRARYQUALITY=3
SPECTRUMID=CCMSLIB00000426629
SCANS=1601
39.0 85.212 
50.0 39.141 
64.0 89.2 
65.0 100.0 
76.0 41.681 
93.0 46.415 
END IONS

BEGIN IONS
PEPMASS=142.098
CHARGE=1+
MSLEVEL=2
SOURCE_INSTRUMENT=Positive-Quattro_QQQ:40eV
FILENAME=hmdb_intermediate.mgf
SEQ=*..*
IONMODE=Positive
ORGANISM=HMDB
NAME=HMDB:HMDB03431-2309 L-Histidinol M+H
PI=HMDB
DATACOLLECTOR=HMDB
SMILES=N[C@H](CO)CC1=CN=CN1
INCHI=InChI=1S/C6H11N3O/c7-5(3-10)1-6-2-8-4-9-6/h2,4-5,10H,1,3,7H2,(H,8,9)/t5-/m0/s1
INCHIAUX=N/A
PUBMED=N/A
SUBMITUSER=mwang87
TAGS=
LIBRARYQUALITY=3
SPECTRUMID=CCMSLIB00000426630
SCANS=1602
68.0 16.089 
81.0 100.0 
95.0 12.357 
END IONS

BEGIN IONS
PEPMASS=161.108
CHARGE=1+
MSLEVEL=2
SOURCE_INSTRUMENT=Positive-Quattro_QQQ:25eV
FILENAME=hmdb_intermediate.mgf
SEQ=*..*
IONMODE=Positive
ORGANISM=HMDB
NAME=HMDB:HMDB60064-517 Tryptamine M+H
PI=HMDB
DATACOLLECTOR=HMDB
SMILES=NCCC1=CNC2=CC=CC=C12
INCHI=InChI=1S/C10H12N2/c11-6-5-8-7-12-10-4-2-1-3-9(8)10/h1-4,7,12H,5-6,11H2
INCHIAUX=N/A
PUBMED=N/A
SUBMITUSER=mwang87
TAGS=
LIBRARYQUALITY=3
SPECTRUMID=CCMSLIB00000426631
SCANS=1603
77.122 4.317 
91.058 11.727 
103.058 4.51 
117.003 45.619 
127.067 26.804 
143.643 100.0 
END IONS

BEGIN IONS
PEPMASS=310.114
CHARGE=1+
MSLEVEL=2
SOURCE_INSTRUMENT=Positive-Quattro_QQQ:40eV
FILENAME=hmdb_intermediate.mgf
SEQ=*..*
IONMODE=Positive
ORGANISM=HMDB
NAME=HMDB:HMDB00230-387 N-Acetylneuraminic acid M+H
PI=HMDB
DATACOLLECTOR=HMDB
SMILES=CC(=O)N[C@@H]1[C@@H](O)C[C@](O)(O[C@H]1[C@H](O)[C@H](O)CO)C(O)=O
INCHI=InChI=1S/C11H19NO9/c1-4(14)12-7-5(15)2-11(20,10(18)19)21-9(7)8(17)6(16)3-13/h5-9,13,15-17,20H,2-3H2,1H3,(H,12,14)(H,18,19)/t5-,6+,7+,8+,9+,11-/m0/s1
INCHIAUX=N/A
PUBMED=N/A
SUBMITUSER=mwang87
TAGS=
LIBRARYQUALITY=3
SPECTRUMID=CCMSLIB00000426632
SCANS=1604
43.346 23.947 
45.345 15.789 
60.278 33.947 
68.38 41.579 
84.048 63.421 
94.173 44.737 
96.359 29.474 
108.335 17.368 
120.857 100.0 
132.053 14.013 
END IONS

BEGIN IONS
PEPMASS=112.04
CHARGE=1+
MSLEVEL=2
SOURCE_INSTRUMENT=Positive-Quattro_QQQ:10eV
FILENAME=hmdb_intermediate.mgf
SEQ=*..*
IONMODE=Positive
ORGANISM=HMDB
NAME=HMDB:HMDB04230-2376 Pyrrole-2-carboxylic acid M+H
PI=HMDB
DATACOLLECTOR=HMDB
SMILES=OC(=O)C1=CC=CN1
INCHI=InChI=1S/C5H5NO2/c7-5(8)4-2-1-3-6-4/h1-3,6H,(H,7,8)
INCHIAUX=N/A
PUBMED=N/A
SUBMITUSER=mwang87
TAGS=
LIBRARYQUALITY=3
SPECTRUMID=CCMSLIB00000426633
SCANS=1605
68.0 100.0 
94.14 14.238 
111.84 13.664 
END IONS

BEGIN IONS
PEPMASS=61.0402
CHARGE=1+
MSLEVEL=2
SOURCE_INSTRUMENT=Positive-Quattro_QQQ:25eV
FILENAME=hmdb_intermediate.mgf
SEQ=*..*
IONMODE=Positive
ORGANISM=HMDB
NAME=HMDB:HMDB00294-499 Urea M+H
PI=HMDB
DATACOLLECTOR=HMDB
SMILES=NC(N)=O
INCHI=InChI=1S/CH4N2O/c2-1(3)4/h(H4,2,3,4)
INCHIAUX=N/A
PUBMED=N/A
SUBMITUSER=mwang87
TAGS=
LIBRARYQUALITY=3
SPECTRUMID=CCMSLIB00000426634
SCANS=1606
44.0 72.173 
61.0 100.0 
END IONS

BEGIN IONS
PEPMASS=154.05
CHARGE=1+
MSLEVEL=2
SOURCE_INSTRUMENT=Positive-Quattro_QQQ:40eV
FILENAME=hmdb_intermediate.mgf
SEQ=*..*
IONMODE=Positive
ORGANISM=HMDB
NAME=HMDB:HMDB01972-1916 3-Aminosalicylic acid M+H
PI=HMDB
DATACOLLECTOR=HMDB
SMILES=NC1=CC=CC(C(O)=O)=C1O
INCHI=InChI=1S/C7H7NO3/c8-5-3-1-2-4(6(5)9)7(10)11/h1-3,9H,8H2,(H,10,11)
INCHIAUX=N/A
PUBMED=N/A
SUBMITUSER=mwang87
TAGS=
LIBRARYQUALITY=3
SPECTRUMID=CCMSLIB00000426635
SCANS=1607
63.0 100.0 
80.0 69.934 
90.0 43.984 
108.0 8.862 
136.0 4.268 
END IONS

BEGIN IONS
PEPMASS=289.217
CHARGE=1+
MSLEVEL=2
SOURCE_INSTRUMENT=Positive-Quattro_QQQ:10eV
FILENAME=hmdb_intermediate.mgf
SEQ=*..*
IONMODE=Positive
ORGANISM=HMDB
NAME=HMDB:HMDB00234-391 Testosterone M+H
PI=HMDB
DATACOLLECTOR=HMDB
SMILES=[H][C@@]12CC[C@H](O)[C@@]1(C)CC[C@@]1([H])[C@@]2([H])CCC2=CC(=O)CC[C@]12C
INCHI=InChI=1S/C19H28O2/c1-18-9-7-13(20)11-12(18)3-4-14-15-5-6-17(21)19(15,2)10-8-16(14)18/h11,14-17,21H,3-10H2,1-2H3/t14-,15-,16-,17-,18-,19-/m0/s1
INCHIAUX=N/A
PUBMED=N/A
SUBMITUSER=mwang87
TAGS=
LIBRARYQUALITY=3
SPECTRUMID=CCMSLIB00000426636
SCANS=1608
97.097 8.367 
109.057 4.26 
253.1 1.499 
271.117 1.276 
289.198 100.0 
END IONS

BEGIN IONS
PEPMASS=184.985
CHARGE=1+
MSLEVEL=2
SOURCE_INSTRUMENT=Negative-Quattro_QQQ:40eV
FILENAME=hmdb_intermediate.mgf
SEQ=*..*
IONMODE=Negative
ORGANISM=HMDB
NAME=HMDB:HMDB00807-1154 3-Phosphoglyceric acid M-H
PI=HMDB
DATACOLLECTOR=HMDB
SMILES=OC(COP(O)(O)=O)C(O)=O
INCHI=InChI=1S/C3H7O7P/c4-2(3(5)6)1-10-11(7,8)9/h2,4H,1H2,(H,5,6)(H2,7,8,9)
INCHIAUX=N/A
PUBMED=N/A
SUBMITUSER=mwang87
TAGS=
LIBRARYQUALITY=3
SPECTRUMID=CCMSLIB00000426637
SCANS=1609
79.0 100.0 
97.0 10.994 
END IONS

BEGIN IONS
PEPMASS=104.071
CHARGE=1+
MSLEVEL=2
SOURCE_INSTRUMENT=Positive-Quattro_QQQ:25eV
FILENAME=hmdb_intermediate.mgf
SEQ=*..*
IONMODE=Positive
ORGANISM=HMDB
NAME=HMDB:HMDB03911-2350 3-Aminoisobutanoic acid M+H
PI=HMDB
DATACOLLECTOR=HMDB
SMILES=CC(CN)C(O)=O
INCHI=InChI=1S/C4H9NO2/c1-3(2-5)4(6)7/h3H,2,5H2,1H3,(H,6,7)
INCHIAUX=N/A
PUBMED=N/A
SUBMITUSER=mwang87
TAGS=
LIBRARYQUALITY=3
SPECTRUMID=CCMSLIB00000426638
SCANS=1610
73.0 26.105 
75.0 10.195 
86.0 55.023 
104.0 100.0 
105.0 9.062 
END IONS

BEGIN IONS
PEPMASS=148.076
CHARGE=1+
MSLEVEL=2
SOURCE_INSTRUMENT=Positive-Quattro_QQQ:10eV
FILENAME=hmdb_intermediate.mgf
SEQ=*..*
IONMODE=Positive
ORGANISM=HMDB
NAME=HMDB:HMDB05785-2442 Indole-3-carbinol M+H
PI=HMDB
DATACOLLECTOR=HMDB
SMILES=OCC1=CNC2=CC=CC=C12
INCHI=InChI=1S/C9H9NO/c11-6-7-5-10-9-4-2-1-3-8(7)9/h1-5,10-11H,6H2
INCHIAUX=N/A
PUBMED=N/A
SUBMITUSER=mwang87
TAGS=
LIBRARYQUALITY=3
SPECTRUMID=CCMSLIB00000426639
SCANS=1611
90.0 66.466 
119.0 100.0 
147.0 82.9 
END IONS

BEGIN IONS
PEPMASS=210.077
CHARGE=1+
MSLEVEL=2
SOURCE_INSTRUMENT=Positive-Quattro_QQQ:10eV
FILENAME=hmdb_intermediate.mgf
SEQ=*..*
IONMODE=Positive
ORGANISM=HMDB
NAME=HMDB:HMDB00735-1041 Hydroxyphenylacetylglycine M+H
PI=HMDB
DATACOLLECTOR=HMDB
SMILES=OC(=O)CNC(=O)CC1=CC=C(O)C=C1
INCHI=InChI=1S/C10H11NO4/c12-8-3-1-7(2-4-8)5-9(13)11-6-10(14)15/h1-4,12H,5-6H2,(H,11,13)(H,14,15)
INCHIAUX=N/A
PUBMED=N/A
SUBMITUSER=mwang87
TAGS=
LIBRARYQUALITY=3
SPECTRUMID=CCMSLIB00000426640
SCANS=1612
75.0 100.0 
106.0 66.341 
209.0 14.111 
END IONS

BEGIN IONS
PEPMASS=196.061
CHARGE=1+
MSLEVEL=2
SOURCE_INSTRUMENT=Positive-Quattro_QQQ:40eV
FILENAME=hmdb_intermediate.mgf
SEQ=*..*
IONMODE=Positive
ORGANISM=HMDB
NAME=HMDB:HMDB00840-1186 Salicyluric acid M+H
PI=HMDB
DATACOLLECTOR=HMDB
SMILES=OC(=O)CNC(=O)C1=CC=CC=C1O
INCHI=InChI=1S/C9H9NO4/c11-7-4-2-1-3-6(7)9(14)10-5-8(12)13/h1-4,11H,5H2,(H,10,14)(H,12,13)
INCHIAUX=N/A
PUBMED=N/A
SUBMITUSER=mwang87
TAGS=
LIBRARYQUALITY=3
SPECTRUMID=CCMSLIB00000426641
SCANS=1613
65.149 100.0 
93.013 55.108 
120.893 51.075 
END IONS

BEGIN IONS
PEPMASS=183.066
CHARGE=1+
MSLEVEL=2
SOURCE_INSTRUMENT=Negative-Quattro_QQQ:40eV
FILENAME=hmdb_intermediate.mgf
SEQ=*..*
IONMODE=Negative
ORGANISM=HMDB
NAME=HMDB:HMDB01490-1609 Vanylglycol M-H
PI=HMDB
DATACOLLECTOR=HMDB
SMILES=COC1=CC(=CC=C1O)C(O)CO
INCHI=InChI=1S/C9H12O4/c1-13-9-4-6(8(12)5-10)2-3-7(9)11/h2-4,8,10-12H,5H2,1H3
INCHIAUX=N/A
PUBMED=N/A
SUBMITUSER=mwang87
TAGS=
LIBRARYQUALITY=3
SPECTRUMID=CCMSLIB00000426642
SCANS=1614
41.0 11.421 
65.0 6.036 
93.0 100.0 
121.0 73.377 
END IONS

BEGIN IONS
PEPMASS=143.107
CHARGE=1+
MSLEVEL=2
SOURCE_INSTRUMENT=Negative-Quattro_QQQ:10eV
FILENAME=hmdb_intermediate.mgf
SEQ=*..*
IONMODE=Negative
ORGANISM=HMDB
NAME=HMDB:HMDB00482-698 Caprylic acid M-H
PI=HMDB
DATACOLLECTOR=HMDB
SMILES=CCCCCCCC(O)=O
INCHI=InChI=1S/C8H16O2/c1-2-3-4-5-6-7-8(9)10/h2-7H2,1H3,(H,9,10)
INCHIAUX=N/A
PUBMED=N/A
SUBMITUSER=mwang87
TAGS=
LIBRARYQUALITY=3
SPECTRUMID=CCMSLIB00000426643
SCANS=1615
143.232 100.0 
END IONS

BEGIN IONS
PEPMASS=260.186
CHARGE=1+
MSLEVEL=2
SOURCE_INSTRUMENT=Positive-Quattro_QQQ:25eV
FILENAME=hmdb_intermediate.mgf
SEQ=*..*
IONMODE=Positive
ORGANISM=HMDB
NAME=HMDB:HMDB00756-1087 L-Hexanoylcarnitine M+H
PI=HMDB
DATACOLLECTOR=HMDB
SMILES=CCCCCC(=O)O[C@H](CC([O-])=O)C[N+](C)(C)C
INCHI=InChI=1S/C13H25NO4/c1-5-6-7-8-13(17)18-11(9-12(15)16)10-14(2,3)4/h11H,5-10H2,1-4H3/t11-/m1/s1
INCHIAUX=N/A
PUBMED=N/A
SUBMITUSER=mwang87
TAGS=
LIBRARYQUALITY=3
SPECTRUMID=CCMSLIB00000426644
SCANS=1616
43.59 4.608 
60.406 14.216 
71.364 9.412 
85.193 100.0 
99.227 3.603 
144.142 3.456 
END IONS

BEGIN IONS
PEPMASS=222.098
CHARGE=1+
MSLEVEL=2
SOURCE_INSTRUMENT=Positive-Quattro_QQQ:10eV
FILENAME=hmdb_intermediate.mgf
SEQ=*..*
IONMODE=Positive
ORGANISM=HMDB
NAME=HMDB:HMDB00803-1144 Beta-N-Acetylglucosamine M+H
PI=HMDB
DATACOLLECTOR=HMDB
SMILES=CC(=O)N[C@H]1[C@H](O)O[C@H](CO)[C@@H](O)[C@@H]1O
INCHI=InChI=1S/C8H15NO6/c1-3(11)9-5-7(13)6(12)4(2-10)15-8(5)14/h4-8,10,12-14H,2H2,1H3,(H,9,11)/t4-,5-,6-,7-,8-/m1/s1
INCHIAUX=N/A
PUBMED=N/A
SUBMITUSER=mwang87
TAGS=
LIBRARYQUALITY=3
SPECTRUMID=CCMSLIB00000426645
SCANS=1617
126.025 27.806 
137.995 54.592 
167.986 48.98 
185.977 48.469 
203.968 100.0 
221.976 12.245 
END IONS

BEGIN IONS
PEPMASS=106.087
CHARGE=1+
MSLEVEL=2
SOURCE_INSTRUMENT=Positive-Quattro_QQQ:10eV
FILENAME=hmdb_intermediate.mgf
SEQ=*..*
IONMODE=Positive
ORGANISM=HMDB
NAME=HMDB:HMDB04437-2385 Diethanolamine M+H
PI=HMDB
DATACOLLECTOR=HMDB
SMILES=OCCNCCO
INCHI=InChI=1S/C4H11NO2/c6-3-1-5-2-4-7/h5-7H,1-4H2
INCHIAUX=N/A
PUBMED=N/A
SUBMITUSER=mwang87
TAGS=
LIBRARYQUALITY=3
SPECTRUMID=CCMSLIB00000426646
SCANS=1618
44.0 5.921 
70.0 38.49 
88.0 75.982 
106.0 100.0 
END IONS

BEGIN IONS
PEPMASS=119.071
CHARGE=1+
MSLEVEL=2
SOURCE_INSTRUMENT=Positive-Quattro_QQQ:25eV
FILENAME=hmdb_intermediate.mgf
SEQ=*..*
IONMODE=Positive
ORGANISM=HMDB
NAME=HMDB:HMDB00351-565 3-Hydroxy-2-methyl-[R-(R,S)]-butanoic acid M+H
PI=HMDB
DATACOLLECTOR=HMDB
SMILES=C[C@@H](O)[C@H](C)C(O)=O
INCHI=InChI=1S/C5H10O3/c1-3(4(2)6)5(7)8/h3-4,6H,1-2H3,(H,7,8)/t3-,4+/m0/s1
INCHIAUX=N/A
PUBMED=N/A
SUBMITUSER=mwang87
TAGS=
LIBRARYQUALITY=3
SPECTRUMID=CCMSLIB00000426647
SCANS=1619
41.0 24.038 
45.0 93.902 
55.0 100.0 
69.0 28.49 
91.0 28.37 
END IONS

BEGIN IONS
PEPMASS=123.056
CHARGE=1+
MSLEVEL=2
SOURCE_INSTRUMENT=Positive-Quattro_QQQ:40eV
FILENAME=hmdb_intermediate.mgf
SEQ=*..*
IONMODE=Positive
ORGANISM=HMDB
NAME=HMDB:HMDB01406-1561 Niacinamide M+H
PI=HMDB
DATACOLLECTOR=HMDB
SMILES=NC(=O)C1=CN=CC=C1
INCHI=InChI=1S/C6H6N2O/c7-6(9)5-2-1-3-8-4-5/h1-4H,(H2,7,9)
INCHIAUX=N/A
PUBMED=N/A
SUBMITUSER=mwang87
TAGS=
LIBRARYQUALITY=3
SPECTRUMID=CCMSLIB00000426648
SCANS=1620
53.217 30.435 
80.072 100.0 
122.863 11.957 
END IONS

BEGIN IONS
PEPMASS=32.05
CHARGE=1+
MSLEVEL=2
SOURCE_INSTRUMENT=Positive-Quattro_QQQ:10eV
FILENAME=hmdb_intermediate.mgf
SEQ=*..*
IONMODE=Positive
ORGANISM=HMDB
NAME=HMDB:HMDB00164-260 Methylamine M+H
PI=HMDB
DATACOLLECTOR=HMDB
SMILES=CN
INCHI=InChI=1S/CH5N/c1-2/h2H2,1H3
INCHIAUX=N/A
PUBMED=N/A
SUBMITUSER=mwang87
TAGS=
LIBRARYQUALITY=3
SPECTRUMID=CCMSLIB00000426649
SCANS=1621
32.0 100.0 
END IONS

BEGIN IONS
PEPMASS=112.087
CHARGE=1+
MSLEVEL=2
SOURCE_INSTRUMENT=Positive-Quattro_QQQ:40eV
FILENAME=hmdb_intermediate.mgf
SEQ=*..*
IONMODE=Positive
ORGANISM=HMDB
NAME=HMDB:HMDB60263-1225 Histamium M+H
PI=HMDB
DATACOLLECTOR=HMDB
SMILES=NCCC1=CN=CN1
INCHI=InChI=1S/C5H9N3/c6-2-1-5-3-7-4-8-5/h3-4H,1-2,6H2,(H,7,8)
INCHIAUX=N/A
PUBMED=N/A
SUBMITUSER=mwang87
TAGS=
LIBRARYQUALITY=3
SPECTRUMID=CCMSLIB00000426650
SCANS=1622
41.316 100.0 
54.229 51.736 
55.377 23.958 
67.854 50.0 
81.111 68.403 
94.829 42.708 
111.991 20.139 
END IONS

BEGIN IONS
PEPMASS=732.615
CHARGE=1+
MSLEVEL=2
SOURCE_INSTRUMENT=Positive-Quattro_QQQ:10eV
FILENAME=hmdb_intermediate.mgf
SEQ=*..*
IONMODE=Positive
ORGANISM=HMDB
NAME=HMDB:HMDB01348-1528 SM(d18:1/18:0) M+H
PI=HMDB
DATACOLLECTOR=HMDB
SMILES=CCCCCCCCCCCCCCCCCC(=O)N[C@@]([H])(COP(O)(=O)OCC[N+](C)(C)C)[C@]([H])(O)\C=C\CCCCCCCCCCCCC
INCHI=InChI=1S/C41H83N2O6P/c1-6-8-10-12-14-16-18-20-21-23-25-27-29-31-33-35-41(45)42-39(38-49-50(46,47)48-37-36-43(3,4)5)40(44)34-32-30-28-26-24-22-19-17-15-13-11-9-7-2/h32,34,39-40,44H,6-31,33,35-38H2,1-5H3,(H-,42,45,46,47)/p+1/b34-32+/t39-,40+/m0/s1
INCHIAUX=N/A
PUBMED=N/A
SUBMITUSER=mwang87
TAGS=
LIBRARYQUALITY=3
SPECTRUMID=CCMSLIB00000426651
SCANS=1623
184.0 39.633 
732.0 100.0 
END IONS

BEGIN IONS
PEPMASS=179.071
CHARGE=1+
MSLEVEL=2
SOURCE_INSTRUMENT=Positive-Quattro_QQQ:40eV
FILENAME=hmdb_intermediate.mgf
SEQ=*..*
IONMODE=Positive
ORGANISM=HMDB
NAME=HMDB:HMDB02040-1964 4-Methoxycinnamic acid M+H
PI=HMDB
DATACOLLECTOR=HMDB
SMILES=COC1=CC=C(\C=C\C(O)=O)C=C1
INCHI=InChI=1S/C10H10O3/c1-13-9-5-2-8(3-6-9)4-7-10(11)12/h2-7H,1H3,(H,11,12)/b7-4+
INCHIAUX=N/A
PUBMED=N/A
SUBMITUSER=mwang87
TAGS=
LIBRARYQUALITY=3
SPECTRUMID=CCMSLIB00000426652
SCANS=1624
51.0 8.893 
65.0 7.608 
77.0 100.0 
90.0 88.685 
103.0 13.135 
118.0 30.586 
133.0 7.999 
END IONS

BEGIN IONS
PEPMASS=505.177
CHARGE=1+
MSLEVEL=2
SOURCE_INSTRUMENT=Positive-Quattro_QQQ:10eV
FILENAME=hmdb_intermediate.mgf
SEQ=*..*
IONMODE=Positive
ORGANISM=HMDB
NAME=HMDB:HMDB01262-1494 Maltotriose M+H
PI=HMDB
DATACOLLECTOR=HMDB
SMILES=OC[C@H]1O[C@H](O[C@H]2[C@H](O)[C@@H](O)[C@@H](O[C@H]3[C@H](O)[C@@H](O)C(O)O[C@@H]3CO)O[C@@H]2CO)[C@H](O)[C@@H](O)[C@@H]1O
INCHI=InChI=1S/C18H32O16/c19-1-4-7(22)8(23)12(27)17(31-4)34-15-6(3-21)32-18(13(28)10(15)25)33-14-5(2-20)30-16(29)11(26)9(14)24/h4-29H,1-3H2/t4-,5-,6-,7-,8+,9-,10-,11-,12-,13-,14-,15-,16?,17-,18-/m1/s1
INCHIAUX=N/A
PUBMED=N/A
SUBMITUSER=mwang87
TAGS=
LIBRARYQUALITY=3
SPECTRUMID=CCMSLIB00000426653
SCANS=1625
145.0 4.424 
163.0 40.977 
181.0 4.83 
289.0 3.002 
325.0 100.0 
343.0 6.414 
487.0 3.733 
505.0 4.335 
END IONS

BEGIN IONS
PEPMASS=307.978
CHARGE=1+
MSLEVEL=2
SOURCE_INSTRUMENT=Positive-Quattro_QQQ:10eV
FILENAME=hmdb_intermediate.mgf
SEQ=*..*
IONMODE=Positive
ORGANISM=HMDB
NAME=HMDB:HMDB00021-36 Iodotyrosine M+H
PI=HMDB
DATACOLLECTOR=HMDB
SMILES=N[C@@H](CC1=CC=C(O)C(I)=C1)C(O)=O
INCHI=InChI=1S/C9H10INO3/c10-6-3-5(1-2-8(6)12)4-7(11)9(13)14/h1-3,7,12H,4,11H2,(H,13,14)/t7-/m0/s1
INCHIAUX=N/A
PUBMED=N/A
SUBMITUSER=mwang87
TAGS=
LIBRARYQUALITY=3
SPECTRUMID=CCMSLIB00000426654
SCANS=1626
163.927 7.779 
248.81 8.777 
261.86 100.0 
290.859 86.17 
307.902 93.617 
END IONS

BEGIN IONS
PEPMASS=777.695
CHARGE=1+
MSLEVEL=2
SOURCE_INSTRUMENT=Positive-Quattro_QQQ:40eV
FILENAME=hmdb_intermediate.mgf
SEQ=*..*
IONMODE=Positive
ORGANISM=HMDB
NAME=HMDB:HMDB00248-426 Thyroxine M+H
PI=HMDB
DATACOLLECTOR=HMDB
SMILES=N[C@@H](CC1=CC(I)=C(OC2=CC(I)=C(O)C(I)=C2)C(I)=C1)C(O)=O
INCHI=InChI=1S/C15H11I4NO4/c16-8-4-7(5-9(17)13(8)21)24-14-10(18)1-6(2-11(14)19)3-12(20)15(22)23/h1-2,4-5,12,21H,3,20H2,(H,22,23)/t12-/m0/s1
INCHIAUX=N/A
PUBMED=N/A
SUBMITUSER=mwang87
TAGS=
LIBRARYQUALITY=3
SPECTRUMID=CCMSLIB00000426655
SCANS=1627
72.809 100.0 
95.075 37.818 
118.851 33.673 
132.186 46.115 
168.169 35.75 
200.378 31.606 
227.431 41.971 
245.676 31.606 
272.73 37.818 
280.406 33.673 
290.976 39.894 
308.972 31.606 
363.715 35.75 
369.755 46.115 
379.446 48.183 
390.647 41.971 
470.063 66.837 
490.452 31.606 
518.016 31.606 
551.497 60.625 
559.301 75.125 
572.643 31.606 
586.362 56.471 
604.235 31.606 
622.612 44.039 
626.64 33.673 
654.206 31.606 
659.618 31.606 
681.268 33.673 
694.862 66.837 
768.62 44.039 
790.521 41.971 
844.895 41.971 
862.515 31.606 
END IONS

BEGIN IONS
PEPMASS=101.024
CHARGE=1+
MSLEVEL=2
SOURCE_INSTRUMENT=Negative-Quattro_QQQ:10eV
FILENAME=hmdb_intermediate.mgf
SEQ=*..*
IONMODE=Negative
ORGANISM=HMDB
NAME=HMDB:HMDB00005-7 2-Ketobutyric acid M-H
PI=HMDB
DATACOLLECTOR=HMDB
SMILES=CCC(=O)C(O)=O
INCHI=InChI=1S/C4H6O3/c1-2-3(5)4(6)7/h2H2,1H3,(H,6,7)
INCHIAUX=N/A
PUBMED=N/A
SUBMITUSER=mwang87
TAGS=
LIBRARYQUALITY=3
SPECTRUMID=CCMSLIB00000426656
SCANS=1628
57.516 100.0 
101.26 69.485 
END IONS

BEGIN IONS
PEPMASS=153.076
CHARGE=1+
MSLEVEL=2
SOURCE_INSTRUMENT=Positive-Quattro_QQQ:25eV
FILENAME=hmdb_intermediate.mgf
SEQ=*..*
IONMODE=Positive
ORGANISM=HMDB
NAME=HMDB:HMDB00508-726 Ribitol M+H
PI=HMDB
DATACOLLECTOR=HMDB
SMILES=OC[C@H](O)[C@H](O)[C@H](O)CO
INCHI=InChI=1S/C5H12O5/c6-1-3(8)5(10)4(9)2-7/h3-10H,1-2H2/t3-,4+,5-
INCHIAUX=N/A
PUBMED=N/A
SUBMITUSER=mwang87
TAGS=
LIBRARYQUALITY=3
SPECTRUMID=CCMSLIB00000426657
SCANS=1629
43.341 90.769 
45.316 40.769 
57.23 71.154 
69.152 100.0 
99.054 12.115 
END IONS

BEGIN IONS
PEPMASS=137.024
CHARGE=1+
MSLEVEL=2
SOURCE_INSTRUMENT=Negative-Quattro_QQQ:25eV
FILENAME=hmdb_intermediate.mgf
SEQ=*..*
IONMODE=Negative
ORGANISM=HMDB
NAME=HMDB:HMDB00500-717 4-Hydroxybenzoic acid M-H
PI=HMDB
DATACOLLECTOR=HMDB
SMILES=OC(=O)C1=CC=C(O)C=C1
INCHI=InChI=1S/C7H6O3/c8-6-3-1-5(2-4-6)7(9)10/h1-4,8H,(H,9,10)
INCHIAUX=N/A
PUBMED=N/A
SUBMITUSER=mwang87
TAGS=
LIBRARYQUALITY=3
SPECTRUMID=CCMSLIB00000426658
SCANS=1630
65.168 8.523 
93.011 100.0 
136.819 3.622 
END IONS

BEGIN IONS
PEPMASS=308.065
CHARGE=1+
MSLEVEL=2
SOURCE_INSTRUMENT=Positive-Quattro_QQQ:40eV
FILENAME=hmdb_intermediate.mgf
SEQ=*..*
IONMODE=Positive
ORGANISM=HMDB
NAME=HMDB:HMDB01202-1465 dCMP M+H
PI=HMDB
DATACOLLECTOR=HMDB
SMILES=NC1=NC(=O)N(C=C1)[C@H]1C[C@H](O)[C@@H](COP(O)(O)=O)O1
INCHI=InChI=1S/C9H14N3O7P/c10-7-1-2-12(9(14)11-7)8-3-5(13)6(19-8)4-18-20(15,16)17/h1-2,5-6,8,13H,3-4H2,(H2,10,11,14)(H2,15,16,17)/t5-,6+,8+/m0/s1
INCHIAUX=N/A
PUBMED=N/A
SUBMITUSER=mwang87
TAGS=
LIBRARYQUALITY=3
SPECTRUMID=CCMSLIB00000426659
SCANS=1631
69.0 6.96 
81.0 25.933 
94.0 7.313 
95.0 18.84 
112.0 100.0 
END IONS

BEGIN IONS
PEPMASS=216.043
CHARGE=1+
MSLEVEL=2
SOURCE_INSTRUMENT=Positive-Quattro_QQQ:25eV
FILENAME=hmdb_intermediate.mgf
SEQ=*..*
IONMODE=Positive
ORGANISM=HMDB
NAME=HMDB:HMDB01885-1784 3-Chlorotyrosine M+H
PI=HMDB
DATACOLLECTOR=HMDB
SMILES=NC(CC1=CC(Cl)=C(O)C=C1)C(O)=O
INCHI=InChI=1S/C9H10ClNO3/c10-6-3-5(1-2-8(6)12)4-7(11)9(13)14/h1-3,7,12H,4,11H2,(H,13,14)
INCHIAUX=N/A
PUBMED=N/A
SUBMITUSER=mwang87
TAGS=
LIBRARYQUALITY=3
SPECTRUMID=CCMSLIB00000426660
SCANS=1632
106.08 2.627700598 
134.1 14.5598724118 
135.12 18.2583114289 
153.12 21.1125221633 
157.08 32.5928067032 
170.1 100.0 
181.08 23.2850330981 
199.08 27.577361176 
216.06 18.5976498189 
END IONS

BEGIN IONS
PEPMASS=145.014
CHARGE=1+
MSLEVEL=2
SOURCE_INSTRUMENT=Negative-Quattro_QQQ:25eV
FILENAME=hmdb_intermediate.mgf
SEQ=*..*
IONMODE=Negative
ORGANISM=HMDB
NAME=HMDB:HMDB00208-338 Oxoglutaric acid M-H
PI=HMDB
DATACOLLECTOR=HMDB
SMILES=OC(=O)CCC(=O)C(O)=O
INCHI=InChI=1S/C5H6O5/c6-3(5(9)10)1-2-4(7)8/h1-2H2,(H,7,8)(H,9,10)
INCHIAUX=N/A
PUBMED=N/A
SUBMITUSER=mwang87
TAGS=
LIBRARYQUALITY=3
SPECTRUMID=CCMSLIB00000426661
SCANS=1633
57.143 100.0 
73.057 22.328 
83.0 2.684 
100.922 24.046 
144.124 5.01 
144.975 15.649 
END IONS

BEGIN IONS
PEPMASS=132.102
CHARGE=1+
MSLEVEL=2
SOURCE_INSTRUMENT=Positive-Quattro_QQQ:25eV
FILENAME=hmdb_intermediate.mgf
SEQ=*..*
IONMODE=Positive
ORGANISM=HMDB
NAME=HMDB:HMDB00557-780 L-Alloisoleucine M+H
PI=HMDB
DATACOLLECTOR=HMDB
SMILES=CC[C@@H](C)[C@H](N)C(O)=O
INCHI=InChI=1S/C6H13NO2/c1-3-4(2)5(7)6(8)9/h4-5H,3,7H2,1-2H3,(H,8,9)/t4-,5+/m1/s1
INCHIAUX=N/A
PUBMED=N/A
SUBMITUSER=mwang87
TAGS=
LIBRARYQUALITY=3
SPECTRUMID=CCMSLIB00000426662
SCANS=1634
44.288 68.889 
57.178 26.667 
69.194 100.0 
86.12 92.222 
END IONS

BEGIN IONS
PEPMASS=133.098
CHARGE=1+
MSLEVEL=2
SOURCE_INSTRUMENT=Positive-Quattro_QQQ:40eV
FILENAME=hmdb_intermediate.mgf
SEQ=*..*
IONMODE=Positive
ORGANISM=HMDB
NAME=HMDB:HMDB00214-351 Ornithine M+H
PI=HMDB
DATACOLLECTOR=HMDB
SMILES=NCCC[C@H](N)C(O)=O
INCHI=InChI=1S/C5H12N2O2/c6-3-1-2-4(7)5(8)9/h4H,1-3,6-7H2,(H,8,9)/t4-/m0/s1
INCHIAUX=N/A
PUBMED=N/A
SUBMITUSER=mwang87
TAGS=
LIBRARYQUALITY=3
SPECTRUMID=CCMSLIB00000426663
SCANS=1635
43.271 18.478 
53.221 2.649 
70.11 100.0 
116.162 2.242 
132.994 3.315 
END IONS

BEGIN IONS
PEPMASS=149.06
CHARGE=1+
MSLEVEL=2
SOURCE_INSTRUMENT=Positive-Quattro_QQQ:40eV
FILENAME=hmdb_intermediate.mgf
SEQ=*..*
IONMODE=Positive
ORGANISM=HMDB
NAME=HMDB:HMDB00930-1326 trans-Cinnamic acid M+H
PI=HMDB
DATACOLLECTOR=HMDB
SMILES=OC(=O)\C=C\C1=CC=CC=C1
INCHI=InChI=1S/C9H8O2/c10-9(11)7-6-8-4-2-1-3-5-8/h1-7H,(H,10,11)/b7-6+
INCHIAUX=N/A
PUBMED=N/A
SUBMITUSER=mwang87
TAGS=
LIBRARYQUALITY=3
SPECTRUMID=CCMSLIB00000426664
SCANS=1636
102.0 100.0 
130.0 11.053 
END IONS

BEGIN IONS
PEPMASS=195.066
CHARGE=1+
MSLEVEL=2
SOURCE_INSTRUMENT=Positive-Quattro_QQQ:25eV
FILENAME=hmdb_intermediate.mgf
SEQ=*..*
IONMODE=Positive
ORGANISM=HMDB
NAME=HMDB:HMDB00954-1349 trans-Ferulic acid M+H
PI=HMDB
DATACOLLECTOR=HMDB
SMILES=COC1=C(O)C=CC(\C=C\C(O)=O)=C1
INCHI=InChI=1S/C10H10O4/c1-14-9-6-7(2-4-8(9)11)3-5-10(12)13/h2-6,11H,1H3,(H,12,13)/b5-3+
INCHIAUX=N/A
PUBMED=N/A
SUBMITUSER=mwang87
TAGS=
LIBRARYQUALITY=3
SPECTRUMID=CCMSLIB00000426665
SCANS=1637
88.0 99.01 
116.0 100.0 
133.0 26.305 
144.0 31.42 
148.0 25.464 
END IONS

BEGIN IONS
PEPMASS=212.044
CHARGE=1+
MSLEVEL=2
SOURCE_INSTRUMENT=Positive-Quattro_QQQ:10eV
FILENAME=hmdb_intermediate.mgf
SEQ=*..*
IONMODE=Positive
ORGANISM=HMDB
NAME=HMDB:HMDB01511-1616 Phosphocreatine M+H
PI=HMDB
DATACOLLECTOR=HMDB
SMILES=CN(CC(O)=O)C(=N)NP(O)(O)=O
INCHI=InChI=1S/C4H10N3O5P/c1-7(2-3(8)9)4(5)6-13(10,11)12/h2H2,1H3,(H,8,9)(H4,5,6,10,11,12)
INCHIAUX=N/A
PUBMED=N/A
SUBMITUSER=mwang87
TAGS=
LIBRARYQUALITY=3
SPECTRUMID=CCMSLIB00000426666
SCANS=1638
69.0 16.423 
76.0 14.577 
140.0 60.551 
169.0 14.723 
211.0 100.0 
END IONS

BEGIN IONS
PEPMASS=183.087
CHARGE=1+
MSLEVEL=2
SOURCE_INSTRUMENT=Positive-Quattro_QQQ:40eV
FILENAME=hmdb_intermediate.mgf
SEQ=*..*
IONMODE=Positive
ORGANISM=HMDB
NAME=HMDB:HMDB00247-423 Sorbitol M+H
PI=HMDB
DATACOLLECTOR=HMDB
SMILES=OC[C@H](O)[C@@H](O)[C@H](O)[C@H](O)CO
INCHI=InChI=1S/C6H14O6/c7-1-3(9)5(11)6(12)4(10)2-8/h3-12H,1-2H2/t3-,4+,5-,6-/m1/s1
INCHIAUX=N/A
PUBMED=N/A
SUBMITUSER=mwang87
TAGS=
LIBRARYQUALITY=3
SPECTRUMID=CCMSLIB00000426667
SCANS=1639
43.307 100.0 
45.298 37.595 
61.169 54.962 
69.133 67.176 
83.115 11.737 
85.091 12.786 
END IONS

BEGIN IONS
PEPMASS=291.232
CHARGE=1+
MSLEVEL=2
SOURCE_INSTRUMENT=Positive-Quattro_QQQ:25eV
FILENAME=hmdb_intermediate.mgf
SEQ=*..*
IONMODE=Positive
ORGANISM=HMDB
NAME=HMDB:HMDB00490-708 Etiocholanolone M+H
PI=HMDB
DATACOLLECTOR=HMDB
SMILES=[H][C@@]12CCC(=O)[C@@]1(C)CC[C@@]1([H])[C@@]2([H])CC[C@]2([H])C[C@H](O)CC[C@]12C
INCHI=InChI=1S/C19H30O2/c1-18-9-7-13(20)11-12(18)3-4-14-15-5-6-17(21)19(15,2)10-8-16(14)18/h12-16,20H,3-11H2,1-2H3/t12-,13-,14+,15+,16+,18+,19+/m1/s1
INCHIAUX=N/A
PUBMED=N/A
SUBMITUSER=mwang87
TAGS=
LIBRARYQUALITY=3
SPECTRUMID=CCMSLIB00000426668
SCANS=1640
67.3 31.835 
81.636 32.55 
88.433 49.354 
95.354 46.137 
107.219 49.949 
121.432 36.125 
135.769 28.498 
147.512 100.0 
159.501 92.851 
175.199 72.35 
188.92 99.764 
200.416 68.064 
213.025 38.151 
214.632 28.141 
254.44 16.819 
255.306 21.108 
END IONS

BEGIN IONS
PEPMASS=189.135
CHARGE=1+
MSLEVEL=2
SOURCE_INSTRUMENT=Positive-Quattro_QQQ:25eV
FILENAME=hmdb_intermediate.mgf
SEQ=*..*
IONMODE=Positive
ORGANISM=HMDB
NAME=HMDB:HMDB00670-922 Homo-L-arginine M+H
PI=HMDB
DATACOLLECTOR=HMDB
SMILES=N[C@@H](CCCCNC(N)=N)C(O)=O
INCHI=InChI=1S/C7H16N4O2/c8-5(6(12)13)3-1-2-4-11-7(9)10/h5H,1-4,8H2,(H,12,13)(H4,9,10,11)/t5-/m0/s1
INCHIAUX=N/A
PUBMED=N/A
SUBMITUSER=mwang87
TAGS=
LIBRARYQUALITY=3
SPECTRUMID=CCMSLIB00000426669
SCANS=1641
43.216 3.456 
60.145 11.078 
67.154 9.804 
84.132 100.0 
85.389 14.706 
129.965 2.99 
144.003 17.941 
END IONS

BEGIN IONS
PEPMASS=115.076
CHARGE=1+
MSLEVEL=2
SOURCE_INSTRUMENT=Positive-Quattro_QQQ:40eV
FILENAME=hmdb_intermediate.mgf
SEQ=*..*
IONMODE=Positive
ORGANISM=HMDB
NAME=HMDB:HMDB03843-2348 Gamma-Caprolactone M+H
PI=HMDB
DATACOLLECTOR=HMDB
SMILES=CCC1CCC(=O)O1
INCHI=InChI=1S/C6H10O2/c1-2-5-3-4-6(7)8-5/h5H,2-4H2,1H3
INCHIAUX=N/A
PUBMED=N/A
SUBMITUSER=mwang87
TAGS=
LIBRARYQUALITY=3
SPECTRUMID=CCMSLIB00000426670
SCANS=1642
28.62 24.491 
43.31 100.0 
54.76 35.512 
END IONS

BEGIN IONS
PEPMASS=104.071
CHARGE=1+
MSLEVEL=2
SOURCE_INSTRUMENT=Positive-Quattro_QQQ:25eV
FILENAME=hmdb_intermediate.mgf
SEQ=*..*
IONMODE=Positive
ORGANISM=HMDB
NAME=HMDB:HMDB00112-163 Gamma-Aminobutyric acid M+H
PI=HMDB
DATACOLLECTOR=HMDB
SMILES=NCCCC(O)=O
INCHI=InChI=1S/C4H9NO2/c5-3-1-2-4(6)7/h1-3,5H2,(H,6,7)
INCHIAUX=N/A
PUBMED=N/A
SUBMITUSER=mwang87
TAGS=
LIBRARYQUALITY=3
SPECTRUMID=CCMSLIB00000426671
SCANS=1643
41.317 48.408 
45.258 100.0 
69.004 38.217 
86.72 25.159 
103.837 16.879 
END IONS

BEGIN IONS
PEPMASS=154.073
CHARGE=1+
MSLEVEL=2
SOURCE_INSTRUMENT=Positive-Quattro_QQQ:40eV
FILENAME=hmdb_intermediate.mgf
SEQ=*..*
IONMODE=Positive
ORGANISM=HMDB
NAME=HMDB:HMDB04816-2414 FAPy-adenine M+H
PI=HMDB
DATACOLLECTOR=HMDB
SMILES=NC1=NC=NC(N)=C1NC=O
INCHI=InChI=1S/C5H7N5O/c6-4-3(10-2-11)5(7)9-1-8-4/h1-2H,(H,10,11)(H4,6,7,8,9)
INCHIAUX=N/A
PUBMED=N/A
SUBMITUSER=mwang87
TAGS=
LIBRARYQUALITY=3
SPECTRUMID=CCMSLIB00000426672
SCANS=1644
71.0 75.844 
82.0 100.0 
92.0 48.879 
98.0 8.151 
109.0 18.45 
119.0 23.193 
126.0 12.366 
154.0 6.601 
END IONS

BEGIN IONS
PEPMASS=190.087
CHARGE=1+
MSLEVEL=2
SOURCE_INSTRUMENT=Positive-Quattro_QQQ:10eV
FILENAME=hmdb_intermediate.mgf
SEQ=*..*
IONMODE=Positive
ORGANISM=HMDB
NAME=HMDB:HMDB02302-2049 3-Indolepropionic acid M+H
PI=HMDB
DATACOLLECTOR=HMDB
SMILES=OC(=O)CCC1=CNC2=CC=CC=C12
INCHI=InChI=1S/C11H11NO2/c13-11(14)6-5-8-7-12-10-4-2-1-3-9(8)10/h1-4,7,12H,5-6H2,(H,13,14)
INCHIAUX=N/A
PUBMED=N/A
SUBMITUSER=mwang87
TAGS=
LIBRARYQUALITY=3
SPECTRUMID=CCMSLIB00000426673
SCANS=1645
129.894 100.0 
171.861 18.228 
189.854 46.703 
END IONS

BEGIN IONS
PEPMASS=149.045
CHARGE=1+
MSLEVEL=2
SOURCE_INSTRUMENT=Positive-Quattro_QQQ:40eV
FILENAME=hmdb_intermediate.mgf
SEQ=*..*
IONMODE=Positive
ORGANISM=HMDB
NAME=HMDB:HMDB01900-1818 Ribonolactone M+H
PI=HMDB
DATACOLLECTOR=HMDB
SMILES=OC[C@H]1OC(=O)[C@H](O)[C@@H]1O
INCHI=InChI=1S/C5H8O5/c6-1-2-3(7)4(8)5(9)10-2/h2-4,6-8H,1H2/t2-,3-,4-/m1/s1
INCHIAUX=N/A
PUBMED=N/A
SUBMITUSER=mwang87
TAGS=
LIBRARYQUALITY=3
SPECTRUMID=CCMSLIB00000426674
SCANS=1646
51.159 32.315 
67.134 14.646 
77.243 100.0 
103.079 16.737 
END IONS

BEGIN IONS
PEPMASS=166.073
CHARGE=1+
MSLEVEL=2
SOURCE_INSTRUMENT=Positive-Quattro_QQQ:40eV
FILENAME=hmdb_intermediate.mgf
SEQ=*..*
IONMODE=Positive
ORGANISM=HMDB
NAME=HMDB:HMDB03282-2229 1-Methylguanine M+H
PI=HMDB
DATACOLLECTOR=HMDB
SMILES=CN1C(N)=NC2=C(NC=N2)C1=O
INCHI=InChI=1S/C6H7N5O/c1-11-5(12)3-4(9-2-8-3)10-6(11)7/h2H,1H3,(H2,7,10)(H,8,9)
INCHIAUX=N/A
PUBMED=N/A
SUBMITUSER=mwang87
TAGS=
LIBRARYQUALITY=3
SPECTRUMID=CCMSLIB00000426675
SCANS=1647
67.133 100.0 
79.929 98.506 
92.549 15.502 
END IONS

BEGIN IONS
PEPMASS=289.217
CHARGE=1+
MSLEVEL=2
SOURCE_INSTRUMENT=Positive-Quattro_QQQ:40eV
FILENAME=hmdb_intermediate.mgf
SEQ=*..*
IONMODE=Positive
ORGANISM=HMDB
NAME=HMDB:HMDB00234-393 Testosterone M+H
PI=HMDB
DATACOLLECTOR=HMDB
SMILES=[H][C@@]12CC[C@H](O)[C@@]1(C)CC[C@@]1([H])[C@@]2([H])CCC2=CC(=O)CC[C@]12C
INCHI=InChI=1S/C19H28O2/c1-18-9-7-13(20)11-12(18)3-4-14-15-5-6-17(21)19(15,2)10-8-16(14)18/h11,14-17,21H,3-10H2,1-2H3/t14-,15-,16-,17-,18-,19-/m0/s1
INCHIAUX=N/A
PUBMED=N/A
SUBMITUSER=mwang87
TAGS=
LIBRARYQUALITY=3
SPECTRUMID=CCMSLIB00000426676
SCANS=1648
43.326 8.144 
55.23 7.348 
67.166 9.47 
79.118 35.758 
91.093 13.333 
97.081 100.0 
109.042 86.061 
123.025 9.28 
END IONS

BEGIN IONS
PEPMASS=185.045
CHARGE=1+
MSLEVEL=2
SOURCE_INSTRUMENT=Positive-Quattro_QQQ:40eV
FILENAME=hmdb_intermediate.mgf
SEQ=*..*
IONMODE=Positive
ORGANISM=HMDB
NAME=HMDB:HMDB01866-1749 3,4-Dihydroxymandelic acid M+H
PI=HMDB
DATACOLLECTOR=HMDB
SMILES=OC(C(O)=O)C1=CC=C(O)C(O)=C1
INCHI=InChI=1S/C8H8O5/c9-5-2-1-4(3-6(5)10)7(11)8(12)13/h1-3,7,9-11H,(H,12,13)
INCHIAUX=N/A
PUBMED=N/A
SUBMITUSER=mwang87
TAGS=
LIBRARYQUALITY=3
SPECTRUMID=CCMSLIB00000426677
SCANS=1649
56.087 100.0 
77.646 37.694 
140.832 45.328 
151.301 47.864 
192.808 35.798 
198.417 42.779 
END IONS

BEGIN IONS
PEPMASS=303.196
CHARGE=1+
MSLEVEL=2
SOURCE_INSTRUMENT=Positive-Quattro_QQQ:25eV
FILENAME=hmdb_intermediate.mgf
SEQ=*..*
IONMODE=Positive
ORGANISM=HMDB
NAME=HMDB:HMDB00405-616 2-Methoxyestradiol M+H
PI=HMDB
DATACOLLECTOR=HMDB
SMILES=[H][C@@]12CC[C@H](O)[C@@]1(C)CC[C@]1([H])C3=C(CC[C@@]21[H])C=C(O)C(OC)=C3
INCHI=InChI=1S/C19H26O3/c1-19-8-7-12-13(15(19)5-6-18(19)21)4-3-11-9-16(20)17(22-2)10-14(11)12/h9-10,12-13,15,18,20-21H,3-8H2,1-2H3/t12-,13+,15-,18-,19-/m0/s1
INCHIAUX=N/A
PUBMED=N/A
SUBMITUSER=mwang87
TAGS=
LIBRARYQUALITY=3
SPECTRUMID=CCMSLIB00000426678
SCANS=1650
134.0 10.214 
135.0 4.378 
151.0 100.0 
176.0 1.267 
201.0 1.331 
215.0 1.52 
243.0 1.542 
302.0 1.49 
END IONS

BEGIN IONS
PEPMASS=193.035
CHARGE=1+
MSLEVEL=2
SOURCE_INSTRUMENT=Negative-Quattro_QQQ:10eV
FILENAME=hmdb_intermediate.mgf
SEQ=*..*
IONMODE=Negative
ORGANISM=HMDB
NAME=HMDB:HMDB00127-192 D-Glucuronic acid M-H
PI=HMDB
DATACOLLECTOR=HMDB
SMILES=O[C@H]1O[C@@H]([C@@H](O)[C@H](O)[C@H]1O)C(O)=O
INCHI=InChI=1S/C6H10O7/c7-1-2(8)4(5(10)11)13-6(12)3(1)9/h1-4,6-9,12H,(H,10,11)/t1-,2-,3+,4-,6-/m0/s1
INCHIAUX=N/A
PUBMED=N/A
SUBMITUSER=mwang87
TAGS=
LIBRARYQUALITY=3
SPECTRUMID=CCMSLIB00000426679
SCANS=1651
59.479 46.1176470588 
73.359 100.0 
89.315 60.6829268293 
103.239 57.2855093257 
113.22 76.700143472 
131.188 36.8952654232 
157.133 10.5595408895 
193.121 64.56241033 
END IONS

BEGIN IONS
PEPMASS=194.082
CHARGE=1+
MSLEVEL=2
SOURCE_INSTRUMENT=Positive-Quattro_QQQ:40eV
FILENAME=hmdb_intermediate.mgf
SEQ=*..*
IONMODE=Positive
ORGANISM=HMDB
NAME=HMDB:HMDB00859-1213 Methylhippuric acid M+H
PI=HMDB
DATACOLLECTOR=HMDB
SMILES=COC(=O)CNC(=O)C1=CC=CC=C1
INCHI=InChI=1S/C10H11NO3/c1-14-9(12)7-11-10(13)8-5-3-2-4-6-8/h2-6H,7H2,1H3,(H,11,13)
INCHIAUX=N/A
PUBMED=N/A
SUBMITUSER=mwang87
TAGS=
LIBRARYQUALITY=3
SPECTRUMID=CCMSLIB00000426680
SCANS=1652
62.404 5.776 
69.295 46.647 
78.191 29.704 
89.343 5.479 
94.981 37.73 
105.256 100.0 
119.164 20.639 
130.567 16.329 
134.953 18.112 
163.9 5.776 
177.058 23.758 
190.593 6.52 
205.757 6.667 
240.6 5.776 
248.245 7.559 
END IONS

BEGIN IONS
PEPMASS=241.032
CHARGE=1+
MSLEVEL=2
SOURCE_INSTRUMENT=Positive-Quattro_QQQ:25eV
FILENAME=hmdb_intermediate.mgf
SEQ=*..*
IONMODE=Positive
ORGANISM=HMDB
NAME=HMDB:HMDB00192-308 L-Cystine M+H
PI=HMDB
DATACOLLECTOR=HMDB
SMILES=N[C@@H](CSSC[C@H](N)C(O)=O)C(O)=O
INCHI=InChI=1S/C6H12N2O4S2/c7-3(5(9)10)1-13-14-2-4(8)6(11)12/h3-4H,1-2,7-8H2,(H,9,10)(H,11,12)/t3-,4-/m0/s1
INCHIAUX=N/A
PUBMED=N/A
SUBMITUSER=mwang87
TAGS=
LIBRARYQUALITY=3
SPECTRUMID=CCMSLIB00000426681
SCANS=1653
74.014 100.0 
76.044 3.318 
91.977 3.318 
104.976 2.59 
119.896 54.452 
151.799 11.729 
END IONS

BEGIN IONS
PEPMASS=212.002
CHARGE=1+
MSLEVEL=2
SOURCE_INSTRUMENT=Negative-Quattro_QQQ:25eV
FILENAME=hmdb_intermediate.mgf
SEQ=*..*
IONMODE=Negative
ORGANISM=HMDB
NAME=HMDB:HMDB00682-946 Indoxyl sulfate M-H
PI=HMDB
DATACOLLECTOR=HMDB
SMILES=OS(=O)(=O)OC1=CNC2=CC=CC=C12
INCHI=InChI=1S/C8H7NO4S/c10-14(11,12)13-8-5-9-7-4-2-1-3-6(7)8/h1-5,9H,(H,10,11,12)
INCHIAUX=N/A
PUBMED=N/A
SUBMITUSER=mwang87
TAGS=
LIBRARYQUALITY=3
SPECTRUMID=CCMSLIB00000426682
SCANS=1654
80.329 100.0 
104.239 9.881 
132.127 26.548 
END IONS

BEGIN IONS
PEPMASS=151.112
CHARGE=1+
MSLEVEL=2
SOURCE_INSTRUMENT=Positive-Quattro_QQQ:25eV
FILENAME=hmdb_intermediate.mgf
SEQ=*..*
IONMODE=Positive
ORGANISM=HMDB
NAME=HMDB:HMDB04487-2395 (+)-(S)-Carvone M+H
PI=HMDB
DATACOLLECTOR=HMDB
SMILES=CC(=C)[C@H]1CC=C(C)C(=O)C1
INCHI=InChI=1S/C10H14O/c1-7(2)9-5-4-8(3)10(11)6-9/h4,9H,1,5-6H2,2-3H3/t9-/m0/s1
INCHIAUX=N/A
PUBMED=N/A
SUBMITUSER=mwang87
TAGS=
LIBRARYQUALITY=3
SPECTRUMID=CCMSLIB00000426683
SCANS=1655
67.0 22.735 
81.0 34.856 
91.0 31.184 
95.0 16.407 
109.0 100.0 
123.0 21.422 
151.0 9.293 
END IONS

BEGIN IONS
PEPMASS=168.066
CHARGE=1+
MSLEVEL=2
SOURCE_INSTRUMENT=Positive-Quattro_QQQ:40eV
FILENAME=hmdb_intermediate.mgf
SEQ=*..*
IONMODE=Positive
ORGANISM=HMDB
NAME=HMDB:HMDB01545-1645 Pyridoxal M+H
PI=HMDB
DATACOLLECTOR=HMDB
SMILES=CC1=C(O)C(C=O)=C(CO)C=N1
INCHI=InChI=1S/C8H9NO3/c1-5-8(12)7(4-11)6(3-10)2-9-5/h2,4,10,12H,3H2,1H3
INCHIAUX=N/A
PUBMED=N/A
SUBMITUSER=mwang87
TAGS=
LIBRARYQUALITY=3
SPECTRUMID=CCMSLIB00000426684
SCANS=1656
41.38 58.333 
53.254 53.472 
67.159 100.0 
77.16 31.25 
93.821 65.972 
106.04 5.859 
121.999 9.852 
150.037 19.097 
END IONS

BEGIN IONS
PEPMASS=121.065
CHARGE=1+
MSLEVEL=2
SOURCE_INSTRUMENT=Positive-Quattro_QQQ:25eV
FILENAME=hmdb_intermediate.mgf
SEQ=*..*
IONMODE=Positive
ORGANISM=HMDB
NAME=HMDB:HMDB06236-2479 Phenylacetaldehyde M+H
PI=HMDB
DATACOLLECTOR=HMDB
SMILES=O=CCC1=CC=CC=C1
INCHI=InChI=1S/C8H8O/c9-7-6-8-4-2-1-3-5-8/h1-5,7H,6H2
INCHIAUX=N/A
PUBMED=N/A
SUBMITUSER=mwang87
TAGS=
LIBRARYQUALITY=3
SPECTRUMID=CCMSLIB00000426685
SCANS=1657
51.0 5.993 
77.0 100.0 
91.0 7.628 
103.0 13.305 
END IONS

BEGIN IONS
PEPMASS=133.065
CHARGE=1+
MSLEVEL=2
SOURCE_INSTRUMENT=Positive-Quattro_QQQ:25eV
FILENAME=hmdb_intermediate.mgf
SEQ=*..*
IONMODE=Positive
ORGANISM=HMDB
NAME=HMDB:HMDB03441-2311 Cinnamaldehyde M+H
PI=HMDB
DATACOLLECTOR=HMDB
SMILES=O=C\C=C\C1=CC=CC=C1
INCHI=InChI=1S/C9H8O/c10-8-4-7-9-5-2-1-3-6-9/h1-8H/b7-4+
INCHIAUX=N/A
PUBMED=N/A
SUBMITUSER=mwang87
TAGS=
LIBRARYQUALITY=3
SPECTRUMID=CCMSLIB00000426686
SCANS=1658
31.0 14.388 
55.0 67.998 
77.0 100.0 
91.0 10.788 
103.0 33.177 
105.0 10.179 
115.0 47.931 
133.0 6.26 
END IONS

BEGIN IONS
PEPMASS=307.264
CHARGE=1+
MSLEVEL=2
SOURCE_INSTRUMENT=Positive-Quattro_QQQ:40eV
FILENAME=hmdb_intermediate.mgf
SEQ=*..*
IONMODE=Positive
ORGANISM=HMDB
NAME=HMDB:HMDB02925-2168 8,11,14-Eicosatrienoic acid M+H
PI=HMDB
DATACOLLECTOR=HMDB
SMILES=CCCCC\C=C/C\C=C/C\C=C/CCCCCCC(O)=O
INCHI=InChI=1S/C20H34O2/c1-2-3-4-5-6-7-8-9-10-11-12-13-14-15-16-17-18-19-20(21)22/h6-7,9-10,12-13H,2-5,8,11,14-19H2,1H3,(H,21,22)/b7-6-,10-9-,13-12-
INCHIAUX=N/A
PUBMED=N/A
SUBMITUSER=mwang87
TAGS=
LIBRARYQUALITY=3
SPECTRUMID=CCMSLIB00000426687
SCANS=1659
54.0 51.006 
55.0 100.0 
66.0 69.625 
80.0 81.764 
93.0 48.297 
104.0 41.266 
108.0 37.353 
116.0 23.892 
END IONS

BEGIN IONS
PEPMASS=167.071
CHARGE=1+
MSLEVEL=2
SOURCE_INSTRUMENT=Positive-Quattro_QQQ:10eV
FILENAME=hmdb_intermediate.mgf
SEQ=*..*
IONMODE=Positive
ORGANISM=HMDB
NAME=HMDB:HMDB02199-2025 Desaminotyrosine M+H
PI=HMDB
DATACOLLECTOR=HMDB
SMILES=OC(=O)CCC1=CC=C(O)C=C1
INCHI=InChI=1S/C9H10O3/c10-8-4-1-7(2-5-8)3-6-9(11)12/h1-2,4-5,10H,3,6H2,(H,11,12)
INCHIAUX=N/A
PUBMED=N/A
SUBMITUSER=mwang87
TAGS=
LIBRARYQUALITY=3
SPECTRUMID=CCMSLIB00000426688
SCANS=1660
91.0 98.516 
103.0 8.28 
107.0 46.636 
117.0 52.257 
134.0 23.622 
135.0 67.183 
149.0 100.0 
167.0 28.564 
END IONS

BEGIN IONS
PEPMASS=215.165
CHARGE=1+
MSLEVEL=2
SOURCE_INSTRUMENT=Negative-Quattro_QQQ:25eV
FILENAME=hmdb_intermediate.mgf
SEQ=*..*
IONMODE=Negative
ORGANISM=HMDB
NAME=HMDB:HMDB00387-595 3-Hydroxydodecanoic acid M-H
PI=HMDB
DATACOLLECTOR=HMDB
SMILES=CCCCCCCCCC(O)CC(O)=O
INCHI=InChI=1S/C12H24O3/c1-2-3-4-5-6-7-8-9-11(13)10-12(14)15/h11,13H,2-10H2,1H3,(H,14,15)
INCHIAUX=N/A
PUBMED=N/A
SUBMITUSER=mwang87
TAGS=
LIBRARYQUALITY=3
SPECTRUMID=CCMSLIB00000426689
SCANS=1661
59.436 100.0 
END IONS

BEGIN IONS
PEPMASS=34.0293
CHARGE=1+
MSLEVEL=2
SOURCE_INSTRUMENT=Positive-Quattro_QQQ:40eV
FILENAME=hmdb_intermediate.mgf
SEQ=*..*
IONMODE=Positive
ORGANISM=HMDB
NAME=HMDB:HMDB03338-2253 Hydroxylamine M+H
PI=HMDB
DATACOLLECTOR=HMDB
SMILES=NO
INCHI=InChI=1S/H3NO/c1-2/h2H,1H2
INCHIAUX=N/A
PUBMED=N/A
SUBMITUSER=mwang87
TAGS=
LIBRARYQUALITY=3
SPECTRUMID=CCMSLIB00000426690
SCANS=1662
34.0 100.0 
35.0 48.047 
END IONS

BEGIN IONS
PEPMASS=274.108
CHARGE=1+
MSLEVEL=2
SOURCE_INSTRUMENT=Positive-Quattro_QQQ:10eV
FILENAME=hmdb_intermediate.mgf
SEQ=*..*
IONMODE=Positive
ORGANISM=HMDB
NAME=HMDB:HMDB00667-912 L-Thyronine M+H
PI=HMDB
DATACOLLECTOR=HMDB
SMILES=N[C@@H](CC1=CC=C(OC2=CC=C(O)C=C2)C=C1)C(O)=O
INCHI=InChI=1S/C15H15NO4/c16-14(15(18)19)9-10-1-5-12(6-2-10)20-13-7-3-11(17)4-8-13/h1-8,14,17H,9,16H2,(H,18,19)/t14-/m0/s1
INCHIAUX=N/A
PUBMED=N/A
SUBMITUSER=mwang87
TAGS=
LIBRARYQUALITY=3
SPECTRUMID=CCMSLIB00000426691
SCANS=1663
119.0 3.151 
211.0 27.603 
215.0 40.091 
228.0 50.997 
257.0 100.0 
274.0 61.267 
END IONS

BEGIN IONS
PEPMASS=788.181
CHARGE=1+
MSLEVEL=2
SOURCE_INSTRUMENT=Positive-Quattro_QQQ:40eV
FILENAME=hmdb_intermediate.mgf
SEQ=*..*
IONMODE=Positive
ORGANISM=HMDB
NAME=HMDB:HMDB01197-1459 FADH M+H
PI=HMDB
DATACOLLECTOR=HMDB
SMILES=CC1=CC2=C(C=C1C)N(C[C@H](O)[C@H](O)[C@H](O)COP(O)(=O)OP(O)(=O)OC[C@H]1O[C@H]([C@H](O)[C@@H]1O)N1C=NC3=C1N=CN=C3N)C1=C(N2)C(=O)NC(=O)N1
INCHI=InChI=1S/C27H35N9O15P2/c1-10-3-12-13(4-11(10)2)35(24-18(32-12)25(42)34-27(43)33-24)5-14(37)19(39)15(38)6-48-52(44,45)51-53(46,47)49-7-16-20(40)21(41)26(50-16)36-9-31-17-22(28)29-8-30-23(17)36/h3-4,8-9,14-16,19-21,26,32,37-41H,5-7H2,1-2H3,(H,44,45)(H,46,47)(H2,28,29,30)(H2,33,34,42,43)/t14-,15+,16+,19-,20+,21+,26+/m0/s1
INCHIAUX=N/A
PUBMED=N/A
SUBMITUSER=mwang87
TAGS=
LIBRARYQUALITY=3
SPECTRUMID=CCMSLIB00000426692
SCANS=1664
135.0 100.0 
242.0 40.693 
249.0 6.358 
348.0 15.488 
359.0 9.0 
421.0 10.306 
439.0 80.013 
END IONS

BEGIN IONS
PEPMASS=665.125
CHARGE=1+
MSLEVEL=2
SOURCE_INSTRUMENT=Positive-Quattro_QQQ:40eV
FILENAME=hmdb_intermediate.mgf
SEQ=*..*
IONMODE=Positive
ORGANISM=HMDB
NAME=HMDB:HMDB00902-1282 NAD M+H
PI=HMDB
DATACOLLECTOR=HMDB
SMILES=NC(=O)C1=C[N+](=CC=C1)[C@@H]1O[C@H](COP(O)(=O)OP(O)(=O)OC[C@H]2O[C@H]([C@H](O)[C@@H]2O)N2C=NC3=C2N=CN=C3N)[C@@H](O)[C@H]1O
INCHI=InChI=1S/C21H27N7O14P2/c22-17-12-19(25-7-24-17)28(8-26-12)21-16(32)14(30)11(41-21)6-39-44(36,37)42-43(34,35)38-5-10-13(29)15(31)20(40-10)27-3-1-2-9(4-27)18(23)33/h1-4,7-8,10-11,13-16,20-21,29-32H,5-6H2,(H5-,22,23,24,25,33,34,35,36,37)/p+1/t10-,11-,13-,14-,15-,16-,20-,21-/m1/s1
INCHIAUX=N/A
PUBMED=N/A
SUBMITUSER=mwang87
TAGS=
LIBRARYQUALITY=3
SPECTRUMID=CCMSLIB00000426693
SCANS=1665
97.0 7.538 
123.0 1.277 
136.0 100.0 
232.0 6.38 
250.0 1.025 
330.0 1.322 
348.0 7.406 
428.0 3.947 
END IONS

BEGIN IONS
PEPMASS=124.04
CHARGE=1+
MSLEVEL=2
SOURCE_INSTRUMENT=Positive-Quattro_QQQ:40eV
FILENAME=hmdb_intermediate.mgf
SEQ=*..*
IONMODE=Positive
ORGANISM=HMDB
NAME=HMDB:HMDB01488-1606 Nicotinic acid M+H
PI=HMDB
DATACOLLECTOR=HMDB
SMILES=OC(=O)C1=CN=CC=C1
INCHI=InChI=1S/C6H5NO2/c8-6(9)5-2-1-3-7-4-5/h1-4H,(H,8,9)
INCHIAUX=N/A
PUBMED=N/A
SUBMITUSER=mwang87
TAGS=
LIBRARYQUALITY=3
SPECTRUMID=CCMSLIB00000426694
SCANS=1666
52.003 100.0 
78.096 88.816 
123.685 45.395 
END IONS

BEGIN IONS
PEPMASS=60.98
CHARGE=1+
MSLEVEL=2
SOURCE_INSTRUMENT=Negative-Quattro_QQQ:25eV
FILENAME=hmdb_intermediate.mgf
SEQ=*..*
IONMODE=Negative
ORGANISM=HMDB
NAME=HMDB:HMDB02878-2153 Nitrate M-H
PI=HMDB
DATACOLLECTOR=HMDB
SMILES=[O-][N+]([O-])=O
INCHI=InChI=1S/NO3/c2-1(3)4/q-1
INCHIAUX=N/A
PUBMED=N/A
SUBMITUSER=mwang87
TAGS=
LIBRARYQUALITY=3
SPECTRUMID=CCMSLIB00000426695
SCANS=1667
45.0 89.45 
61.0 100.0 
END IONS

BEGIN IONS
PEPMASS=60.0562
CHARGE=1+
MSLEVEL=2
SOURCE_INSTRUMENT=Positive-Quattro_QQQ:25eV
FILENAME=hmdb_intermediate.mgf
SEQ=*..*
IONMODE=Positive
ORGANISM=HMDB
NAME=HMDB:HMDB01842-1691 Guanidine M+H
PI=HMDB
DATACOLLECTOR=HMDB
SMILES=NC(N)=N
INCHI=InChI=1S/CH5N3/c2-1(3)4/h(H5,2,3,4)
INCHIAUX=N/A
PUBMED=N/A
SUBMITUSER=mwang87
TAGS=
LIBRARYQUALITY=3
SPECTRUMID=CCMSLIB00000426696
SCANS=1668
43.0 100.0 
60.0 31.666 
END IONS

BEGIN IONS
PEPMASS=313.311
CHARGE=1+
MSLEVEL=2
SOURCE_INSTRUMENT=Positive-Quattro_QQQ:40eV
FILENAME=hmdb_intermediate.mgf
SEQ=*..*
IONMODE=Positive
ORGANISM=HMDB
NAME=HMDB:HMDB02212-2036 Arachidic acid M+H
PI=HMDB
DATACOLLECTOR=HMDB
SMILES=CCCCCCCCCCCCCCCCCCCC(O)=O
INCHI=InChI=1S/C20H40O2/c1-2-3-4-5-6-7-8-9-10-11-12-13-14-15-16-17-18-19-20(21)22/h2-19H2,1H3,(H,21,22)
INCHIAUX=N/A
PUBMED=N/A
SUBMITUSER=mwang87
TAGS=
LIBRARYQUALITY=3
SPECTRUMID=CCMSLIB00000426697
SCANS=1669
54.0 25.224 
56.0 100.0 
68.0 34.633 
80.0 17.352 
92.0 13.979 
98.0 9.444 
105.0 6.188 
126.0 6.043 
144.0 27.415 
145.0 8.964 
188.0 11.164 
208.0 6.893 
252.0 6.218 
271.0 7.175 
END IONS

BEGIN IONS
PEPMASS=154.087
CHARGE=1+
MSLEVEL=2
SOURCE_INSTRUMENT=Positive-Quattro_QQQ:40eV
FILENAME=hmdb_intermediate.mgf
SEQ=*..*
IONMODE=Positive
ORGANISM=HMDB
NAME=HMDB:HMDB00073-122 Dopamine M+H
PI=HMDB
DATACOLLECTOR=HMDB
SMILES=NCCC1=CC=C(O)C(O)=C1
INCHI=InChI=1S/C8H11NO2/c9-4-3-6-1-2-7(10)8(11)5-6/h1-2,5,10-11H,3-4,9H2
INCHIAUX=N/A
PUBMED=N/A
SUBMITUSER=mwang87
TAGS=
LIBRARYQUALITY=3
SPECTRUMID=CCMSLIB00000426698
SCANS=1670
41.366 8.503 
63.195 5.087 
65.186 100.0 
91.075 54.942 
118.948 3.87 
137.008 3.18 
END IONS

BEGIN IONS
PEPMASS=450.322
CHARGE=1+
MSLEVEL=2
SOURCE_INSTRUMENT=Positive-Quattro_QQQ:40eV
FILENAME=hmdb_intermediate.mgf
SEQ=*..*
IONMODE=Positive
ORGANISM=HMDB
NAME=HMDB:HMDB00631-863 Deoxycholic acid glycine conjugate M+H
PI=HMDB
DATACOLLECTOR=HMDB
SMILES=[H][C@]12CCC3C4CC[C@H]([C@H](C)CCC(=O)NCC(O)=O)[C@@]4(C)[C@@H](O)CC3[C@@]1(C)CC[C@@H](O)C2
INCHI=InChI=1S/C26H43NO5/c1-15(4-9-23(30)27-14-24(31)32)19-7-8-20-18-6-5-16-12-17(28)10-11-25(16,2)21(18)13-22(29)26(19,20)3/h15-22,28-29H,4-14H2,1-3H3,(H,27,30)(H,31,32)/t15-,16-,17-,18?,19-,20?,21?,22+,25+,26-/m1/s1
INCHIAUX=N/A
PUBMED=N/A
SUBMITUSER=mwang87
TAGS=
LIBRARYQUALITY=3
SPECTRUMID=CCMSLIB00000426699
SCANS=1671
55.288 12.598 
67.191 18.066 
76.121 100.0 
93.122 40.234 
95.097 49.219 
107.079 48.047 
121.061 35.156 
133.013 36.719 
135.028 35.938 
145.013 27.734 
159.035 35.547 
172.987 22.754 
175.033 18.359 
186.995 22.754 
201.011 18.652 
211.014 20.313 
214.957 17.285 
228.982 13.77 
321.148 9.277 
END IONS

BEGIN IONS
PEPMASS=175.12
CHARGE=1+
MSLEVEL=2
SOURCE_INSTRUMENT=Positive-Quattro_QQQ:25eV
FILENAME=hmdb_intermediate.mgf
SEQ=*..*
IONMODE=Positive
ORGANISM=HMDB
NAME=HMDB:HMDB00517-741 L-Arginine M+H
PI=HMDB
DATACOLLECTOR=HMDB
SMILES=N[C@@H](CCCN=C(N)N)C(O)=O
INCHI=InChI=1S/C6H14N4O2/c7-4(5(11)12)2-1-3-10-6(8)9/h4H,1-3,7H2,(H,11,12)(H4,8,9,10)/t4-/m0/s1
INCHIAUX=N/A
PUBMED=N/A
SUBMITUSER=mwang87
TAGS=
LIBRARYQUALITY=3
SPECTRUMID=CCMSLIB00000426700
SCANS=1672
43.318 2.034 
60.16 15.98 
70.143 100.0 
115.909 2.99 
129.946 1.961 
END IONS

BEGIN IONS
PEPMASS=330.06
CHARGE=1+
MSLEVEL=2
SOURCE_INSTRUMENT=Positive-Quattro_QQQ:25eV
FILENAME=hmdb_intermediate.mgf
SEQ=*..*
IONMODE=Positive
ORGANISM=HMDB
NAME=HMDB:HMDB00058-94 Cyclic AMP M+H
PI=HMDB
DATACOLLECTOR=HMDB
SMILES=NC1=NC=NC2=C1N=CN2[C@@H]1O[C@@H]2COP(O)(=O)O[C@H]2[C@H]1O
INCHI=InChI=1S/C10H12N5O6P/c11-8-5-9(13-2-12-8)15(3-14-5)10-6(16)7-4(20-10)1-19-22(17,18)21-7/h2-4,6-7,10,16H,1H2,(H,17,18)(H2,11,12,13)/t4-,6-,7-,10-/m1/s1
INCHIAUX=N/A
PUBMED=N/A
SUBMITUSER=mwang87
TAGS=
LIBRARYQUALITY=3
SPECTRUMID=CCMSLIB00000426701
SCANS=1673
329.52 100.0 
END IONS

BEGIN IONS
PEPMASS=299.295
CHARGE=1+
MSLEVEL=2
SOURCE_INSTRUMENT=Positive-Quattro_QQQ:25eV
FILENAME=hmdb_intermediate.mgf
SEQ=*..*
IONMODE=Positive
ORGANISM=HMDB
NAME=HMDB:HMDB00795-1133 Pristanic acid M+H
PI=HMDB
DATACOLLECTOR=HMDB
SMILES=CC(C)CCCC(C)CCCC(C)CCCC(C)C(O)=O
INCHI=InChI=1S/C19H38O2/c1-15(2)9-6-10-16(3)11-7-12-17(4)13-8-14-18(5)19(20)21/h15-18H,6-14H2,1-5H3,(H,20,21)
INCHIAUX=N/A
PUBMED=N/A
SUBMITUSER=mwang87
TAGS=
LIBRARYQUALITY=3
SPECTRUMID=CCMSLIB00000426702
SCANS=1674
57.473 35.356 
109.02 23.087 
136.023 100.0 
148.789 53.964 
164.255 5.72 
178.495 18.952 
214.709 9.441 
282.48 6.133 
END IONS

BEGIN IONS
PEPMASS=405.01
CHARGE=1+
MSLEVEL=2
SOURCE_INSTRUMENT=Positive-Quattro_QQQ:40eV
FILENAME=hmdb_intermediate.mgf
SEQ=*..*
IONMODE=Positive
ORGANISM=HMDB
NAME=HMDB:HMDB00295-503 Uridine 5'-diphosphate M+H
PI=HMDB
DATACOLLECTOR=HMDB
SMILES=O[C@H]1[C@@H](O)[C@@H](O[C@@H]1COP(O)(=O)OP(O)(O)=O)N1C=CC(=O)NC1=O
INCHI=InChI=1S/C9H14N2O12P2/c12-5-1-2-11(9(15)10-5)8-7(14)6(13)4(22-8)3-21-25(19,20)23-24(16,17)18/h1-2,4,6-8,13-14H,3H2,(H,19,20)(H,10,12,15)(H2,16,17,18)/t4-,6-,7-,8-/m1/s1
INCHIAUX=N/A
PUBMED=N/A
SUBMITUSER=mwang87
TAGS=
LIBRARYQUALITY=3
SPECTRUMID=CCMSLIB00000426703
SCANS=1675
69.0 24.369 
97.1 100.0 
END IONS

BEGIN IONS
PEPMASS=165.019
CHARGE=1+
MSLEVEL=2
SOURCE_INSTRUMENT=Negative-Quattro_QQQ:10eV
FILENAME=hmdb_intermediate.mgf
SEQ=*..*
IONMODE=Negative
ORGANISM=HMDB
NAME=HMDB:HMDB02428-2104 Terephthalic acid M-H
PI=HMDB
DATACOLLECTOR=HMDB
SMILES=OC(=O)C1=CC=C(C=C1)C(O)=O
INCHI=InChI=1S/C8H6O4/c9-7(10)5-1-2-6(4-3-5)8(11)12/h1-4H,(H,9,10)(H,11,12)
INCHIAUX=N/A
PUBMED=N/A
SUBMITUSER=mwang87
TAGS=
LIBRARYQUALITY=3
SPECTRUMID=CCMSLIB00000426704
SCANS=1676
76.0 3.07 
120.0 100.0 
164.0 20.492 
165.0 5.266 
END IONS

BEGIN IONS
PEPMASS=426.053
CHARGE=1+
MSLEVEL=2
SOURCE_INSTRUMENT=Positive-Quattro_QQQ:25eV
FILENAME=hmdb_intermediate.mgf
SEQ=*..*
IONMODE=Positive
ORGANISM=HMDB
NAME=HMDB:HMDB01372-1542 Thiamine pyrophosphate M+H
PI=HMDB
DATACOLLECTOR=HMDB
SMILES=CC1=C(CCO[P@](O)(=O)OP(O)(O)=O)SC=[N+]1CC1=CN=C(C)N=C1N
INCHI=InChI=1S/C12H18N4O7P2S/c1-8-11(3-4-22-25(20,21)23-24(17,18)19)26-7-16(8)6-10-5-14-9(2)15-12(10)13/h5,7H,3-4,6H2,1-2H3,(H4-,13,14,15,17,18,19,20,21)/p+1
INCHIAUX=N/A
PUBMED=N/A
SUBMITUSER=mwang87
TAGS=
LIBRARYQUALITY=3
SPECTRUMID=CCMSLIB00000426705
SCANS=1677
80.0 1.897 
122.0 100.0 
126.0 10.774 
224.0 7.298 
225.0 3.235 
304.0 7.448 
305.0 3.298 
END IONS

BEGIN IONS
PEPMASS=130.998
CHARGE=1+
MSLEVEL=2
SOURCE_INSTRUMENT=Negative-Quattro_QQQ:40eV
FILENAME=hmdb_intermediate.mgf
SEQ=*..*
IONMODE=Negative
ORGANISM=HMDB
NAME=HMDB:HMDB00223-369 Oxalacetic acid M-H
PI=HMDB
DATACOLLECTOR=HMDB
SMILES=OC(=O)CC(=O)C(O)=O
INCHI=InChI=1S/C4H4O5/c5-2(4(8)9)1-3(6)7/h1H2,(H,6,7)(H,8,9)
INCHIAUX=N/A
PUBMED=N/A
SUBMITUSER=mwang87
TAGS=
LIBRARYQUALITY=3
SPECTRUMID=CCMSLIB00000426706
SCANS=1678
41.619 100.0 
45.544 6.479 
59.435 25.305 
87.311 79.268 
131.184 22.561 
END IONS

BEGIN IONS
PEPMASS=78.0377
CHARGE=1+
MSLEVEL=2
SOURCE_INSTRUMENT=Positive-Quattro_QQQ:25eV
FILENAME=hmdb_intermediate.mgf
SEQ=*..*
IONMODE=Positive
ORGANISM=HMDB
NAME=HMDB:HMDB02991-2177 Cysteamine M+H
PI=HMDB
DATACOLLECTOR=HMDB
SMILES=NCCS
INCHI=InChI=1S/C2H7NS/c3-1-2-4/h4H,1-3H2
INCHIAUX=N/A
PUBMED=N/A
SUBMITUSER=mwang87
TAGS=
LIBRARYQUALITY=3
SPECTRUMID=CCMSLIB00000426707
SCANS=1679
18.0 5.988 
27.0 24.183 
35.0 31.818 
61.0 100.0 
78.0 8.302 
END IONS

BEGIN IONS
PEPMASS=229.144
CHARGE=1+
MSLEVEL=2
SOURCE_INSTRUMENT=Negative-Quattro_QQQ:25eV
FILENAME=hmdb_intermediate.mgf
SEQ=*..*
IONMODE=Negative
ORGANISM=HMDB
NAME=HMDB:HMDB00623-847 Dodecanedioic acid M-H
PI=HMDB
DATACOLLECTOR=HMDB
SMILES=OC(=O)CCCCCCCCCCC(O)=O
INCHI=InChI=1S/C12H22O4/c13-11(14)9-7-5-3-1-2-4-6-8-10-12(15)16/h1-10H2,(H,13,14)(H,15,16)
INCHIAUX=N/A
PUBMED=N/A
SUBMITUSER=mwang87
TAGS=
LIBRARYQUALITY=3
SPECTRUMID=CCMSLIB00000426708
SCANS=1680
57.477 8.913 
71.388 2.391 
80.367 3.397 
139.218 3.111 
167.227 43.478 
211.165 100.0 
229.104 11.25 
END IONS

BEGIN IONS
PEPMASS=191.103
CHARGE=1+
MSLEVEL=2
SOURCE_INSTRUMENT=Positive-Quattro_QQQ:25eV
FILENAME=hmdb_intermediate.mgf
SEQ=*..*
IONMODE=Positive
ORGANISM=HMDB
NAME=HMDB:HMDB01370-1539 Diaminopimelic acid M+H
PI=HMDB
DATACOLLECTOR=HMDB
SMILES=N[C@@H](CCC[C@H](N)C(O)=O)C(O)=O
INCHI=InChI=1S/C7H14N2O4/c8-4(6(10)11)2-1-3-5(9)7(12)13/h4-5H,1-3,8-9H2,(H,10,11)(H,12,13)/t4-,5-/m0/s1
INCHIAUX=N/A
PUBMED=N/A
SUBMITUSER=mwang87
TAGS=
LIBRARYQUALITY=3
SPECTRUMID=CCMSLIB00000426709
SCANS=1681
82.0 100.0 
128.0 20.733 
END IONS

BEGIN IONS
PEPMASS=166.087
CHARGE=1+
MSLEVEL=2
SOURCE_INSTRUMENT=Positive-Quattro_QQQ:10eV
FILENAME=hmdb_intermediate.mgf
SEQ=*..*
IONMODE=Positive
ORGANISM=HMDB
NAME=HMDB:HMDB00159-248 L-Phenylalanine M+H
PI=HMDB
DATACOLLECTOR=HMDB
SMILES=N[C@@H](CC1=CC=CC=C1)C(O)=O
INCHI=InChI=1S/C9H11NO2/c10-8(9(11)12)6-7-4-2-1-3-5-7/h1-5,8H,6,10H2,(H,11,12)/t8-/m0/s1
INCHIAUX=N/A
PUBMED=N/A
SUBMITUSER=mwang87
TAGS=
LIBRARYQUALITY=3
SPECTRUMID=CCMSLIB00000426710
SCANS=1682
103.016 4.216 
119.964 100.0 
130.964 7.157 
148.905 7.745 
165.958 44.706 
END IONS

BEGIN IONS
PEPMASS=254.089
CHARGE=1+
MSLEVEL=2
SOURCE_INSTRUMENT=Positive-Quattro_QQQ:10eV
FILENAME=hmdb_intermediate.mgf
SEQ=*..*
IONMODE=Positive
ORGANISM=HMDB
NAME=HMDB:HMDB00845-1190 Neopterin M+H
PI=HMDB
DATACOLLECTOR=HMDB
SMILES=NC1=NC2=C(N=C(C=N2)C(O)C(O)CO)C(=O)N1
INCHI=InChI=1S/C9H11N5O4/c10-9-13-7-5(8(18)14-9)12-3(1-11-7)6(17)4(16)2-15/h1,4,6,15-17H,2H2,(H3,10,11,13,14,18)
INCHIAUX=N/A
PUBMED=N/A
SUBMITUSER=mwang87
TAGS=
LIBRARYQUALITY=3
SPECTRUMID=CCMSLIB00000426711
SCANS=1683
193.865 2.357 
205.984 10.064 
217.979 3.204 
235.979 15.89 
254.004 100.0 
END IONS

BEGIN IONS
PEPMASS=141.066
CHARGE=1+
MSLEVEL=2
SOURCE_INSTRUMENT=Positive-Quattro_QQQ:10eV
FILENAME=hmdb_intermediate.mgf
SEQ=*..*
IONMODE=Positive
ORGANISM=HMDB
NAME=HMDB:HMDB02820-2140 Methylimidazoleacetic acid M+H
PI=HMDB
DATACOLLECTOR=HMDB
SMILES=CN1C=NC(CC(O)=O)=C1
INCHI=InChI=1S/C6H8N2O2/c1-8-3-5(7-4-8)2-6(9)10/h3-4H,2H2,1H3,(H,9,10)
INCHIAUX=N/A
PUBMED=N/A
SUBMITUSER=mwang87
TAGS=
LIBRARYQUALITY=3
SPECTRUMID=CCMSLIB00000426712
SCANS=1684
95.0 100.0 
123.0 7.354 
141.0 68.104 
END IONS

BEGIN IONS
PEPMASS=647.465
CHARGE=1+
MSLEVEL=2
SOURCE_INSTRUMENT=Negative-Quattro_QQQ:25eV
FILENAME=hmdb_intermediate.mgf
SEQ=*..*
IONMODE=Negative
ORGANISM=HMDB
NAME=HMDB:HMDB00674-934 PA(16:0/16:0) M-H
PI=HMDB
DATACOLLECTOR=HMDB
SMILES=CCCCCCCCCCCCCCCC(=O)OC[C@H](COP(O)(O)=O)OC(=O)CCCCCCCCCCCCCCC
INCHI=InChI=1S/C35H69O8P/c1-3-5-7-9-11-13-15-17-19-21-23-25-27-29-34(36)41-31-33(32-42-44(38,39)40)43-35(37)30-28-26-24-22-20-18-16-14-12-10-8-6-4-2/h33H,3-32H2,1-2H3,(H2,38,39,40)/t33-/m1/s1
INCHIAUX=N/A
PUBMED=N/A
SUBMITUSER=mwang87
TAGS=
LIBRARYQUALITY=3
SPECTRUMID=CCMSLIB00000426713
SCANS=1685
78.0 12.699 
96.0 1.471 
152.0 41.911 
255.0 100.0 
391.0 25.651 
409.0 16.241 
647.0 1.317 
END IONS

BEGIN IONS
PEPMASS=255.066
CHARGE=1+
MSLEVEL=2
SOURCE_INSTRUMENT=Positive-Quattro_QQQ:40eV
FILENAME=hmdb_intermediate.mgf
SEQ=*..*
IONMODE=Positive
ORGANISM=HMDB
NAME=HMDB:HMDB03312-2238 Daidzein M+H
PI=HMDB
DATACOLLECTOR=HMDB
SMILES=OC1=CC=C(C=C1)C1=COC2=C(C=CC(O)=C2)C1=O
INCHI=InChI=1S/C15H10O4/c16-10-3-1-9(2-4-10)13-8-19-14-7-11(17)5-6-12(14)15(13)18/h1-8,16-17H
INCHIAUX=N/A
PUBMED=N/A
SUBMITUSER=mwang87
TAGS=
LIBRARYQUALITY=3
SPECTRUMID=CCMSLIB00000426714
SCANS=1686
65.06 39.174 
90.99 100.0 
136.86 13.277 
152.41 8.384 
END IONS

BEGIN IONS
PEPMASS=153.041
CHARGE=1+
MSLEVEL=2
SOURCE_INSTRUMENT=Positive-Quattro_QQQ:25eV
FILENAME=hmdb_intermediate.mgf
SEQ=*..*
IONMODE=Positive
ORGANISM=HMDB
NAME=HMDB:HMDB00786-1123 Oxypurinol M+H
PI=HMDB
DATACOLLECTOR=HMDB
SMILES=O=C1NC2=C(C=NN2)C(=O)N1
INCHI=InChI=1S/C5H4N4O2/c10-4-2-1-6-9-3(2)7-5(11)8-4/h1H,(H3,6,7,8,9,10,11)
INCHIAUX=N/A
PUBMED=N/A
SUBMITUSER=mwang87
TAGS=
LIBRARYQUALITY=3
SPECTRUMID=CCMSLIB00000426715
SCANS=1687
54.421 17.835 
55.179 48.606 
70.716 68.29 
84.106 33.88 
94.465 20.843 
94.844 35.698 
109.75 86.838 
136.406 100.0 
152.577 42.968 
END IONS

BEGIN IONS
PEPMASS=129.019
CHARGE=1+
MSLEVEL=2
SOURCE_INSTRUMENT=Negative-Quattro_QQQ:40eV
FILENAME=hmdb_intermediate.mgf
SEQ=*..*
IONMODE=Negative
ORGANISM=HMDB
NAME=HMDB:HMDB00620-839 Glutaconic acid M-H
PI=HMDB
DATACOLLECTOR=HMDB
SMILES=OC(=O)C\C=C\C(O)=O
INCHI=InChI=1S/C5H6O4/c6-4(7)2-1-3-5(8)9/h1-2H,3H2,(H,6,7)(H,8,9)/b2-1+
INCHIAUX=N/A
PUBMED=N/A
SUBMITUSER=mwang87
TAGS=
LIBRARYQUALITY=3
SPECTRUMID=CCMSLIB00000426716
SCANS=1688
41.286 100.0 
67.109 24.096 
84.217 15.361 
85.083 67.47 
128.999 19.729 
END IONS

BEGIN IONS
PEPMASS=308.092
CHARGE=1+
MSLEVEL=2
SOURCE_INSTRUMENT=Positive-Quattro_QQQ:25eV
FILENAME=hmdb_intermediate.mgf
SEQ=*..*
IONMODE=Positive
ORGANISM=HMDB
NAME=HMDB:HMDB00125-187 Glutathione M+H
PI=HMDB
DATACOLLECTOR=HMDB
SMILES=N[C@@H](CCC(=O)N[C@@H](CS)C(=O)NCC(O)=O)C(O)=O
INCHI=InChI=1S/C10H17N3O6S/c11-5(10(18)19)1-2-7(14)13-6(4-20)9(17)12-3-8(15)16/h5-6,20H,1-4,11H2,(H,12,17)(H,13,14)(H,15,16)(H,18,19)/t5-,6-/m0/s1
INCHIAUX=N/A
PUBMED=N/A
SUBMITUSER=mwang87
TAGS=
LIBRARYQUALITY=3
SPECTRUMID=CCMSLIB00000426717
SCANS=1689
84.081 100.0 
85.323 9.583 
115.928 11.75 
129.99 25.0 
143.795 8.417 
161.848 14.583 
178.856 8.917 
184.822 3.938 
230.766 4.771 
END IONS

BEGIN IONS
PEPMASS=184.028
CHARGE=1+
MSLEVEL=2
SOURCE_INSTRUMENT=Positive-Quattro_QQQ:10eV
FILENAME=hmdb_intermediate.mgf
SEQ=*..*
IONMODE=Positive
ORGANISM=HMDB
NAME=HMDB:HMDB02205-2028 L-Homocysteic acid M+H
PI=HMDB
DATACOLLECTOR=HMDB
SMILES=N[C@@H](CCS(O)(=O)=O)C(O)=O
INCHI=InChI=1S/C4H9NO5S/c5-3(4(6)7)1-2-11(8,9)10/h3H,1-2,5H2,(H,6,7)(H,8,9,10)/t3-/m0/s1
INCHIAUX=N/A
PUBMED=N/A
SUBMITUSER=mwang87
TAGS=
LIBRARYQUALITY=3
SPECTRUMID=CCMSLIB00000426718
SCANS=1690
56.06 42.853 
137.81 100.0 
183.8 65.851 
END IONS

BEGIN IONS
PEPMASS=198.077
CHARGE=1+
MSLEVEL=2
SOURCE_INSTRUMENT=Positive-Quattro_QQQ:40eV
FILENAME=hmdb_intermediate.mgf
SEQ=*..*
IONMODE=Positive
ORGANISM=HMDB
NAME=HMDB:HMDB00609-827 DL-Dopa M+H
PI=HMDB
DATACOLLECTOR=HMDB
SMILES=NC(CC1=CC=C(O)C(O)=C1)C(O)=O
INCHI=InChI=1S/C9H11NO4/c10-6(9(13)14)3-5-1-2-7(11)8(12)4-5/h1-2,4,6,11-12H,3,10H2,(H,13,14)
INCHIAUX=N/A
PUBMED=N/A
SUBMITUSER=mwang87
TAGS=
LIBRARYQUALITY=3
SPECTRUMID=CCMSLIB00000426719
SCANS=1691
65.125 86.022 
77.06 100.0 
92.992 14.852 
106.653 38.441 
122.938 15.323 
133.775 16.331 
134.524 14.247 
151.709 4.57 
END IONS

BEGIN IONS
PEPMASS=291.232
CHARGE=1+
MSLEVEL=2
SOURCE_INSTRUMENT=Positive-Quattro_QQQ:25eV
FILENAME=hmdb_intermediate.mgf
SEQ=*..*
IONMODE=Positive
ORGANISM=HMDB
NAME=HMDB:HMDB00365-583 Epiandrosterone M+H
PI=HMDB
DATACOLLECTOR=HMDB
SMILES=[H][C@@]12CCC(=O)[C@@]1(C)CC[C@@]1([H])[C@@]2([H])CCC2C[C@@H](O)CC[C@]12C
INCHI=InChI=1S/C19H30O2/c1-18-9-7-13(20)11-12(18)3-4-14-15-5-6-17(21)19(15,2)10-8-16(14)18/h12-16,20H,3-11H2,1-2H3/t12?,13-,14-,15-,16-,18-,19-/m0/s1
INCHIAUX=N/A
PUBMED=N/A
SUBMITUSER=mwang87
TAGS=
LIBRARYQUALITY=3
SPECTRUMID=CCMSLIB00000426720
SCANS=1692
69.385 14.007 
81.297 78.723 
93.21 49.645 
95.479 23.759 
107.261 100.0 
119.201 13.475 
133.101 7.979 
135.043 11.348 
147.299 19.149 
159.134 60.284 
172.938 43.44 
187.172 12.943 
198.794 15.426 
END IONS

BEGIN IONS
PEPMASS=176.071
CHARGE=1+
MSLEVEL=2
SOURCE_INSTRUMENT=Positive-Quattro_QQQ:25eV
FILENAME=hmdb_intermediate.mgf
SEQ=*..*
IONMODE=Positive
ORGANISM=HMDB
NAME=HMDB:HMDB00197-320 Indoleacetic acid M+H
PI=HMDB
DATACOLLECTOR=HMDB
SMILES=OC(=O)CC1=CNC2=C1C=CC=C2
INCHI=InChI=1S/C10H9NO2/c12-10(13)5-7-6-11-9-4-2-1-3-8(7)9/h1-4,6,11H,5H2,(H,12,13)
INCHIAUX=N/A
PUBMED=N/A
SUBMITUSER=mwang87
TAGS=
LIBRARYQUALITY=3
SPECTRUMID=CCMSLIB00000426721
SCANS=1693
77.043 2.872 
102.974 18.159 
116.885 1.499 
129.9 100.0 
END IONS

BEGIN IONS
PEPMASS=191.019
CHARGE=1+
MSLEVEL=2
SOURCE_INSTRUMENT=Negative-Quattro_QQQ:25eV
FILENAME=hmdb_intermediate.mgf
SEQ=*..*
IONMODE=Negative
ORGANISM=HMDB
NAME=HMDB:HMDB00094-145 Citric acid M-H
PI=HMDB
DATACOLLECTOR=HMDB
SMILES=OC(=O)CC(O)(CC(O)=O)C(O)=O
INCHI=InChI=1S/C6H8O7/c7-3(8)1-6(13,5(11)12)2-4(9)10/h13H,1-2H2,(H,7,8)(H,9,10)(H,11,12)
INCHIAUX=N/A
PUBMED=N/A
SUBMITUSER=mwang87
TAGS=
LIBRARYQUALITY=3
SPECTRUMID=CCMSLIB00000426722
SCANS=1694
43.355 41.954 
57.245 24.138 
67.159 43.103 
87.059 100.0 
110.958 51.724 
END IONS

BEGIN IONS
PEPMASS=132.102
CHARGE=1+
MSLEVEL=2
SOURCE_INSTRUMENT=Positive-Quattro_QQQ:25eV
FILENAME=hmdb_intermediate.mgf
SEQ=*..*
IONMODE=Positive
ORGANISM=HMDB
NAME=HMDB:HMDB00172-272 L-Isoleucine M+H
PI=HMDB
DATACOLLECTOR=HMDB
SMILES=CC[C@H](C)[C@H](N)C(O)=O
INCHI=InChI=1S/C6H13NO2/c1-3-4(2)5(7)6(8)9/h4-5H,3,7H2,1-2H3,(H,8,9)/t4-,5-/m0/s1
INCHIAUX=N/A
PUBMED=N/A
SUBMITUSER=mwang87
TAGS=
LIBRARYQUALITY=3
SPECTRUMID=CCMSLIB00000426723
SCANS=1695
44.247 65.5 
57.131 21.875 
69.134 98.5 
86.048 100.0 
131.901 6.219 
END IONS

BEGIN IONS
PEPMASS=163.061
CHARGE=1+
MSLEVEL=2
SOURCE_INSTRUMENT=Positive-Quattro_QQQ:25eV
FILENAME=hmdb_intermediate.mgf
SEQ=*..*
IONMODE=Positive
ORGANISM=HMDB
NAME=HMDB:HMDB00355-568 3-Hydroxymethylglutaric acid M+H
PI=HMDB
DATACOLLECTOR=HMDB
SMILES=CC(O)(CC(O)=O)CC(O)=O
INCHI=InChI=1S/C6H10O5/c1-6(11,2-4(7)8)3-5(9)10/h11H,2-3H2,1H3,(H,7,8)(H,9,10)
INCHIAUX=N/A
PUBMED=N/A
SUBMITUSER=mwang87
TAGS=
LIBRARYQUALITY=3
SPECTRUMID=CCMSLIB00000426724
SCANS=1696
54.879 31.55 
69.21 24.069 
77.684 100.0 
93.013 36.447 
98.621 71.179 
105.974 80.97 
122.051 58.801 
127.535 23.144 
135.636 43.652 
146.105 25.915 
161.81 15.477 
END IONS

BEGIN IONS
PEPMASS=248.032
CHARGE=1+
MSLEVEL=2
SOURCE_INSTRUMENT=Positive-Quattro_QQQ:40eV
FILENAME=hmdb_intermediate.mgf
SEQ=*..*
IONMODE=Positive
ORGANISM=HMDB
NAME=HMDB:HMDB01491-1612 Pyridoxal 5'-phosphate M+H
PI=HMDB
DATACOLLECTOR=HMDB
SMILES=CC1=NC=C(COP(O)(O)=O)C(C=O)=C1O
INCHI=InChI=1S/C8H10NO6P/c1-5-8(11)7(3-10)6(2-9-5)4-15-16(12,13)14/h2-3,11H,4H2,1H3,(H2,12,13,14)
INCHIAUX=N/A
PUBMED=N/A
SUBMITUSER=mwang87
TAGS=
LIBRARYQUALITY=3
SPECTRUMID=CCMSLIB00000426725
SCANS=1697
67.0 100.0 
77.0 26.475 
94.0 81.261 
106.0 6.816 
122.0 16.267 
150.0 9.464 
END IONS

BEGIN IONS
PEPMASS=348.071
CHARGE=1+
MSLEVEL=2
SOURCE_INSTRUMENT=Positive-Quattro_QQQ:10eV
FILENAME=hmdb_intermediate.mgf
SEQ=*..*
IONMODE=Positive
ORGANISM=HMDB
NAME=HMDB:HMDB01044-1396 2'-Deoxyguanosine 5'-monophosphate M+H
PI=HMDB
DATACOLLECTOR=HMDB
SMILES=NC1=NC2=C(N=CN2[C@H]2C[C@H](O)[C@@H](COP(O)(O)=O)O2)C(=O)N1
INCHI=InChI=1S/C10H14N5O7P/c11-10-13-8-7(9(17)14-10)12-3-15(8)6-1-4(16)5(22-6)2-21-23(18,19)20/h3-6,16H,1-2H2,(H2,18,19,20)(H3,11,13,14,17)/t4-,5+,6+/m0/s1
INCHIAUX=N/A
PUBMED=N/A
SUBMITUSER=mwang87
TAGS=
LIBRARYQUALITY=3
SPECTRUMID=CCMSLIB00000426726
SCANS=1698
151.0 34.882 
191.0 21.163 
269.0 100.0 
306.0 13.021 
347.0 74.127 
END IONS

BEGIN IONS
PEPMASS=150.059
CHARGE=1+
MSLEVEL=2
SOURCE_INSTRUMENT=Positive-Quattro_QQQ:40eV
FILENAME=hmdb_intermediate.mgf
SEQ=*..*
IONMODE=Positive
ORGANISM=HMDB
NAME=HMDB:HMDB00696-971 L-Methionine M+H
PI=HMDB
DATACOLLECTOR=HMDB
SMILES=CSCC[C@H](N)C(O)=O
INCHI=InChI=1S/C5H11NO2S/c1-9-3-2-4(6)5(7)8/h4H,2-3,6H2,1H3,(H,7,8)/t4-/m0/s1
INCHIAUX=N/A
PUBMED=N/A
SUBMITUSER=mwang87
TAGS=
LIBRARYQUALITY=3
SPECTRUMID=CCMSLIB00000426727
SCANS=1699
46.291 11.801 
61.12 100.0 
74.045 13.665 
150.008 3.649 
END IONS

BEGIN IONS
PEPMASS=147.066
CHARGE=1+
MSLEVEL=2
SOURCE_INSTRUMENT=Positive-Quattro_QQQ:40eV
FILENAME=hmdb_intermediate.mgf
SEQ=*..*
IONMODE=Positive
ORGANISM=HMDB
NAME=HMDB:HMDB00752-1076 Methylglutaric acid M+H
PI=HMDB
DATACOLLECTOR=HMDB
SMILES=CC(CC(O)=O)CC(O)=O
INCHI=InChI=1S/C6H10O4/c1-4(2-5(7)8)3-6(9)10/h4H,2-3H2,1H3,(H,7,8)(H,9,10)
INCHIAUX=N/A
PUBMED=N/A
SUBMITUSER=mwang87
TAGS=
LIBRARYQUALITY=3
SPECTRUMID=CCMSLIB00000426728
SCANS=1700
51.888 100.0 
55.627 99.785 
65.222 84.011 
84.04 39.664 
93.885 31.137 
104.478 36.468 
106.472 67.167 
END IONS

BEGIN IONS
PEPMASS=746.099
CHARGE=1+
MSLEVEL=2
SOURCE_INSTRUMENT=Positive-Quattro_QQQ:25eV
FILENAME=hmdb_intermediate.mgf
SEQ=*..*
IONMODE=Positive
ORGANISM=HMDB
NAME=HMDB:HMDB00221-362 NADPH M+H
PI=HMDB
DATACOLLECTOR=HMDB
SMILES=NC(=O)C1=CN(C=CC1)[C@H]1O[C@@H](COP(O)(=O)OP(O)(=O)OC[C@@H]2O[C@@H]([C@@H](OP(O)(O)=O)[C@H]2O)N2C=NC3=C(N)N=CN=C23)[C@H](O)[C@@H]1O
INCHI=InChI=1S/C21H30N7O17P3/c22-17-12-19(25-7-24-17)28(8-26-12)21-16(44-46(33,34)35)14(30)11(43-21)6-41-48(38,39)45-47(36,37)40-5-10-13(29)15(31)20(42-10)27-3-1-2-9(4-27)18(23)32/h1,3-4,7-8,10-11,13-16,20-21,29-31H,2,5-6H2,(H2,23,32)(H,36,37)(H,38,39)(H2,22,24,25)(H2,33,34,35)/t10-,11-,13-,14-,15-,16-,20-,21-/m0/s1
INCHIAUX=N/A
PUBMED=N/A
SUBMITUSER=mwang87
TAGS=
LIBRARYQUALITY=3
SPECTRUMID=CCMSLIB00000426729
SCANS=1701
74.734 10.371 
135.889 96.11 
175.585 10.615 
218.294 13.094 
232.952 20.597 
264.824 15.04 
328.061 20.195 
418.76 11.446 
429.904 11.911 
439.294 12.929 
491.157 11.568 
503.62 10.892 
509.097 100.0 
605.649 35.954 
656.834 11.549 
709.279 13.779 
END IONS

BEGIN IONS
PEPMASS=131.118
CHARGE=1+
MSLEVEL=2
SOURCE_INSTRUMENT=Positive-Quattro_QQQ:25eV
FILENAME=hmdb_intermediate.mgf
SEQ=*..*
IONMODE=Positive
ORGANISM=HMDB
NAME=HMDB:HMDB02064-1976 N-Acetylputrescine M+H
PI=HMDB
DATACOLLECTOR=HMDB
SMILES=CC(=O)NCCCCN
INCHI=InChI=1S/C6H14N2O/c1-6(9)8-5-3-2-4-7/h2-5,7H2,1H3,(H,8,9)
INCHIAUX=N/A
PUBMED=N/A
SUBMITUSER=mwang87
TAGS=
LIBRARYQUALITY=3
SPECTRUMID=CCMSLIB00000426730
SCANS=1702
72.0 100.0 
114.0 2.058 
END IONS

BEGIN IONS
PEPMASS=212.044
CHARGE=1+
MSLEVEL=2
SOURCE_INSTRUMENT=Positive-Quattro_QQQ:40eV
FILENAME=hmdb_intermediate.mgf
SEQ=*..*
IONMODE=Positive
ORGANISM=HMDB
NAME=HMDB:HMDB01511-1618 Phosphocreatine M+H
PI=HMDB
DATACOLLECTOR=HMDB
SMILES=CN(CC(O)=O)C(=N)NP(O)(O)=O
INCHI=InChI=1S/C4H10N3O5P/c1-7(2-3(8)9)4(5)6-13(10,11)12/h2H2,1H3,(H,8,9)(H4,5,6,10,11,12)
INCHIAUX=N/A
PUBMED=N/A
SUBMITUSER=mwang87
TAGS=
LIBRARYQUALITY=3
SPECTRUMID=CCMSLIB00000426731
SCANS=1703
69.0 41.463 
76.0 100.0 
END IONS

BEGIN IONS
PEPMASS=103.04
CHARGE=1+
MSLEVEL=2
SOURCE_INSTRUMENT=Negative-Quattro_QQQ:25eV
FILENAME=hmdb_intermediate.mgf
SEQ=*..*
IONMODE=Negative
ORGANISM=HMDB
NAME=HMDB:HMDB00357-574 3-Hydroxybutyric acid M-H
PI=HMDB
DATACOLLECTOR=HMDB
SMILES=CC(O)CC(O)=O
INCHI=InChI=1S/C4H8O3/c1-3(5)2-4(6)7/h3,5H,2H2,1H3,(H,6,7)
INCHIAUX=N/A
PUBMED=N/A
SUBMITUSER=mwang87
TAGS=
LIBRARYQUALITY=3
SPECTRUMID=CCMSLIB00000426732
SCANS=1704
41.255 48.485 
59.07 100.0 
103.041 34.697 
END IONS

BEGIN IONS
PEPMASS=301.217
CHARGE=1+
MSLEVEL=2
SOURCE_INSTRUMENT=Positive-Quattro_QQQ:10eV
FILENAME=hmdb_intermediate.mgf
SEQ=*..*
IONMODE=Positive
ORGANISM=HMDB
NAME=HMDB:HMDB06219-2475 13-cis-Retinoic acid M+H
PI=HMDB
DATACOLLECTOR=HMDB
SMILES=C\C(\C=C\C1=C(C)CCCC1(C)C)=C/C=C/C(/C)=C\C(O)=O
INCHI=InChI=1S/C20H28O2/c1-15(8-6-9-16(2)14-19(21)22)11-12-18-17(3)10-7-13-20(18,4)5/h6,8-9,11-12,14H,7,10,13H2,1-5H3,(H,21,22)/b9-6+,12-11+,15-8+,16-14-
INCHIAUX=N/A
PUBMED=N/A
SUBMITUSER=mwang87
TAGS=
LIBRARYQUALITY=3
SPECTRUMID=CCMSLIB00000426733
SCANS=1705
301.05 100.0 
END IONS

BEGIN IONS
PEPMASS=208.097
CHARGE=1+
MSLEVEL=2
SOURCE_INSTRUMENT=Positive-Quattro_QQQ:10eV
FILENAME=hmdb_intermediate.mgf
SEQ=*..*
IONMODE=Positive
ORGANISM=HMDB
NAME=HMDB:HMDB00860-1214 Phenylpropionylglycine M+H
PI=HMDB
DATACOLLECTOR=HMDB
SMILES=OC(=O)CNC(=O)CCC1=CC=CC=C1
INCHI=InChI=1S/C11H13NO3/c13-10(12-8-11(14)15)7-6-9-4-2-1-3-5-9/h1-5H,6-8H2,(H,12,13)(H,14,15)
INCHIAUX=N/A
PUBMED=N/A
SUBMITUSER=mwang87
TAGS=
LIBRARYQUALITY=3
SPECTRUMID=CCMSLIB00000426734
SCANS=1706
76.314 100.0 
90.361 3.6 
105.222 36.709 
133.133 23.101 
190.034 2.314 
208.025 14.715 
END IONS

BEGIN IONS
PEPMASS=302.306
CHARGE=1+
MSLEVEL=2
SOURCE_INSTRUMENT=Positive-Quattro_QQQ:25eV
FILENAME=hmdb_intermediate.mgf
SEQ=*..*
IONMODE=Positive
ORGANISM=HMDB
NAME=HMDB:HMDB00269-470 Sphinganine M+H
PI=HMDB
DATACOLLECTOR=HMDB
SMILES=CCCCCCCCCCCCCCC[C@@H](O)[C@@H](N)CO
INCHI=InChI=1S/C18H39NO2/c1-2-3-4-5-6-7-8-9-10-11-12-13-14-15-18(21)17(19)16-20/h17-18,20-21H,2-16,19H2,1H3/t17-,18+/m0/s1
INCHIAUX=N/A
PUBMED=N/A
SUBMITUSER=mwang87
TAGS=
LIBRARYQUALITY=3
SPECTRUMID=CCMSLIB00000426735
SCANS=1707
60.217 100.0 
67.3 29.21 
81.213 30.743 
95.127 23.524 
109.04 14.063 
254.02 29.22 
254.526 19.372 
END IONS

BEGIN IONS
PEPMASS=611.161
CHARGE=1+
MSLEVEL=2
SOURCE_INSTRUMENT=Positive-Quattro_QQQ:40eV
FILENAME=hmdb_intermediate.mgf
SEQ=*..*
IONMODE=Positive
ORGANISM=HMDB
NAME=HMDB:HMDB03249-2223 Rutin M+H
PI=HMDB
DATACOLLECTOR=HMDB
SMILES=C[C@@H]1O[C@@H](OC[C@H]2O[C@@H](OC3=C(OC4=CC(O)=CC(O)=C4C3=O)C3=CC(O)=C(O)C=C3)[C@H](O)[C@@H](O)[C@@H]2O)[C@H](O)[C@H](O)[C@H]1O
INCHI=InChI=1S/C27H30O16/c1-8-17(32)20(35)22(37)26(40-8)39-7-15-18(33)21(36)23(38)27(42-15)43-25-19(34)16-13(31)5-10(28)6-14(16)41-24(25)9-2-3-11(29)12(30)4-9/h2-6,8,15,17-18,20-23,26-33,35-38H,7H2,1H3/t8-,15+,17-,18+,20+,21-,22+,23+,26+,27-/m0/s1
INCHIAUX=N/A
PUBMED=N/A
SUBMITUSER=mwang87
TAGS=
LIBRARYQUALITY=3
SPECTRUMID=CCMSLIB00000426736
SCANS=1708
57.0 5.204 
71.0 24.674 
84.0 33.361 
85.0 24.449 
128.0 6.835 
138.0 4.756 
156.0 4.539 
221.0 5.772 
303.0 100.0 
507.0 14.788 
564.0 9.665 
565.0 15.445 
611.0 89.658 
END IONS

BEGIN IONS
PEPMASS=243.098
CHARGE=1+
MSLEVEL=2
SOURCE_INSTRUMENT=Positive-Quattro_QQQ:10eV
FILENAME=hmdb_intermediate.mgf
SEQ=*..*
IONMODE=Positive
ORGANISM=HMDB
NAME=HMDB:HMDB00273-478 Thymidine M+H
PI=HMDB
DATACOLLECTOR=HMDB
SMILES=CC1=CN([C@H]2C[C@H](O)[C@@H](CO)O2)C(=O)NC1=O
INCHI=InChI=1S/C10H14N2O5/c1-5-3-12(10(16)11-9(5)15)8-2-6(14)7(4-13)17-8/h3,6-8,13-14H,2,4H2,1H3,(H,11,15,16)/t6-,7+,8+/m0/s1
INCHIAUX=N/A
PUBMED=N/A
SUBMITUSER=mwang87
TAGS=
LIBRARYQUALITY=3
SPECTRUMID=CCMSLIB00000426737
SCANS=1709
81.122 3.511 
99.102 4.34 
117.902 15.278 
127.115 100.0 
225.97 2.546 
243.924 2.662 
END IONS

BEGIN IONS
PEPMASS=181.071
CHARGE=1+
MSLEVEL=2
SOURCE_INSTRUMENT=Positive-Quattro_QQQ:10eV
FILENAME=hmdb_intermediate.mgf
SEQ=*..*
IONMODE=Positive
ORGANISM=HMDB
NAME=HMDB:HMDB00660-900 D-Fructose M+H
PI=HMDB
DATACOLLECTOR=HMDB
SMILES=OC[C@H]1O[C@](O)(CO)[C@@H](O)[C@@H]1O
INCHI=InChI=1S/C6H12O6/c7-1-3-4(9)5(10)6(11,2-8)12-3/h3-5,7-11H,1-2H2/t3-,4-,5+,6-/m1/s1
INCHIAUX=N/A
PUBMED=N/A
SUBMITUSER=mwang87
TAGS=
LIBRARYQUALITY=3
SPECTRUMID=CCMSLIB00000426738
SCANS=1710
85.0 17.782 
103.0 5.73 
117.0 32.573 
131.0 3.247 
149.0 100.0 
163.0 8.763 
181.0 13.754 
END IONS

BEGIN IONS
PEPMASS=133.061
CHARGE=1+
MSLEVEL=2
SOURCE_INSTRUMENT=Positive-Quattro_QQQ:25eV
FILENAME=hmdb_intermediate.mgf
SEQ=*..*
IONMODE=Positive
ORGANISM=HMDB
NAME=HMDB:HMDB00168-267 L-Asparagine M+H
PI=HMDB
DATACOLLECTOR=HMDB
SMILES=N[C@@H](CC(N)=O)C(O)=O
INCHI=InChI=1S/C4H8N2O3/c5-2(4(8)9)1-3(6)7/h2H,1,5H2,(H2,6,7)(H,8,9)/t2-/m0/s1
INCHIAUX=N/A
PUBMED=N/A
SUBMITUSER=mwang87
TAGS=
LIBRARYQUALITY=3
SPECTRUMID=CCMSLIB00000426739
SCANS=1711
44.348 10.947 
46.206 21.154 
56.117 6.916 
74.02 100.0 
87.047 5.03 
133.009 2.922 
END IONS

BEGIN IONS
PEPMASS=289.18
CHARGE=1+
MSLEVEL=2
SOURCE_INSTRUMENT=Positive-Quattro_QQQ:25eV
FILENAME=hmdb_intermediate.mgf
SEQ=*..*
IONMODE=Positive
ORGANISM=HMDB
NAME=HMDB:HMDB00338-544 2-Hydroxyestradiol M+H
PI=HMDB
DATACOLLECTOR=HMDB
SMILES=[H][C@@]12CC[C@H](O)[C@@]1(C)CC[C@]1([H])C3=C(CC[C@@]21[H])C=C(O)C(O)=C3
INCHI=InChI=1S/C18H24O3/c1-18-7-6-11-12(14(18)4-5-17(18)21)3-2-10-8-15(19)16(20)9-13(10)11/h8-9,11-12,14,17,19-21H,2-7H2,1H3/t11-,12+,14-,17-,18-/m0/s1
INCHIAUX=N/A
PUBMED=N/A
SUBMITUSER=mwang87
TAGS=
LIBRARYQUALITY=3
SPECTRUMID=CCMSLIB00000426740
SCANS=1712
77.723 17.107 
95.519 53.315 
109.757 41.644 
123.013 100.0 
135.41 17.307 
149.28 12.917 
157.381 15.412 
174.935 59.801 
227.231 26.983 
288.129 13.616 
END IONS

BEGIN IONS
PEPMASS=508.988
CHARGE=1+
MSLEVEL=2
SOURCE_INSTRUMENT=Positive-Quattro_QQQ:25eV
FILENAME=hmdb_intermediate.mgf
SEQ=*..*
IONMODE=Positive
ORGANISM=HMDB
NAME=HMDB:HMDB00189-299 Inosine triphosphate M+H
PI=HMDB
DATACOLLECTOR=HMDB
SMILES=O[C@@H]1[C@@H](COP(O)(=O)OP(O)(=O)OP(O)(O)=O)O[C@H]([C@@H]1O)N1C=NC2=C1N=CN=C2O
INCHI=InChI=1S/C10H15N4O14P3/c15-6-4(1-25-30(21,22)28-31(23,24)27-29(18,19)20)26-10(7(6)16)14-3-13-5-8(14)11-2-12-9(5)17/h2-4,6-7,10,15-16H,1H2,(H,21,22)(H,23,24)(H,11,12,17)(H2,18,19,20)/t4-,6-,7-,10-/m1/s1
INCHIAUX=N/A
PUBMED=N/A
SUBMITUSER=mwang87
TAGS=
LIBRARYQUALITY=3
SPECTRUMID=CCMSLIB00000426741
SCANS=1713
97.0 41.348 
137.0 100.0 
END IONS

BEGIN IONS
PEPMASS=269.063
CHARGE=1+
MSLEVEL=2
SOURCE_INSTRUMENT=Positive-Quattro_QQQ:40eV
FILENAME=hmdb_intermediate.mgf
SEQ=*..*
IONMODE=Positive
ORGANISM=HMDB
NAME=HMDB:HMDB00575-805 DL-Homocystine M+H
PI=HMDB
DATACOLLECTOR=HMDB
SMILES=NC(CCSSCCC(N)C(O)=O)C(O)=O
INCHI=InChI=1S/C8H16N2O4S2/c9-5(7(11)12)1-3-15-16-4-2-6(10)8(13)14/h5-6H,1-4,9-10H2,(H,11,12)(H,13,14)
INCHIAUX=N/A
PUBMED=N/A
SUBMITUSER=mwang87
TAGS=
LIBRARYQUALITY=3
SPECTRUMID=CCMSLIB00000426742
SCANS=1714
56.0 24.567 
73.0 5.796 
87.0 100.0 
133.0 6.753 
135.0 7.881 
END IONS

BEGIN IONS
PEPMASS=209.03
CHARGE=1+
MSLEVEL=2
SOURCE_INSTRUMENT=Negative-Quattro_QQQ:25eV
FILENAME=hmdb_intermediate.mgf
SEQ=*..*
IONMODE=Negative
ORGANISM=HMDB
NAME=HMDB:HMDB00639-874 Galactaric acid M-H
PI=HMDB
DATACOLLECTOR=HMDB
SMILES=O[C@@H]([C@@H](O)[C@H](O)C(O)=O)[C@@H](O)C(O)=O
INCHI=InChI=1S/C6H10O8/c7-1(3(9)5(11)12)2(8)4(10)6(13)14/h1-4,7-10H,(H,11,12)(H,13,14)/t1-,2+,3+,4-
INCHIAUX=N/A
PUBMED=N/A
SUBMITUSER=mwang87
TAGS=
LIBRARYQUALITY=3
SPECTRUMID=CCMSLIB00000426743
SCANS=1715
43.632 15.341 
57.493 59.596 
71.365 100.0 
75.317 13.258 
85.294 73.737 
END IONS

BEGIN IONS
PEPMASS=219.113
CHARGE=1+
MSLEVEL=2
SOURCE_INSTRUMENT=Positive-Quattro_QQQ:40eV
FILENAME=hmdb_intermediate.mgf
SEQ=*..*
IONMODE=Positive
ORGANISM=HMDB
NAME=HMDB:HMDB01238-1480 N-Acetylserotonin M+H
PI=HMDB
DATACOLLECTOR=HMDB
SMILES=CC(=O)NCCC1=CNC2=C1C=C(O)C=C2
INCHI=InChI=1S/C12H14N2O2/c1-8(15)13-5-4-9-7-14-12-3-2-10(16)6-11(9)12/h2-3,6-7,14,16H,4-5H2,1H3,(H,13,15)
INCHIAUX=N/A
PUBMED=N/A
SUBMITUSER=mwang87
TAGS=
LIBRARYQUALITY=3
SPECTRUMID=CCMSLIB00000426744
SCANS=1716
67.0 9.083 
77.0 18.159 
91.0 9.707 
103.0 10.031 
105.0 29.542 
115.0 100.0 
132.0 23.27 
143.0 13.439 
159.0 27.771 
END IONS

BEGIN IONS
PEPMASS=193.05
CHARGE=1+
MSLEVEL=2
SOURCE_INSTRUMENT=Negative-Quattro_QQQ:40eV
FILENAME=hmdb_intermediate.mgf
SEQ=*..*
IONMODE=Negative
ORGANISM=HMDB
NAME=HMDB:HMDB00955-1353 Isoferulic acid M-H
PI=HMDB
DATACOLLECTOR=HMDB
SMILES=COC1=C(O)C=C(\C=C\C(O)=O)C=C1
INCHI=InChI=1S/C10H10O4/c1-14-9-4-2-7(6-8(9)11)3-5-10(12)13/h2-6,11H,1H3,(H,12,13)/b5-3+
INCHIAUX=N/A
PUBMED=N/A
SUBMITUSER=mwang87
TAGS=
LIBRARYQUALITY=3
SPECTRUMID=CCMSLIB00000426745
SCANS=1717
77.373 9.934 
89.33 3.518 
104.167 2.276 
105.165 11.921 
115.2 3.187 
132.982 100.0 
178.247 3.974 
END IONS

BEGIN IONS
PEPMASS=301.217
CHARGE=1+
MSLEVEL=2
SOURCE_INSTRUMENT=Positive-Quattro_QQQ:40eV
FILENAME=hmdb_intermediate.mgf
SEQ=*..*
IONMODE=Positive
ORGANISM=HMDB
NAME=HMDB:HMDB01852-1719 All-trans-retinoic acid M+H
PI=HMDB
DATACOLLECTOR=HMDB
SMILES=C\C(\C=C\C1=C(C)CCCC1(C)C)=C/C=C/C(/C)=C/C(O)=O
INCHI=InChI=1S/C20H28O2/c1-15(8-6-9-16(2)14-19(21)22)11-12-18-17(3)10-7-13-20(18,4)5/h6,8-9,11-12,14H,7,10,13H2,1-5H3,(H,21,22)/b9-6+,12-11+,15-8+,16-14+
INCHIAUX=N/A
PUBMED=N/A
SUBMITUSER=mwang87
TAGS=
LIBRARYQUALITY=3
SPECTRUMID=CCMSLIB00000426746
SCANS=1718
68.874 75.922 
81.798 53.259 
86.893 74.222 
97.083 41.076 
109.262 62.323 
120.695 27.477 
129.146 20.396 
134.614 100.0 
144.557 31.16 
163.697 45.042 
173.391 37.109 
233.676 10.48 
283.028 11.048 
END IONS

BEGIN IONS
PEPMASS=223.075
CHARGE=1+
MSLEVEL=2
SOURCE_INSTRUMENT=Positive-Quattro_QQQ:10eV
FILENAME=hmdb_intermediate.mgf
SEQ=*..*
IONMODE=Positive
ORGANISM=HMDB
NAME=HMDB:HMDB00455-665 Allocystathionine M+H
PI=HMDB
DATACOLLECTOR=HMDB
SMILES=N[C@@H](CCSCC(N)C(O)=O)C(O)=O
INCHI=InChI=1S/C7H14N2O4S/c8-4(6(10)11)1-2-14-3-5(9)7(12)13/h4-5H,1-3,8-9H2,(H,10,11)(H,12,13)/t4-,5?/m0/s1
INCHIAUX=N/A
PUBMED=N/A
SUBMITUSER=mwang87
TAGS=
LIBRARYQUALITY=3
SPECTRUMID=CCMSLIB00000426747
SCANS=1719
56.253 5.839 
88.089 10.681 
133.989 100.0 
177.012 3.316 
222.975 85.446 
END IONS

BEGIN IONS
PEPMASS=152.071
CHARGE=1+
MSLEVEL=2
SOURCE_INSTRUMENT=Positive-Quattro_QQQ:25eV
FILENAME=hmdb_intermediate.mgf
SEQ=*..*
IONMODE=Positive
ORGANISM=HMDB
NAME=HMDB:HMDB01859-1733 Acetaminophen M+H
PI=HMDB
DATACOLLECTOR=HMDB
SMILES=CC(=O)NC1=CC=C(O)C=C1
INCHI=InChI=1S/C8H9NO2/c1-6(10)9-7-2-4-8(11)5-3-7/h2-5,11H,1H3,(H,9,10)
INCHIAUX=N/A
PUBMED=N/A
SUBMITUSER=mwang87
TAGS=
LIBRARYQUALITY=3
SPECTRUMID=CCMSLIB00000426748
SCANS=1720
43.201 11.237 
92.697 13.634 
110.492 100.0 
152.098 62.749 
END IONS

BEGIN IONS
PEPMASS=153.076
CHARGE=1+
MSLEVEL=2
SOURCE_INSTRUMENT=Positive-Quattro_QQQ:10eV
FILENAME=hmdb_intermediate.mgf
SEQ=*..*
IONMODE=Positive
ORGANISM=HMDB
NAME=HMDB:HMDB00508-725 Ribitol M+H
PI=HMDB
DATACOLLECTOR=HMDB
SMILES=OC[C@H](O)[C@H](O)[C@H](O)CO
INCHI=InChI=1S/C5H12O5/c6-1-3(8)5(10)4(9)2-7/h3-10H,1-2H2/t3-,4+,5-
INCHIAUX=N/A
PUBMED=N/A
SUBMITUSER=mwang87
TAGS=
LIBRARYQUALITY=3
SPECTRUMID=CCMSLIB00000426749
SCANS=1721
43.349 6.867 
57.238 25.0 
71.15 36.111 
99.086 100.0 
117.059 31.79 
135.033 25.309 
152.992 9.105 
END IONS

BEGIN IONS
PEPMASS=170.082
CHARGE=1+
MSLEVEL=2
SOURCE_INSTRUMENT=Positive-Quattro_QQQ:10eV
FILENAME=hmdb_intermediate.mgf
SEQ=*..*
IONMODE=Positive
ORGANISM=HMDB
NAME=HMDB:HMDB00239-403 Pyridoxine M+H
PI=HMDB
DATACOLLECTOR=HMDB
SMILES=CC1=NC=C(CO)C(CO)=C1O
INCHI=InChI=1S/C8H11NO3/c1-5-8(12)7(4-11)6(3-10)2-9-5/h2,10-12H,3-4H2,1H3
INCHIAUX=N/A
PUBMED=N/A
SUBMITUSER=mwang87
TAGS=
LIBRARYQUALITY=3
SPECTRUMID=CCMSLIB00000426750
SCANS=1722
134.015 24.314 
151.982 100.0 
169.988 100.0 
END IONS

BEGIN IONS
PEPMASS=148.061
CHARGE=1+
MSLEVEL=2
SOURCE_INSTRUMENT=Positive-Quattro_QQQ:10eV
FILENAME=hmdb_intermediate.mgf
SEQ=*..*
IONMODE=Positive
ORGANISM=HMDB
NAME=HMDB:HMDB02393-2098 N-Methyl-D-aspartic acid M+H
PI=HMDB
DATACOLLECTOR=HMDB
SMILES=CN[C@H](CC(O)=O)C(O)=O
INCHI=InChI=1S/C5H9NO4/c1-6-3(5(9)10)2-4(7)8/h3,6H,2H2,1H3,(H,7,8)(H,9,10)/t3-/m1/s1
INCHIAUX=N/A
PUBMED=N/A
SUBMITUSER=mwang87
TAGS=
LIBRARYQUALITY=3
SPECTRUMID=CCMSLIB00000426751
SCANS=1723
84.0 6.641 
88.0 100.0 
102.0 35.103 
130.0 3.537 
148.0 37.325 
END IONS

BEGIN IONS
PEPMASS=173.021
CHARGE=1+
MSLEVEL=2
SOURCE_INSTRUMENT=Positive-Quattro_QQQ:10eV
FILENAME=hmdb_intermediate.mgf
SEQ=*..*
IONMODE=Positive
ORGANISM=HMDB
NAME=HMDB:HMDB00126-189 Glycerol 3-phosphate M+H
PI=HMDB
DATACOLLECTOR=HMDB
SMILES=OC[C@@H](O)COP(O)(O)=O
INCHI=InChI=1S/C3H9O6P/c4-1-3(5)2-9-10(6,7)8/h3-5H,1-2H2,(H2,6,7,8)/t3-/m1/s1
INCHIAUX=N/A
PUBMED=N/A
SUBMITUSER=mwang87
TAGS=
LIBRARYQUALITY=3
SPECTRUMID=CCMSLIB00000426752
SCANS=1724
57.0 3.402 
75.0 7.095 
99.0 100.0 
141.0 2.276 
173.0 24.309 
END IONS

BEGIN IONS
PEPMASS=464.082
CHARGE=1+
MSLEVEL=2
SOURCE_INSTRUMENT=Positive-Quattro_QQQ:40eV
FILENAME=hmdb_intermediate.mgf
SEQ=*..*
IONMODE=Positive
ORGANISM=HMDB
NAME=HMDB:HMDB00536-760 Adenylsuccinic acid M+H
PI=HMDB
DATACOLLECTOR=HMDB
SMILES=O[C@@H]1[C@@H](COP(O)(O)=O)O[C@H]([C@@H]1O)N1C=NC2=C1N=CN=C2NC(CC(O)=O)C(O)=O
INCHI=InChI=1S/C14H18N5O11P/c20-7(21)1-5(14(24)25)18-11-8-12(16-3-15-11)19(4-17-8)13-10(23)9(22)6(30-13)2-29-31(26,27)28/h3-6,9-10,13,22-23H,1-2H2,(H,20,21)(H,24,25)(H,15,16,18)(H2,26,27,28)/t5?,6-,9-,10-,13-/m1/s1
INCHIAUX=N/A
PUBMED=N/A
SUBMITUSER=mwang87
TAGS=
LIBRARYQUALITY=3
SPECTRUMID=CCMSLIB00000426753
SCANS=1725
96.0 12.889 
119.0 8.852 
135.0 53.749 
148.0 11.909 
162.0 100.0 
191.0 79.367 
206.0 20.512 
233.0 14.421 
251.0 39.266 
END IONS

BEGIN IONS
PEPMASS=130.109
CHARGE=1+
MSLEVEL=2
SOURCE_INSTRUMENT=Positive-Quattro_QQQ:10eV
FILENAME=hmdb_intermediate.mgf
SEQ=*..*
IONMODE=Positive
ORGANISM=HMDB
NAME=HMDB:HMDB01921-1843 1,1-Dimethylbiguanide M+H
PI=HMDB
DATACOLLECTOR=HMDB
SMILES=CN(C)C(=N)NC(N)=N
INCHI=InChI=1S/C4H11N5/c1-9(2)4(7)8-3(5)6/h1-2H3,(H5,5,6,7,8)
INCHIAUX=N/A
PUBMED=N/A
SUBMITUSER=mwang87
TAGS=
LIBRARYQUALITY=3
SPECTRUMID=CCMSLIB00000426754
SCANS=1726
60.0 3.3202916864 
85.02 4.6928652945 
112.98 3.2084643483 
130.14 100.0 
END IONS

BEGIN IONS
PEPMASS=165.092
CHARGE=1+
MSLEVEL=2
SOURCE_INSTRUMENT=Positive-Quattro_QQQ:10eV
FILENAME=hmdb_intermediate.mgf
SEQ=*..*
IONMODE=Positive
ORGANISM=HMDB
NAME=HMDB:HMDB01955-1908 3-Phenylbutyric acid M+H
PI=HMDB
DATACOLLECTOR=HMDB
SMILES=CC(CC(O)=O)C1=CC=CC=C1
INCHI=InChI=1S/C10H12O2/c1-8(7-10(11)12)9-5-3-2-4-6-9/h2-6,8H,7H2,1H3,(H,11,12)
INCHIAUX=N/A
PUBMED=N/A
SUBMITUSER=mwang87
TAGS=
LIBRARYQUALITY=3
SPECTRUMID=CCMSLIB00000426755
SCANS=1727
90.0 9.435 
104.0 100.0 
105.0 42.955 
122.0 13.995 
132.0 5.353 
136.0 5.575 
146.0 13.408 
164.0 25.635 
165.0 8.362 
END IONS

BEGIN IONS
PEPMASS=231.027
CHARGE=1+
MSLEVEL=2
SOURCE_INSTRUMENT=Positive-Quattro_QQQ:25eV
FILENAME=hmdb_intermediate.mgf
SEQ=*..*
IONMODE=Positive
ORGANISM=HMDB
NAME=HMDB:HMDB01548-1650 D-Ribose 5-phosphate M+H
PI=HMDB
DATACOLLECTOR=HMDB
SMILES=OC1O[C@H](COP(O)(O)=O)[C@@H](O)[C@H]1O
INCHI=InChI=1S/C5H11O8P/c6-3-2(1-12-14(9,10)11)13-5(8)4(3)7/h2-8H,1H2,(H2,9,10,11)/t2-,3-,4-,5?/m1/s1
INCHIAUX=N/A
PUBMED=N/A
SUBMITUSER=mwang87
TAGS=
LIBRARYQUALITY=3
SPECTRUMID=CCMSLIB00000426756
SCANS=1728
73.0 25.343 
85.0 14.243 
97.0 100.0 
END IONS

BEGIN IONS
PEPMASS=78.0377
CHARGE=1+
MSLEVEL=2
SOURCE_INSTRUMENT=Positive-Quattro_QQQ:10eV
FILENAME=hmdb_intermediate.mgf
SEQ=*..*
IONMODE=Positive
ORGANISM=HMDB
NAME=HMDB:HMDB02991-2176 Cysteamine M+H
PI=HMDB
DATACOLLECTOR=HMDB
SMILES=NCCS
INCHI=InChI=1S/C2H7NS/c3-1-2-4/h4H,1-3H2
INCHIAUX=N/A
PUBMED=N/A
SUBMITUSER=mwang87
TAGS=
LIBRARYQUALITY=3
SPECTRUMID=CCMSLIB00000426757
SCANS=1729
61.0 100.0 
78.0 12.187 
END IONS

BEGIN IONS
PEPMASS=142.027
CHARGE=1+
MSLEVEL=2
SOURCE_INSTRUMENT=Positive-Quattro_QQQ:40eV
FILENAME=hmdb_intermediate.mgf
SEQ=*..*
IONMODE=Positive
ORGANISM=HMDB
NAME=HMDB:HMDB00224-372 O-Phosphoethanolamine M+H
PI=HMDB
DATACOLLECTOR=HMDB
SMILES=NCCOP(O)(O)=O
INCHI=InChI=1S/C2H8NO4P/c3-1-2-7-8(4,5)6/h1-3H2,(H2,4,5,6)
INCHIAUX=N/A
PUBMED=N/A
SUBMITUSER=mwang87
TAGS=
LIBRARYQUALITY=3
SPECTRUMID=CCMSLIB00000426758
SCANS=1730
42.665 5.922 
44.628 100.0 
63.366 4.967 
81.259 25.655 
99.188 3.739 
142.179 3.248 
END IONS

BEGIN IONS
PEPMASS=104.071
CHARGE=1+
MSLEVEL=2
SOURCE_INSTRUMENT=Positive-Quattro_QQQ:25eV
FILENAME=hmdb_intermediate.mgf
SEQ=*..*
IONMODE=Positive
ORGANISM=HMDB
NAME=HMDB:HMDB00452-660 L-Alpha-aminobutyric acid M+H
PI=HMDB
DATACOLLECTOR=HMDB
SMILES=CC[C@H](N)C(O)=O
INCHI=InChI=1S/C4H9NO2/c1-2-3(5)4(6)7/h3H,2,5H2,1H3,(H,6,7)/t3-/m0/s1
INCHIAUX=N/A
PUBMED=N/A
SUBMITUSER=mwang87
TAGS=
LIBRARYQUALITY=3
SPECTRUMID=CCMSLIB00000426759
SCANS=1731
41.308 34.239 
45.189 7.948 
58.141 100.0 
103.839 12.092 
END IONS

BEGIN IONS
PEPMASS=259.093
CHARGE=1+
MSLEVEL=2
SOURCE_INSTRUMENT=Positive-Quattro_QQQ:10eV
FILENAME=hmdb_intermediate.mgf
SEQ=*..*
IONMODE=Positive
ORGANISM=HMDB
NAME=HMDB:HMDB00884-1247 Ribothymidine M+H
PI=HMDB
DATACOLLECTOR=HMDB
SMILES=CC1=CN([C@@H]2O[C@H](CO)[C@@H](O)[C@H]2O)C(=O)NC1=O
INCHI=InChI=1S/C10H14N2O6/c1-4-2-12(10(17)11-8(4)16)9-7(15)6(14)5(3-13)18-9/h2,5-7,9,13-15H,3H2,1H3,(H,11,16,17)/t5-,6-,7-,9-/m1/s1
INCHIAUX=N/A
PUBMED=N/A
SUBMITUSER=mwang87
TAGS=
LIBRARYQUALITY=3
SPECTRUMID=CCMSLIB00000426760
SCANS=1732
115.026 1.163 
127.019 100.0 
259.001 6.806 
END IONS

BEGIN IONS
PEPMASS=325.311
CHARGE=1+
MSLEVEL=2
SOURCE_INSTRUMENT=Negative-Quattro_QQQ:25eV
FILENAME=hmdb_intermediate.mgf
SEQ=*..*
IONMODE=Negative
ORGANISM=HMDB
NAME=HMDB:HMDB02345-2068 Heneicosanoic acid M-H
PI=HMDB
DATACOLLECTOR=HMDB
SMILES=CCCCCCCCCCCCCCCCCCCCC(O)=O
INCHI=InChI=1S/C21H42O2/c1-2-3-4-5-6-7-8-9-10-11-12-13-14-15-16-17-18-19-20-21(22)23/h2-20H2,1H3,(H,22,23)
INCHIAUX=N/A
PUBMED=N/A
SUBMITUSER=mwang87
TAGS=
LIBRARYQUALITY=3
SPECTRUMID=CCMSLIB00000426761
SCANS=1733
307.0 1.504 
324.0 3.764 
325.0 100.0 
END IONS

BEGIN IONS
PEPMASS=164.057
CHARGE=1+
MSLEVEL=2
SOURCE_INSTRUMENT=Positive-Quattro_QQQ:25eV
FILENAME=hmdb_intermediate.mgf
SEQ=*..*
IONMODE=Positive
ORGANISM=HMDB
NAME=HMDB:HMDB00802-1142 Pterin M+H
PI=HMDB
DATACOLLECTOR=HMDB
SMILES=NC1=NC2=NC=CN=C2C(=O)N1
INCHI=InChI=1S/C6H5N5O/c7-6-10-4-3(5(12)11-6)8-1-2-9-4/h1-2H,(H3,7,9,10,11,12)
INCHIAUX=N/A
PUBMED=N/A
SUBMITUSER=mwang87
TAGS=
LIBRARYQUALITY=3
SPECTRUMID=CCMSLIB00000426762
SCANS=1734
69.119 19.161 
79.128 5.592 
92.073 43.421 
96.039 18.092 
118.986 100.0 
146.892 16.776 
163.726 13.569 
END IONS

BEGIN IONS
PEPMASS=171.139
CHARGE=1+
MSLEVEL=2
SOURCE_INSTRUMENT=Positive-Quattro_QQQ:10eV
FILENAME=hmdb_intermediate.mgf
SEQ=*..*
IONMODE=Positive
ORGANISM=HMDB
NAME=HMDB:HMDB04980-2415 cis-4-Decenoic acid M+H
PI=HMDB
DATACOLLECTOR=HMDB
SMILES=CCCCC\C=C/CCC(O)=O
INCHI=InChI=1S/C10H18O2/c1-2-3-4-5-6-7-8-9-10(11)12/h6-7H,2-5,8-9H2,1H3,(H,11,12)/b7-6-
INCHIAUX=N/A
PUBMED=N/A
SUBMITUSER=mwang87
TAGS=
LIBRARYQUALITY=3
SPECTRUMID=CCMSLIB00000426763
SCANS=1735
71.0 19.678 
113.0 32.229 
134.0 16.311 
142.0 100.0 
152.0 18.004 
170.0 81.387 
END IONS

BEGIN IONS
PEPMASS=238.094
CHARGE=1+
MSLEVEL=2
SOURCE_INSTRUMENT=Positive-Quattro_QQQ:10eV
FILENAME=hmdb_intermediate.mgf
SEQ=*..*
IONMODE=Positive
ORGANISM=HMDB
NAME=HMDB:HMDB00468-680 Biopterin M+H
PI=HMDB
DATACOLLECTOR=HMDB
SMILES=C[C@H](O)[C@H](O)C1=NC2=C(NC(N)=NC2=O)N=C1
INCHI=InChI=1S/C9H11N5O3/c1-3(15)6(16)4-2-11-7-5(12-4)8(17)14-9(10)13-7/h2-3,6,15-16H,1H3,(H3,10,11,13,14,17)/t3-,6-/m0/s1
INCHIAUX=N/A
PUBMED=N/A
SUBMITUSER=mwang87
TAGS=
LIBRARYQUALITY=3
SPECTRUMID=CCMSLIB00000426764
SCANS=1736
177.696 6.029 
193.915 6.569 
219.934 21.471 
237.943 100.0 
END IONS

BEGIN IONS
PEPMASS=85.0653
CHARGE=1+
MSLEVEL=2
SOURCE_INSTRUMENT=Positive-Quattro_QQQ:25eV
FILENAME=hmdb_intermediate.mgf
SEQ=*..*
IONMODE=Positive
ORGANISM=HMDB
NAME=HMDB:HMDB01184-1452 Methyl propenyl ketone M+H
PI=HMDB
DATACOLLECTOR=HMDB
SMILES=C\C=C\C(C)=O
INCHI=InChI=1S/C5H8O/c1-3-4-5(2)6/h3-4H,1-2H3/b4-3+
INCHIAUX=N/A
PUBMED=N/A
SUBMITUSER=mwang87
TAGS=
LIBRARYQUALITY=3
SPECTRUMID=CCMSLIB00000426765
SCANS=1737
43.152 100.0 
45.149 17.893 
END IONS

BEGIN IONS
PEPMASS=169.05
CHARGE=1+
MSLEVEL=2
SOURCE_INSTRUMENT=Positive-Quattro_QQQ:10eV
FILENAME=hmdb_intermediate.mgf
SEQ=*..*
IONMODE=Positive
ORGANISM=HMDB
NAME=HMDB:HMDB01336-1519 3,4-Dihydroxybenzeneacetic acid M+H
PI=HMDB
DATACOLLECTOR=HMDB
SMILES=OC(=O)CC1=CC=C(O)C(O)=C1
INCHI=InChI=1S/C8H8O4/c9-6-2-1-5(3-7(6)10)4-8(11)12/h1-3,9-10H,4H2,(H,11,12)
INCHIAUX=N/A
PUBMED=N/A
SUBMITUSER=mwang87
TAGS=
LIBRARYQUALITY=3
SPECTRUMID=CCMSLIB00000426766
SCANS=1738
123.0 100.0 
END IONS

BEGIN IONS
PEPMASS=173.081
CHARGE=1+
MSLEVEL=2
SOURCE_INSTRUMENT=Positive-Quattro_QQQ:40eV
FILENAME=hmdb_intermediate.mgf
SEQ=*..*
IONMODE=Positive
ORGANISM=HMDB
NAME=HMDB:HMDB00341-551 2-Octenedioic acid M+H
PI=HMDB
DATACOLLECTOR=HMDB
SMILES=OC(=O)CCCC\C=C\C(O)=O
INCHI=InChI=1S/C8H12O4/c9-7(10)5-3-1-2-4-6-8(11)12/h3,5H,1-2,4,6H2,(H,9,10)(H,11,12)/b5-3+
INCHIAUX=N/A
PUBMED=N/A
SUBMITUSER=mwang87
TAGS=
LIBRARYQUALITY=3
SPECTRUMID=CCMSLIB00000426767
SCANS=1739
41.0 100.0 
53.0 44.665 
55.0 67.235 
67.0 73.392 
79.0 93.7 
END IONS

BEGIN IONS
PEPMASS=370.084
CHARGE=1+
MSLEVEL=2
SOURCE_INSTRUMENT=Positive-Quattro_QQQ:40eV
FILENAME=hmdb_intermediate.mgf
SEQ=*..*
IONMODE=Positive
ORGANISM=HMDB
NAME=HMDB:HMDB05008-2441 Lansoprazole M+H
PI=HMDB
DATACOLLECTOR=HMDB
SMILES=CC1=C(OCC(F)(F)F)C=CN=C1CS(=O)C1=NC2=CC=CC=C2N1
INCHI=InChI=1S/C16H14F3N3O2S/c1-10-13(20-7-6-14(10)24-9-16(17,18)19)8-25(23)15-21-11-4-2-3-5-12(11)22-15/h2-7H,8-9H2,1H3,(H,21,22)
INCHIAUX=N/A
PUBMED=N/A
SUBMITUSER=mwang87
TAGS=
LIBRARYQUALITY=3
SPECTRUMID=CCMSLIB00000426768
SCANS=1740
107.18 49.88 
118.88 53.384 
135.71 100.0 
151.13 32.561 
203.62 31.358 
233.5 71.099 
234.55 38.335 
END IONS

BEGIN IONS
PEPMASS=147.077
CHARGE=1+
MSLEVEL=2
SOURCE_INSTRUMENT=Positive-Quattro_QQQ:40eV
FILENAME=hmdb_intermediate.mgf
SEQ=*..*
IONMODE=Positive
ORGANISM=HMDB
NAME=HMDB:HMDB00641-881 L-Glutamine M+H
PI=HMDB
DATACOLLECTOR=HMDB
SMILES=N[C@@H](CCC(N)=O)C(O)=O
INCHI=InChI=1S/C5H10N2O3/c6-3(5(9)10)1-2-4(7)8/h3H,1-2,6H2,(H2,7,8)(H,9,10)/t3-/m0/s1
INCHIAUX=N/A
PUBMED=N/A
SUBMITUSER=mwang87
TAGS=
LIBRARYQUALITY=3
SPECTRUMID=CCMSLIB00000426769
SCANS=1741
41.332 32.022 
56.175 100.0 
74.048 4.301 
84.015 67.416 
147.083 4.301 
END IONS

BEGIN IONS
PEPMASS=391.285
CHARGE=1+
MSLEVEL=2
SOURCE_INSTRUMENT=Negative-Quattro_QQQ:25eV
FILENAME=hmdb_intermediate.mgf
SEQ=*..*
IONMODE=Negative
ORGANISM=HMDB
NAME=HMDB:HMDB00626-853 Deoxycholic acid M-H
PI=HMDB
DATACOLLECTOR=HMDB
SMILES=[H][C@@]12CC[C@H]([C@H](C)CCC(O)=O)[C@@]1(C)[C@@H](O)C[C@@]1([H])[C@@]2([H])CC[C@]2([H])C[C@H](O)CC[C@]12C
INCHI=InChI=1S/C24H40O4/c1-14(4-9-22(27)28)18-7-8-19-17-6-5-15-12-16(25)10-11-23(15,2)20(17)13-21(26)24(18,19)3/h14-21,25-26H,4-13H2,1-3H3,(H,27,28)/t14-,15-,16-,17+,18-,19+,20+,21+,23+,24-/m1/s1
INCHIAUX=N/A
PUBMED=N/A
SUBMITUSER=mwang87
TAGS=
LIBRARYQUALITY=3
SPECTRUMID=CCMSLIB00000426770
SCANS=1742
69.201 0.816 
327.293 2.295 
343.308 1.708 
345.308 8.628 
355.299 1.542 
391.316 100.0 
END IONS

BEGIN IONS
PEPMASS=168.102
CHARGE=1+
MSLEVEL=2
SOURCE_INSTRUMENT=Positive-Quattro_QQQ:25eV
FILENAME=hmdb_intermediate.mgf
SEQ=*..*
IONMODE=Positive
ORGANISM=HMDB
NAME=HMDB:HMDB00022-40 3-Methoxytyramine M+H
PI=HMDB
DATACOLLECTOR=HMDB
SMILES=COC1=C(O)C=CC(CCN)=C1
INCHI=InChI=1S/C9H13NO2/c1-12-9-6-7(4-5-10)2-3-8(9)11/h2-3,6,11H,4-5,10H2,1H3
INCHIAUX=N/A
PUBMED=N/A
SUBMITUSER=mwang87
TAGS=
LIBRARYQUALITY=3
SPECTRUMID=CCMSLIB00000426771
SCANS=1743
65.191 8.283 
77.136 3.05 
91.096 100.0 
95.07 3.05 
118.985 23.645 
135.951 5.836 
150.92 7.53 
END IONS

BEGIN IONS
PEPMASS=181.05
CHARGE=1+
MSLEVEL=2
SOURCE_INSTRUMENT=Positive-Quattro_QQQ:10eV
FILENAME=hmdb_intermediate.mgf
SEQ=*..*
IONMODE=Positive
ORGANISM=HMDB
NAME=HMDB:HMDB01964-1911 Caffeic acid M+H
PI=HMDB
DATACOLLECTOR=HMDB
SMILES=OC(=O)\C=C/C1=CC=C(O)C(O)=C1
INCHI=InChI=1S/C9H8O4/c10-7-3-1-6(5-8(7)11)2-4-9(12)13/h1-5,10-11H,(H,12,13)/b4-2-
INCHIAUX=N/A
PUBMED=N/A
SUBMITUSER=mwang87
TAGS=
LIBRARYQUALITY=3
SPECTRUMID=CCMSLIB00000426772
SCANS=1744
116.0 2.731 
134.0 7.099 
144.0 13.83 
162.0 100.0 
180.0 34.88 
END IONS

BEGIN IONS
PEPMASS=80.9646
CHARGE=1+
MSLEVEL=2
SOURCE_INSTRUMENT=Positive-Quattro_QQQ:25eV
FILENAME=hmdb_intermediate.mgf
SEQ=*..*
IONMODE=Positive
ORGANISM=HMDB
NAME=HMDB:HMDB00240-407 Sulfite M+H
PI=HMDB
DATACOLLECTOR=HMDB
SMILES=[O-]S([O-])=O
INCHI=InChI=1S/H2O3S/c1-4(2)3/h(H2,1,2,3)/p-2
INCHIAUX=N/A
PUBMED=N/A
SUBMITUSER=mwang87
TAGS=
LIBRARYQUALITY=3
SPECTRUMID=CCMSLIB00000426773
SCANS=1745
51.044 45.946 
81.377 100.0 
85.106 44.937 
99.528 40.843 
117.057 34.732 
127.998 44.937 
END IONS

BEGIN IONS
PEPMASS=293.248
CHARGE=1+
MSLEVEL=2
SOURCE_INSTRUMENT=Positive-Quattro_QQQ:40eV
FILENAME=hmdb_intermediate.mgf
SEQ=*..*
IONMODE=Positive
ORGANISM=HMDB
NAME=HMDB:HMDB00493-715 5a-Androstane-3b,17b-diol M+H
PI=HMDB
DATACOLLECTOR=HMDB
SMILES=[H][C@@]12CC[C@H](O)[C@@]1(C)CC[C@@]1([H])[C@@]2([H])CC[C@@]2([H])C[C@@H](O)CC[C@]12C
INCHI=InChI=1S/C19H32O2/c1-18-9-7-13(20)11-12(18)3-4-14-15-5-6-17(21)19(15,2)10-8-16(14)18/h12-17,20-21H,3-11H2,1-2H3/t12-,13-,14-,15-,16-,17-,18-,19-/m0/s1
INCHIAUX=N/A
PUBMED=N/A
SUBMITUSER=mwang87
TAGS=
LIBRARYQUALITY=3
SPECTRUMID=CCMSLIB00000426774
SCANS=1746
53.423 10.39 
55.141 75.756 
66.555 10.39 
81.65 12.12 
91.224 23.377 
97.974 93.506 
131.482 14.286 
140.197 13.418 
146.825 12.987 
155.908 70.992 
165.36 100.0 
183.282 10.39 
192.489 15.584 
203.292 11.252 
216.55 15.584 
225.021 11.688 
246.752 10.39 
263.326 17.746 
270.448 12.551 
279.779 10.821 
293.286 12.551 
299.057 10.821 
319.931 11.688 
341.544 17.314 
END IONS

BEGIN IONS
PEPMASS=229.082
CHARGE=1+
MSLEVEL=2
SOURCE_INSTRUMENT=Positive-Quattro_QQQ:40eV
FILENAME=hmdb_intermediate.mgf
SEQ=*..*
IONMODE=Positive
ORGANISM=HMDB
NAME=HMDB:HMDB00012-21 Deoxyuridine M+H
PI=HMDB
DATACOLLECTOR=HMDB
SMILES=OC[C@H]1O[C@H](C[C@@H]1O)N1C=CC(=O)NC1=O
INCHI=InChI=1S/C9H12N2O5/c12-4-6-5(13)3-8(16-6)11-2-1-7(14)10-9(11)15/h1-2,5-6,8,12-13H,3-4H2,(H,10,14,15)/t5-,6+,8+/m0/s1
INCHIAUX=N/A
PUBMED=N/A
SUBMITUSER=mwang87
TAGS=
LIBRARYQUALITY=3
SPECTRUMID=CCMSLIB00000426775
SCANS=1747
43.356 74.057 
45.323 70.755 
70.086 100.0 
81.101 16.509 
95.997 57.547 
113.017 81.604 
117.038 14.741 
END IONS

BEGIN IONS
PEPMASS=324.06
CHARGE=1+
MSLEVEL=2
SOURCE_INSTRUMENT=Positive-Quattro_QQQ:10eV
FILENAME=hmdb_intermediate.mgf
SEQ=*..*
IONMODE=Positive
ORGANISM=HMDB
NAME=HMDB:HMDB00095-147 Cytidine monophosphate M+H
PI=HMDB
DATACOLLECTOR=HMDB
SMILES=NC1=NC(=O)N(C=C1)[C@@H]1O[C@H](COP(O)(O)=O)[C@@H](O)[C@H]1O
INCHI=InChI=1S/C9H14N3O8P/c10-5-1-2-12(9(15)11-5)8-7(14)6(13)4(20-8)3-19-21(16,17)18/h1-2,4,6-8,13-14H,3H2,(H2,10,11,15)(H2,16,17,18)/t4-,6-,7-,8-/m1/s1
INCHIAUX=N/A
PUBMED=N/A
SUBMITUSER=mwang87
TAGS=
LIBRARYQUALITY=3
SPECTRUMID=CCMSLIB00000426776
SCANS=1748
97.0 1.35 
112.0 100.0 
324.0 31.799 
END IONS

BEGIN IONS
PEPMASS=291.232
CHARGE=1+
MSLEVEL=2
SOURCE_INSTRUMENT=Positive-Quattro_QQQ:40eV
FILENAME=hmdb_intermediate.mgf
SEQ=*..*
IONMODE=Positive
ORGANISM=HMDB
NAME=HMDB:HMDB00490-709 Etiocholanolone M+H
PI=HMDB
DATACOLLECTOR=HMDB
SMILES=[H][C@@]12CCC(=O)[C@@]1(C)CC[C@@]1([H])[C@@]2([H])CC[C@]2([H])C[C@H](O)CC[C@]12C
INCHI=InChI=1S/C19H30O2/c1-18-9-7-13(20)11-12(18)3-4-14-15-5-6-17(21)19(15,2)10-8-16(14)18/h12-16,20H,3-11H2,1-2H3/t12-,13-,14+,15+,16+,18+,19+/m1/s1
INCHIAUX=N/A
PUBMED=N/A
SUBMITUSER=mwang87
TAGS=
LIBRARYQUALITY=3
SPECTRUMID=CCMSLIB00000426777
SCANS=1749
55.683 50.396 
66.682 45.937 
81.388 44.188 
90.658 57.398 
95.107 36.664 
104.994 99.911 
118.96 100.0 
133.668 72.178 
144.421 29.578 
144.916 19.781 
157.523 23.63 
171.244 23.979 
185.212 14.357 
END IONS

BEGIN IONS
PEPMASS=137.024
CHARGE=1+
MSLEVEL=2
SOURCE_INSTRUMENT=Negative-Quattro_QQQ:40eV
FILENAME=hmdb_intermediate.mgf
SEQ=*..*
IONMODE=Negative
ORGANISM=HMDB
NAME=HMDB:HMDB01895-1812 Salicylic acid M-H
PI=HMDB
DATACOLLECTOR=HMDB
SMILES=OC(=O)C1=CC=CC=C1O
INCHI=InChI=1S/C7H6O3/c8-6-4-2-1-3-5(6)7(9)10/h1-4,8H,(H,9,10)
INCHIAUX=N/A
PUBMED=N/A
SUBMITUSER=mwang87
TAGS=
LIBRARYQUALITY=3
SPECTRUMID=CCMSLIB00000426778
SCANS=1750
54.152 20.771 
54.526 30.15 
65.231 100.0 
83.405 21.124 
93.737 13.099 
98.592 33.336 
111.538 18.056 
120.999 24.722 
END IONS

BEGIN IONS
PEPMASS=331.227
CHARGE=1+
MSLEVEL=2
SOURCE_INSTRUMENT=Positive-Quattro_QQQ:10eV
FILENAME=hmdb_intermediate.mgf
SEQ=*..*
IONMODE=Positive
ORGANISM=HMDB
NAME=HMDB:HMDB00374-588 17-Hydroxyprogesterone M+H
PI=HMDB
DATACOLLECTOR=HMDB
SMILES=[H][C@@]12CC[C@](O)(C(C)=O)[C@@]1(C)CC[C@@]1([H])[C@@]2([H])CCC2=CC(=O)CC[C@]12C
INCHI=InChI=1S/C21H30O3/c1-13(22)21(24)11-8-18-16-5-4-14-12-15(23)6-9-19(14,2)17(16)7-10-20(18,21)3/h12,16-18,24H,4-11H2,1-3H3/t16-,17+,18+,19+,20+,21+/m1/s1
INCHIAUX=N/A
PUBMED=N/A
SUBMITUSER=mwang87
TAGS=
LIBRARYQUALITY=3
SPECTRUMID=CCMSLIB00000426779
SCANS=1751
97.09 4.185 
109.051 2.334 
253.075 1.033 
271.1 1.227 
295.156 1.174 
313.191 2.897 
331.289 100.0 
END IONS

BEGIN IONS
PEPMASS=90.0555
CHARGE=1+
MSLEVEL=2
SOURCE_INSTRUMENT=Positive-Quattro_QQQ:10eV
FILENAME=hmdb_intermediate.mgf
SEQ=*..*
IONMODE=Positive
ORGANISM=HMDB
NAME=HMDB:HMDB00161-251 L-Alanine M+H
PI=HMDB
DATACOLLECTOR=HMDB
SMILES=C[C@H](N)C(O)=O
INCHI=InChI=1S/C3H7NO2/c1-2(4)3(5)6/h2H,4H2,1H3,(H,5,6)/t2-/m0/s1
INCHIAUX=N/A
PUBMED=N/A
SUBMITUSER=mwang87
TAGS=
LIBRARYQUALITY=3
SPECTRUMID=CCMSLIB00000426780
SCANS=1752
44.286 100.0 
90.017 29.36 
END IONS

BEGIN IONS
PEPMASS=156.077
CHARGE=1+
MSLEVEL=2
SOURCE_INSTRUMENT=Positive-Quattro_QQQ:10eV
FILENAME=hmdb_intermediate.mgf
SEQ=*..*
IONMODE=Positive
ORGANISM=HMDB
NAME=HMDB:HMDB00177-283 L-Histidine M+H
PI=HMDB
DATACOLLECTOR=HMDB
SMILES=N[C@@H](CC1=CNC=N1)C(O)=O
INCHI=InChI=1S/C6H9N3O2/c7-5(6(10)11)1-4-2-8-3-9-4/h2-3,5H,1,7H2,(H,8,9)(H,10,11)/t5-/m0/s1
INCHIAUX=N/A
PUBMED=N/A
SUBMITUSER=mwang87
TAGS=
LIBRARYQUALITY=3
SPECTRUMID=CCMSLIB00000426781
SCANS=1753
82.849 7.059 
93.043 3.088 
95.041 12.059 
109.974 100.0 
155.903 100.0 
END IONS

BEGIN IONS
PEPMASS=137.045
CHARGE=1+
MSLEVEL=2
SOURCE_INSTRUMENT=Positive-Quattro_QQQ:10eV
FILENAME=hmdb_intermediate.mgf
SEQ=*..*
IONMODE=Positive
ORGANISM=HMDB
NAME=HMDB:HMDB00943-1336 Threonic acid M+H
PI=HMDB
DATACOLLECTOR=HMDB
SMILES=OC[C@@H](O)[C@H](O)C(O)=O
INCHI=InChI=1S/C4H8O5/c5-1-2(6)3(7)4(8)9/h2-3,5-7H,1H2,(H,8,9)/t2-,3+/m1/s1
INCHIAUX=N/A
PUBMED=N/A
SUBMITUSER=mwang87
TAGS=
LIBRARYQUALITY=3
SPECTRUMID=CCMSLIB00000426782
SCANS=1754
68.587 55.906 
77.435 27.825 
94.259 51.607 
95.755 100.0 
108.716 28.204 
120.182 54.245 
137.256 68.746 
END IONS

BEGIN IONS
PEPMASS=220.118
CHARGE=1+
MSLEVEL=2
SOURCE_INSTRUMENT=Positive-Quattro_QQQ:40eV
FILENAME=hmdb_intermediate.mgf
SEQ=*..*
IONMODE=Positive
ORGANISM=HMDB
NAME=HMDB:HMDB00210-342 Pantothenic acid M+H
PI=HMDB
DATACOLLECTOR=HMDB
SMILES=CC(C)(CO)C(O)C(=O)NCCC(O)=O
INCHI=InChI=1S/C9H17NO5/c1-9(2,5-11)7(14)8(15)10-4-3-6(12)13/h7,11,14H,3-5H2,1-2H3,(H,10,15)(H,12,13)
INCHIAUX=N/A
PUBMED=N/A
SUBMITUSER=mwang87
TAGS=
LIBRARYQUALITY=3
SPECTRUMID=CCMSLIB00000426783
SCANS=1755
43.279 66.667 
45.277 15.09 
55.306 47.748 
70.059 100.0 
81.112 13.851 
90.05 27.027 
98.005 33.108 
123.909 8.671 
END IONS

BEGIN IONS
PEPMASS=148.061
CHARGE=1+
MSLEVEL=2
SOURCE_INSTRUMENT=Positive-Quattro_QQQ:40eV
FILENAME=hmdb_intermediate.mgf
SEQ=*..*
IONMODE=Positive
ORGANISM=HMDB
NAME=HMDB:HMDB02393-2100 N-Methyl-D-aspartic acid M+H
PI=HMDB
DATACOLLECTOR=HMDB
SMILES=CN[C@H](CC(O)=O)C(O)=O
INCHI=InChI=1S/C5H9NO4/c1-6-3(5(9)10)2-4(7)8/h3,6H,2H2,1H3,(H,7,8)(H,9,10)/t3-/m1/s1
INCHIAUX=N/A
PUBMED=N/A
SUBMITUSER=mwang87
TAGS=
LIBRARYQUALITY=3
SPECTRUMID=CCMSLIB00000426784
SCANS=1756
42.0 100.0 
60.0 9.217 
70.0 5.794 
84.0 3.548 
88.0 13.927 
END IONS

BEGIN IONS
PEPMASS=118.98
CHARGE=1+
MSLEVEL=2
SOURCE_INSTRUMENT=Negative-Quattro_QQQ:40eV
FILENAME=hmdb_intermediate.mgf
SEQ=*..*
IONMODE=Negative
ORGANISM=HMDB
NAME=HMDB:HMDB01368-1536 3-Mercaptopyruvic acid M-H
PI=HMDB
DATACOLLECTOR=HMDB
SMILES=OC(=O)C(=O)CS
INCHI=InChI=1S/C3H4O3S/c4-2(1-7)3(5)6/h7H,1H2,(H,5,6)
INCHIAUX=N/A
PUBMED=N/A
SUBMITUSER=mwang87
TAGS=
LIBRARYQUALITY=3
SPECTRUMID=CCMSLIB00000426785
SCANS=1757
33.0 100.0 
END IONS

BEGIN IONS
PEPMASS=184.985
CHARGE=1+
MSLEVEL=2
SOURCE_INSTRUMENT=Negative-Quattro_QQQ:25eV
FILENAME=hmdb_intermediate.mgf
SEQ=*..*
IONMODE=Negative
ORGANISM=HMDB
NAME=HMDB:HMDB00807-1153 3-Phosphoglyceric acid M-H
PI=HMDB
DATACOLLECTOR=HMDB
SMILES=OC(COP(O)(O)=O)C(O)=O
INCHI=InChI=1S/C3H7O7P/c4-2(3(5)6)1-10-11(7,8)9/h2,4H,1H2,(H,5,6)(H2,7,8,9)
INCHIAUX=N/A
PUBMED=N/A
SUBMITUSER=mwang87
TAGS=
LIBRARYQUALITY=3
SPECTRUMID=CCMSLIB00000426786
SCANS=1758
79.0 100.0 
97.0 55.793 
END IONS

BEGIN IONS
PEPMASS=146.166
CHARGE=1+
MSLEVEL=2
SOURCE_INSTRUMENT=Positive-Quattro_QQQ:25eV
FILENAME=hmdb_intermediate.mgf
SEQ=*..*
IONMODE=Positive
ORGANISM=HMDB
NAME=HMDB:HMDB01257-1491 Spermidine M+H
PI=HMDB
DATACOLLECTOR=HMDB
SMILES=NCCCCNCCCN
INCHI=InChI=1S/C7H19N3/c8-4-1-2-6-10-7-3-5-9/h10H,1-9H2
INCHIAUX=N/A
PUBMED=N/A
SUBMITUSER=mwang87
TAGS=
LIBRARYQUALITY=3
SPECTRUMID=CCMSLIB00000426787
SCANS=1759
72.0 100.0 
84.0 29.138 
112.0 4.341 
END IONS

BEGIN IONS
PEPMASS=89.0603
CHARGE=1+
MSLEVEL=2
SOURCE_INSTRUMENT=Positive-Quattro_QQQ:25eV
FILENAME=hmdb_intermediate.mgf
SEQ=*..*
IONMODE=Positive
ORGANISM=HMDB
NAME=HMDB:HMDB01873-1763 Isobutyric acid M+H
PI=HMDB
DATACOLLECTOR=HMDB
SMILES=CC(C)C(O)=O
INCHI=InChI=1S/C4H8O2/c1-3(2)4(5)6/h3H,1-2H3,(H,5,6)
INCHIAUX=N/A
PUBMED=N/A
SUBMITUSER=mwang87
TAGS=
LIBRARYQUALITY=3
SPECTRUMID=CCMSLIB00000426788
SCANS=1760
53.282 9.654 
55.146 100.0 
71.432 14.937 
129.49 5.931 
END IONS

BEGIN IONS
PEPMASS=118.087
CHARGE=1+
MSLEVEL=2
SOURCE_INSTRUMENT=Positive-Quattro_QQQ:40eV
FILENAME=hmdb_intermediate.mgf
SEQ=*..*
IONMODE=Positive
ORGANISM=HMDB
NAME=HMDB:HMDB00883-1246 L-Valine M+H
PI=HMDB
DATACOLLECTOR=HMDB
SMILES=CC(C)[C@H](N)C(O)=O
INCHI=InChI=1S/C5H11NO2/c1-3(2)4(6)5(7)8/h3-4H,6H2,1-2H3,(H,7,8)/t4-/m0/s1
INCHIAUX=N/A
PUBMED=N/A
SUBMITUSER=mwang87
TAGS=
LIBRARYQUALITY=3
SPECTRUMID=CCMSLIB00000426789
SCANS=1761
41.274 21.127 
45.121 23.592 
55.227 100.0 
72.013 54.93 
117.994 9.947 
END IONS

BEGIN IONS
PEPMASS=133.05
CHARGE=1+
MSLEVEL=2
SOURCE_INSTRUMENT=Positive-Quattro_QQQ:25eV
FILENAME=hmdb_intermediate.mgf
SEQ=*..*
IONMODE=Positive
ORGANISM=HMDB
NAME=HMDB:HMDB01844-1697 Methylsuccinic acid M+H
PI=HMDB
DATACOLLECTOR=HMDB
SMILES=CC(CC(O)=O)C(O)=O
INCHI=InChI=1S/C5H8O4/c1-3(5(8)9)2-4(6)7/h3H,2H2,1H3,(H,6,7)(H,8,9)
INCHIAUX=N/A
PUBMED=N/A
SUBMITUSER=mwang87
TAGS=
LIBRARYQUALITY=3
SPECTRUMID=CCMSLIB00000426790
SCANS=1762
69.0 5.4381067911 
87.1 100.0 
115.0 75.4686896841 
END IONS

BEGIN IONS
PEPMASS=61.0653
CHARGE=1+
MSLEVEL=2
SOURCE_INSTRUMENT=Positive-Quattro_QQQ:40eV
FILENAME=hmdb_intermediate.mgf
SEQ=*..*
IONMODE=Positive
ORGANISM=HMDB
NAME=HMDB:HMDB00863-1219 Isopropyl alcohol M+H
PI=HMDB
DATACOLLECTOR=HMDB
SMILES=CC(C)O
INCHI=InChI=1S/C3H8O/c1-3(2)4/h3-4H,1-2H3
INCHIAUX=N/A
PUBMED=N/A
SUBMITUSER=mwang87
TAGS=
LIBRARYQUALITY=3
SPECTRUMID=CCMSLIB00000426791
SCANS=1763
15.0 46.371 
60.0 100.0 
END IONS

BEGIN IONS
PEPMASS=157.014
CHARGE=1+
MSLEVEL=2
SOURCE_INSTRUMENT=Positive-Quattro_QQQ:40eV
FILENAME=hmdb_intermediate.mgf
SEQ=*..*
IONMODE=Positive
ORGANISM=HMDB
NAME=HMDB:HMDB04812-2405 2,5-Furandicarboxylic acid M+H
PI=HMDB
DATACOLLECTOR=HMDB
SMILES=OC(=O)C1=CC=C(O1)C(O)=O
INCHI=InChI=1S/C6H4O5/c7-5(8)3-1-2-4(11-3)6(9)10/h1-2H,(H,7,8)(H,9,10)
INCHIAUX=N/A
PUBMED=N/A
SUBMITUSER=mwang87
TAGS=
LIBRARYQUALITY=3
SPECTRUMID=CCMSLIB00000426792
SCANS=1764
39.41 100.0 
54.78 17.386 
67.29 34.063 
94.48 25.504 
94.66 33.227 
END IONS

BEGIN IONS
PEPMASS=177.051
CHARGE=1+
MSLEVEL=2
SOURCE_INSTRUMENT=Positive-Quattro_QQQ:10eV
FILENAME=hmdb_intermediate.mgf
SEQ=*..*
IONMODE=Positive
ORGANISM=HMDB
NAME=HMDB:HMDB00828-1178 Ureidosuccinic acid M+H
PI=HMDB
DATACOLLECTOR=HMDB
SMILES=NC(=O)N[C@@H](CC(O)=O)C(O)=O
INCHI=InChI=1S/C5H8N2O5/c6-5(12)7-2(4(10)11)1-3(8)9/h2H,1H2,(H,8,9)(H,10,11)(H3,6,7,12)/t2-/m0/s1
INCHIAUX=N/A
PUBMED=N/A
SUBMITUSER=mwang87
TAGS=
LIBRARYQUALITY=3
SPECTRUMID=CCMSLIB00000426793
SCANS=1765
74.046 12.143 
88.002 33.214 
115.925 33.571 
133.889 100.0 
158.866 5.089 
176.825 9.196 
END IONS

BEGIN IONS
PEPMASS=373.191
CHARGE=1+
MSLEVEL=2
SOURCE_INSTRUMENT=Positive-Quattro_QQQ:25eV
FILENAME=hmdb_intermediate.mgf
SEQ=*..*
IONMODE=Positive
ORGANISM=HMDB
NAME=HMDB:HMDB03134-2201 Biocytin M+H
PI=HMDB
DATACOLLECTOR=HMDB
SMILES=[H][C@]12CS[C@@H](CCCCC(=O)NCCCC[C@H](N)C(O)=O)[C@@]1([H])NC(=O)N2
INCHI=InChI=1S/C16H28N4O4S/c17-10(15(22)23)5-3-4-8-18-13(21)7-2-1-6-12-14-11(9-25-12)19-16(24)20-14/h10-12,14H,1-9,17H2,(H,18,21)(H,22,23)(H2,19,20,24)/t10-,11-,12-,14-/m0/s1
INCHIAUX=N/A
PUBMED=N/A
SUBMITUSER=mwang87
TAGS=
LIBRARYQUALITY=3
SPECTRUMID=CCMSLIB00000426794
SCANS=1766
83.0 100.0 
129.0 3.24 
226.0 65.805 
309.0 29.856 
372.0 4.202 
END IONS

BEGIN IONS
PEPMASS=181.086
CHARGE=1+
MSLEVEL=2
SOURCE_INSTRUMENT=Positive-Quattro_QQQ:10eV
FILENAME=hmdb_intermediate.mgf
SEQ=*..*
IONMODE=Positive
ORGANISM=HMDB
NAME=HMDB:HMDB11751-2502 3-Methoxybenzenepropanoic acid M+H
PI=HMDB
DATACOLLECTOR=HMDB
SMILES=COC1=CC(CCC(O)=O)=CC=C1
INCHI=InChI=1S/C10H12O3/c1-13-9-4-2-3-8(7-9)5-6-10(11)12/h2-4,7H,5-6H2,1H3,(H,11,12)
INCHIAUX=N/A
PUBMED=N/A
SUBMITUSER=mwang87
TAGS=
LIBRARYQUALITY=3
SPECTRUMID=CCMSLIB00000426795
SCANS=1767
121.08 5.7330359406 
135.12 88.5554371342 
163.08 100.0 
181.08 2.3917460037 
END IONS

BEGIN IONS
PEPMASS=59.0497
CHARGE=1+
MSLEVEL=2
SOURCE_INSTRUMENT=Positive-Quattro_QQQ:25eV
FILENAME=hmdb_intermediate.mgf
SEQ=*..*
IONMODE=Positive
ORGANISM=HMDB
NAME=HMDB:HMDB01659-1673 Acetone M+H
PI=HMDB
DATACOLLECTOR=HMDB
SMILES=CC(C)=O
INCHI=InChI=1S/C3H6O/c1-3(2)4/h1-2H3
INCHIAUX=N/A
PUBMED=N/A
SUBMITUSER=mwang87
TAGS=
LIBRARYQUALITY=3
SPECTRUMID=CCMSLIB00000426796
SCANS=1768
31.0 75.617 
43.0 100.0 
58.0 58.638 
END IONS

BEGIN IONS
PEPMASS=127.051
CHARGE=1+
MSLEVEL=2
SOURCE_INSTRUMENT=Positive-Quattro_QQQ:40eV
FILENAME=hmdb_intermediate.mgf
SEQ=*..*
IONMODE=Positive
ORGANISM=HMDB
NAME=HMDB:HMDB02024-1952 Imidazoleacetic acid M+H
PI=HMDB
DATACOLLECTOR=HMDB
SMILES=OC(=O)CC1=CN=CN1
INCHI=InChI=1S/C5H6N2O2/c8-5(9)1-4-2-6-3-7-4/h2-3H,1H2,(H,6,7)(H,8,9)
INCHIAUX=N/A
PUBMED=N/A
SUBMITUSER=mwang87
TAGS=
LIBRARYQUALITY=3
SPECTRUMID=CCMSLIB00000426797
SCANS=1769
81.0 100.0 
127.0 1.79 
END IONS

BEGIN IONS
PEPMASS=243.16
CHARGE=1+
MSLEVEL=2
SOURCE_INSTRUMENT=Negative-Quattro_QQQ:10eV
FILENAME=hmdb_intermediate.mgf
SEQ=*..*
IONMODE=Negative
ORGANISM=HMDB
NAME=HMDB:HMDB02327-2058 1,11-Undecanedicarboxylic acid M-H
PI=HMDB
DATACOLLECTOR=HMDB
SMILES=OC(=O)CCCCCCCCCCCC(O)=O
INCHI=InChI=1S/C13H24O4/c14-12(15)10-8-6-4-2-1-3-5-7-9-11-13(16)17/h1-11H2,(H,14,15)(H,16,17)
INCHIAUX=N/A
PUBMED=N/A
SUBMITUSER=mwang87
TAGS=
LIBRARYQUALITY=3
SPECTRUMID=CCMSLIB00000426798
SCANS=1770
180.0 4.638 
224.0 32.086 
225.0 2.705 
243.0 100.0 
END IONS

BEGIN IONS
PEPMASS=271.061
CHARGE=1+
MSLEVEL=2
SOURCE_INSTRUMENT=Negative-Quattro_QQQ:40eV
FILENAME=hmdb_intermediate.mgf
SEQ=*..*
IONMODE=Negative
ORGANISM=HMDB
NAME=HMDB:HMDB02670-2124 Naringenin M-H
PI=HMDB
DATACOLLECTOR=HMDB
SMILES=OC1=CC=C(C=C1)[C@@H]1CC(=O)C2=C(O)C=C(O)C=C2O1
INCHI=InChI=1S/C15H12O5/c16-9-3-1-8(2-4-9)13-7-12(19)15-11(18)5-10(17)6-14(15)20-13/h1-6,13,16-18H,7H2/t13-/m0/s1
INCHIAUX=N/A
PUBMED=N/A
SUBMITUSER=mwang87
TAGS=
LIBRARYQUALITY=3
SPECTRUMID=CCMSLIB00000426799
SCANS=1771
64.0 100.0 
65.0 62.866 
82.0 43.606 
92.0 16.124 
95.0 11.482 
106.0 32.647 
118.0 76.59 
142.0 9.784 
150.0 9.57 
END IONS

BEGIN IONS
PEPMASS=126.022
CHARGE=1+
MSLEVEL=2
SOURCE_INSTRUMENT=Positive-Quattro_QQQ:40eV
FILENAME=hmdb_intermediate.mgf
SEQ=*..*
IONMODE=Positive
ORGANISM=HMDB
NAME=HMDB:HMDB00251-432 Taurine M+H
PI=HMDB
DATACOLLECTOR=HMDB
SMILES=NCCS(O)(=O)=O
INCHI=InChI=1S/C2H7NO3S/c3-1-2-7(4,5)6/h1-3H2,(H,4,5,6)
INCHIAUX=N/A
PUBMED=N/A
SUBMITUSER=mwang87
TAGS=
LIBRARYQUALITY=3
SPECTRUMID=CCMSLIB00000426800
SCANS=1772
44.259 100.0 
45.414 26.471 
64.135 15.966 
65.103 30.252 
80.977 40.966 
124.034 7.038 
126.009 45.798 
END IONS

BEGIN IONS
PEPMASS=163.061
CHARGE=1+
MSLEVEL=2
SOURCE_INSTRUMENT=Positive-Quattro_QQQ:40eV
FILENAME=hmdb_intermediate.mgf
SEQ=*..*
IONMODE=Positive
ORGANISM=HMDB
NAME=HMDB:HMDB00640-878 Levoglucosan M+H
PI=HMDB
DATACOLLECTOR=HMDB
SMILES=[H][C@@]12OC[C@@H](O1)[C@@H](O)[C@H](O)[C@H]2O
INCHI=InChI=1S/C6H10O5/c7-3-2-1-10-6(11-2)5(9)4(3)8/h2-9H,1H2/t2-,3-,4+,5-,6-/m1/s1
INCHIAUX=N/A
PUBMED=N/A
SUBMITUSER=mwang87
TAGS=
LIBRARYQUALITY=3
SPECTRUMID=CCMSLIB00000426801
SCANS=1773
43.356 100.0 
45.331 72.277 
57.213 65.347 
69.143 55.941 
77.168 55.941 
85.062 51.98 
107.141 18.812 
END IONS

BEGIN IONS
PEPMASS=477.231
CHARGE=1+
MSLEVEL=2
SOURCE_INSTRUMENT=Positive-Quattro_QQQ:25eV
FILENAME=hmdb_intermediate.mgf
SEQ=*..*
IONMODE=Positive
ORGANISM=HMDB
NAME=HMDB:HMDB04999-2431 Loperamide M+H
PI=HMDB
DATACOLLECTOR=HMDB
SMILES=CN(C)C(=O)C(CCN1CCC(O)(CC1)C1=CC=C(Cl)C=C1)(C1=CC=CC=C1)C1=CC=CC=C1
INCHI=InChI=1S/C29H33ClN2O2/c1-31(2)27(33)29(24-9-5-3-6-10-24,25-11-7-4-8-12-25)19-22-32-20-17-28(34,18-21-32)23-13-15-26(30)16-14-23/h3-16,34H,17-22H2,1-2H3
INCHIAUX=N/A
PUBMED=N/A
SUBMITUSER=mwang87
TAGS=
LIBRARYQUALITY=3
SPECTRUMID=CCMSLIB00000426802
SCANS=1774
210.0 2.688 
266.0 100.0 
END IONS

BEGIN IONS
PEPMASS=261.038
CHARGE=1+
MSLEVEL=2
SOURCE_INSTRUMENT=Positive-Quattro_QQQ:25eV
FILENAME=hmdb_intermediate.mgf
SEQ=*..*
IONMODE=Positive
ORGANISM=HMDB
NAME=HMDB:HMDB00124-184 Fructose 6-phosphate M+H
PI=HMDB
DATACOLLECTOR=HMDB
SMILES=OCC(=O)[C@@H](O)[C@H](O)[C@H](O)COP(O)(O)=O
INCHI=InChI=1S/C6H13O9P/c7-1-3(8)5(10)6(11)4(9)2-15-16(12,13)14/h4-7,9-11H,1-2H2,(H2,12,13,14)/t4-,5-,6-/m1/s1
INCHIAUX=N/A
PUBMED=N/A
SUBMITUSER=mwang87
TAGS=
LIBRARYQUALITY=3
SPECTRUMID=CCMSLIB00000426803
SCANS=1775
71.007 27.941 
75.703 11.596 
90.781 100.0 
108.331 28.173 
121.679 39.224 
161.85 11.364 
175.694 11.596 
189.167 39.912 
214.262 36.228 
234.907 16.662 
289.677 10.214 
END IONS

BEGIN IONS
PEPMASS=104.071
CHARGE=1+
MSLEVEL=2
SOURCE_INSTRUMENT=Positive-Quattro_QQQ:25eV
FILENAME=hmdb_intermediate.mgf
SEQ=*..*
IONMODE=Positive
ORGANISM=HMDB
NAME=HMDB:HMDB00650-886 D-Alpha-aminobutyric acid M+H
PI=HMDB
DATACOLLECTOR=HMDB
SMILES=CC[C@@H](N)C(O)=O
INCHI=InChI=1S/C4H9NO2/c1-2-3(5)4(6)7/h3H,2,5H2,1H3,(H,6,7)/t3-/m1/s1
INCHIAUX=N/A
PUBMED=N/A
SUBMITUSER=mwang87
TAGS=
LIBRARYQUALITY=3
SPECTRUMID=CCMSLIB00000426804
SCANS=1776
41.332 36.735 
45.204 8.036 
58.164 100.0 
103.855 9.056 
END IONS

BEGIN IONS
PEPMASS=132.077
CHARGE=1+
MSLEVEL=2
SOURCE_INSTRUMENT=Positive-Quattro_QQQ:10eV
FILENAME=hmdb_intermediate.mgf
SEQ=*..*
IONMODE=Positive
ORGANISM=HMDB
NAME=HMDB:HMDB00064-105 Creatine M+H
PI=HMDB
DATACOLLECTOR=HMDB
SMILES=CN(CC(O)=O)C(N)=N
INCHI=InChI=1S/C4H9N3O2/c1-7(4(5)6)2-3(8)9/h2H2,1H3,(H3,5,6)(H,8,9)
INCHIAUX=N/A
PUBMED=N/A
SUBMITUSER=mwang87
TAGS=
LIBRARYQUALITY=3
SPECTRUMID=CCMSLIB00000426805
SCANS=1777
44.202 12.97 
90.061 94.737 
131.956 100.0 
END IONS

BEGIN IONS
PEPMASS=126.103
CHARGE=1+
MSLEVEL=2
SOURCE_INSTRUMENT=Positive-Quattro_QQQ:40eV
FILENAME=hmdb_intermediate.mgf
SEQ=*..*
IONMODE=Positive
ORGANISM=HMDB
NAME=HMDB:HMDB00898-1273 1-Methylhistamine M+H
PI=HMDB
DATACOLLECTOR=HMDB
SMILES=CN1C=NC(CCN)=C1
INCHI=InChI=1S/C6H11N3/c1-9-4-6(2-3-7)8-5-9/h4-5H,2-3,7H2,1H3
INCHIAUX=N/A
PUBMED=N/A
SUBMITUSER=mwang87
TAGS=
LIBRARYQUALITY=3
SPECTRUMID=CCMSLIB00000426806
SCANS=1778
57.36 19.592 
70.144 17.299 
84.418 100.0 
84.79 84.968 
97.451 20.484 
108.747 20.611 
123.394 43.169 
125.877 29.788 
END IONS

BEGIN IONS
PEPMASS=113.024
CHARGE=1+
MSLEVEL=2
SOURCE_INSTRUMENT=Positive-Quattro_QQQ:40eV
FILENAME=hmdb_intermediate.mgf
SEQ=*..*
IONMODE=Positive
ORGANISM=HMDB
NAME=HMDB:HMDB00444-649 3-Furoic acid M+H
PI=HMDB
DATACOLLECTOR=HMDB
SMILES=OC(=O)C1=COC=C1
INCHI=InChI=1S/C5H4O3/c6-5(7)4-1-2-8-3-4/h1-3H,(H,6,7)
INCHIAUX=N/A
PUBMED=N/A
SUBMITUSER=mwang87
TAGS=
LIBRARYQUALITY=3
SPECTRUMID=CCMSLIB00000426807
SCANS=1779
67.0 81.27 
94.4 46.897 
94.82 100.0 
112.94 82.156 
END IONS

BEGIN IONS
PEPMASS=194.082
CHARGE=1+
MSLEVEL=2
SOURCE_INSTRUMENT=Positive-Quattro_QQQ:10eV
FILENAME=hmdb_intermediate.mgf
SEQ=*..*
IONMODE=Positive
ORGANISM=HMDB
NAME=HMDB:HMDB00859-1211 Methylhippuric acid M+H
PI=HMDB
DATACOLLECTOR=HMDB
SMILES=COC(=O)CNC(=O)C1=CC=CC=C1
INCHI=InChI=1S/C10H11NO3/c1-14-9(12)7-11-10(13)8-5-3-2-4-6-8/h2-6H,7H2,1H3,(H,11,13)
INCHIAUX=N/A
PUBMED=N/A
SUBMITUSER=mwang87
TAGS=
LIBRARYQUALITY=3
SPECTRUMID=CCMSLIB00000426808
SCANS=1780
104.379 40.175 
105.381 100.0 
END IONS

BEGIN IONS
PEPMASS=132.102
CHARGE=1+
MSLEVEL=2
SOURCE_INSTRUMENT=Positive-Quattro_QQQ:10eV
FILENAME=hmdb_intermediate.mgf
SEQ=*..*
IONMODE=Positive
ORGANISM=HMDB
NAME=HMDB:HMDB00557-779 L-Alloisoleucine M+H
PI=HMDB
DATACOLLECTOR=HMDB
SMILES=CC[C@@H](C)[C@H](N)C(O)=O
INCHI=InChI=1S/C6H13NO2/c1-3-4(2)5(7)6(8)9/h4-5H,3,7H2,1-2H3,(H,8,9)/t4-,5+/m1/s1
INCHIAUX=N/A
PUBMED=N/A
SUBMITUSER=mwang87
TAGS=
LIBRARYQUALITY=3
SPECTRUMID=CCMSLIB00000426809
SCANS=1781
44.335 6.337 
69.194 34.722 
132.054 100.0 
END IONS

BEGIN IONS
PEPMASS=387.363
CHARGE=1+
MSLEVEL=2
SOURCE_INSTRUMENT=Positive-Quattro_QQQ:25eV
FILENAME=hmdb_intermediate.mgf
SEQ=*..*
IONMODE=Positive
ORGANISM=HMDB
NAME=HMDB:HMDB00871-1227 5alpha-Cholestanone M+H
PI=HMDB
DATACOLLECTOR=HMDB
SMILES=[H][C@@]1(CC[C@@]2([H])[C@]3([H])CC[C@@]4([H])CC(=O)CC[C@]4(C)[C@@]3([H])CC[C@]12C)[C@H](C)CCCC(C)C
INCHI=InChI=1S/C27H46O/c1-18(2)7-6-8-19(3)23-11-12-24-22-10-9-20-17-21(28)13-15-26(20,4)25(22)14-16-27(23,24)5/h18-20,22-25H,6-17H2,1-5H3/t19-,20+,22+,23-,24+,25+,26+,27-/m1/s1
INCHIAUX=N/A
PUBMED=N/A
SUBMITUSER=mwang87
TAGS=
LIBRARYQUALITY=3
SPECTRUMID=CCMSLIB00000426810
SCANS=1782
57.07 28.945 
68.99 33.164 
80.75 100.0 
92.8 31.823 
94.76 92.397 
108.81 66.268 
120.55 41.733 
132.67 34.665 
134.63 50.317 
146.69 52.326 
END IONS

BEGIN IONS
PEPMASS=185.082
CHARGE=1+
MSLEVEL=2
SOURCE_INSTRUMENT=Positive-Quattro_QQQ:25eV
FILENAME=hmdb_intermediate.mgf
SEQ=*..*
IONMODE=Positive
ORGANISM=HMDB
NAME=HMDB:HMDB01565-1652 Phosphorylcholine M+H
PI=HMDB
DATACOLLECTOR=HMDB
SMILES=C[N+](C)(C)CCOP(O)(O)=O
INCHI=InChI=1S/C5H14NO4P/c1-6(2,3)4-5-10-11(7,8)9/h4-5H2,1-3H3,(H-,7,8,9)/p+1
INCHIAUX=N/A
PUBMED=N/A
SUBMITUSER=mwang87
TAGS=
LIBRARYQUALITY=3
SPECTRUMID=CCMSLIB00000426811
SCANS=1783
61.0 10.564 
72.0 20.524 
87.0 100.0 
99.0 42.822 
105.0 7.646 
121.0 5.697 
125.0 57.869 
163.0 4.899 
185.0 6.063 
END IONS

BEGIN IONS
PEPMASS=175.061
CHARGE=1+
MSLEVEL=2
SOURCE_INSTRUMENT=Negative-Quattro_QQQ:25eV
FILENAME=hmdb_intermediate.mgf
SEQ=*..*
IONMODE=Negative
ORGANISM=HMDB
NAME=HMDB:HMDB00402-610 2-Isopropylmalic acid M-H
PI=HMDB
DATACOLLECTOR=HMDB
SMILES=CC(C)[C@@](O)(CC(O)=O)C(O)=O
INCHI=InChI=1S/C7H12O5/c1-4(2)7(12,6(10)11)3-5(8)9/h4,12H,3H2,1-2H3,(H,8,9)(H,10,11)/t7-/m0/s1
INCHIAUX=N/A
PUBMED=N/A
SUBMITUSER=mwang87
TAGS=
LIBRARYQUALITY=3
SPECTRUMID=CCMSLIB00000426812
SCANS=1784
45.58 9.968 
59.465 23.101 
71.387 37.975 
85.331 100.0 
113.211 25.0 
115.192 69.937 
175.1 6.092 
END IONS

BEGIN IONS
PEPMASS=397.347
CHARGE=1+
MSLEVEL=2
SOURCE_INSTRUMENT=Positive-Quattro_QQQ:25eV
FILENAME=hmdb_intermediate.mgf
SEQ=*..*
IONMODE=Positive
ORGANISM=HMDB
NAME=HMDB:HMDB00878-1239 Ergosterol M+H
PI=HMDB
DATACOLLECTOR=HMDB
SMILES=CC(C)[C@@H](C)\C=C\[C@@H](C)C1CCC2C3=CC=C4C[C@@H](O)CC[C@]4(C)C3CC[C@]12C
INCHI=InChI=1S/C28H44O/c1-18(2)19(3)7-8-20(4)24-11-12-25-23-10-9-21-17-22(29)13-15-27(21,5)26(23)14-16-28(24,25)6/h7-10,18-20,22,24-26,29H,11-17H2,1-6H3/b8-7+/t19-,20+,22-,24?,25?,26?,27-,28+/m0/s1
INCHIAUX=N/A
PUBMED=N/A
SUBMITUSER=mwang87
TAGS=
LIBRARYQUALITY=3
SPECTRUMID=CCMSLIB00000426813
SCANS=1785
43.361 40.553 
57.176 26.382 
69.189 100.0 
81.14 63.594 
84.981 29.493 
95.121 47.465 
109.072 48.848 
123.124 36.866 
133.031 23.157 
137.099 24.194 
144.945 27.074 
158.921 39.631 
172.819 46.544 
174.958 22.465 
185.093 33.18 
196.876 35.945 
210.814 40.092 
222.903 24.078 
226.932 33.18 
236.787 33.18 
253.023 45.161 
263.012 34.101 
267.104 28.687 
281.1 37.788 
378.831 20.737 
397.205 61.29 
END IONS

BEGIN IONS
PEPMASS=287.165
CHARGE=1+
MSLEVEL=2
SOURCE_INSTRUMENT=Positive-Quattro_QQQ:40eV
FILENAME=hmdb_intermediate.mgf
SEQ=*..*
IONMODE=Positive
ORGANISM=HMDB
NAME=HMDB:HMDB00343-554 2-Hydroxyestrone M+H
PI=HMDB
DATACOLLECTOR=HMDB
SMILES=[H][C@@]12CCC(=O)[C@@]1(C)CC[C@]1([H])C3=C(CC[C@@]21[H])C=C(O)C(O)=C3
INCHI=InChI=1S/C18H22O3/c1-18-7-6-11-12(14(18)4-5-17(18)21)3-2-10-8-15(19)16(20)9-13(10)11/h8-9,11-12,14,19-20H,2-7H2,1H3/t11-,12+,14-,18-/m0/s1
INCHIAUX=N/A
PUBMED=N/A
SUBMITUSER=mwang87
TAGS=
LIBRARYQUALITY=3
SPECTRUMID=CCMSLIB00000426814
SCANS=1786
56.87 55.474 
79.191 68.613 
102.746 71.533 
110.145 51.825 
136.254 30.657 
153.373 59.124 
156.597 81.752 
164.942 64.964 
189.205 63.504 
195.333 67.883 
206.661 100.0 
231.083 51.095 
243.271 41.606 
262.776 42.336 
END IONS

BEGIN IONS
PEPMASS=99.0446
CHARGE=1+
MSLEVEL=2
SOURCE_INSTRUMENT=Negative-Quattro_QQQ:25eV
FILENAME=hmdb_intermediate.mgf
SEQ=*..*
IONMODE=Negative
ORGANISM=HMDB
NAME=HMDB:HMDB01470-1593 Tiglic acid M-H
PI=HMDB
DATACOLLECTOR=HMDB
SMILES=C\C=C(/C)C(O)=O
INCHI=InChI=1S/C5H8O2/c1-3-4(2)5(6)7/h3H,1-2H3,(H,6,7)/b4-3+
INCHIAUX=N/A
PUBMED=N/A
SUBMITUSER=mwang87
TAGS=
LIBRARYQUALITY=3
SPECTRUMID=CCMSLIB00000426815
SCANS=1787
54.239 4.03 
55.501 62.171 
99.313 100.0 
END IONS

BEGIN IONS
PEPMASS=746.099
CHARGE=1+
MSLEVEL=2
SOURCE_INSTRUMENT=Positive-Quattro_QQQ:10eV
FILENAME=hmdb_intermediate.mgf
SEQ=*..*
IONMODE=Positive
ORGANISM=HMDB
NAME=HMDB:HMDB00221-361 NADPH M+H
PI=HMDB
DATACOLLECTOR=HMDB
SMILES=NC(=O)C1=CN(C=CC1)[C@H]1O[C@@H](COP(O)(=O)OP(O)(=O)OC[C@@H]2O[C@@H]([C@@H](OP(O)(O)=O)[C@H]2O)N2C=NC3=C(N)N=CN=C23)[C@H](O)[C@@H]1O
INCHI=InChI=1S/C21H30N7O17P3/c22-17-12-19(25-7-24-17)28(8-26-12)21-16(44-46(33,34)35)14(30)11(43-21)6-41-48(38,39)45-47(36,37)40-5-10-13(29)15(31)20(42-10)27-3-1-2-9(4-27)18(23)32/h1,3-4,7-8,10-11,13-16,20-21,29-31H,2,5-6H2,(H2,23,32)(H,36,37)(H,38,39)(H2,22,24,25)(H2,33,34,35)/t10-,11-,13-,14-,15-,16-,20-,21-/m0/s1
INCHIAUX=N/A
PUBMED=N/A
SUBMITUSER=mwang87
TAGS=
LIBRARYQUALITY=3
SPECTRUMID=CCMSLIB00000426816
SCANS=1788
53.622 28.38 
57.304 23.144 
79.885 26.637 
103.571 26.637 
113.513 28.38 
122.963 28.38 
137.201 33.622 
146.038 24.887 
155.121 30.13 
169.605 100.0 
181.88 30.13 
197.715 40.608 
212.691 26.637 
233.928 24.887 
234.664 28.38 
253.201 24.887 
270.757 28.38 
285.857 23.144 
322.443 24.887 
328.582 23.144 
341.473 26.637 
345.77 93.015 
363.696 28.38 
367.993 26.637 
376.343 24.887 
387.393 24.887 
395.006 28.38 
423.001 28.38 
431.105 26.637 
457.136 26.637 
467.205 23.144 
481.94 26.637 
489.431 24.887 
517.428 23.144 
527.989 24.887 
536.093 75.543 
554.267 28.38 
561.512 44.101 
573.055 23.144 
576.494 37.115 
590.247 26.637 
603.141 24.887 
612.229 23.144 
616.527 28.38 
653.49 24.887 
681.734 24.887 
689.47 35.373 
696.838 24.887 
715.013 37.115 
732.451 37.115 
742.643 23.144 
750.134 24.887 
758.73 35.373 
791.885 23.144 
811.901 26.637 
820.006 35.373 
829.461 30.13 
END IONS

BEGIN IONS
PEPMASS=261.038
CHARGE=1+
MSLEVEL=2
SOURCE_INSTRUMENT=Positive-Quattro_QQQ:40eV
FILENAME=hmdb_intermediate.mgf
SEQ=*..*
IONMODE=Positive
ORGANISM=HMDB
NAME=HMDB:HMDB00124-185 Fructose 6-phosphate M+H
PI=HMDB
DATACOLLECTOR=HMDB
SMILES=OCC(=O)[C@@H](O)[C@H](O)[C@H](O)COP(O)(O)=O
INCHI=InChI=1S/C6H13O9P/c7-1-3(8)5(10)6(11)4(9)2-15-16(12,13)14/h4-7,9-11H,1-2H2,(H2,12,13,14)/t4-,5-,6-/m1/s1
INCHIAUX=N/A
PUBMED=N/A
SUBMITUSER=mwang87
TAGS=
LIBRARYQUALITY=3
SPECTRUMID=CCMSLIB00000426817
SCANS=1789
52.346 78.338 
71.872 71.1 
77.557 72.916 
89.916 74.706 
102.522 74.706 
127.488 81.944 
141.579 83.76 
196.09 74.706 
219.083 72.916 
255.429 100.0 
END IONS

BEGIN IONS
PEPMASS=355.103
CHARGE=1+
MSLEVEL=2
SOURCE_INSTRUMENT=Positive-Quattro_QQQ:40eV
FILENAME=hmdb_intermediate.mgf
SEQ=*..*
IONMODE=Positive
ORGANISM=HMDB
NAME=HMDB:HMDB03164-2211 Chlorogenic acid M+H
PI=HMDB
DATACOLLECTOR=HMDB
SMILES=O[C@@H]1C[C@](O)(C[C@@H](OC(=O)\C=C\C2=CC(O)=C(O)C=C2)[C@@H]1O)C(O)=O
INCHI=InChI=1S/C16H18O9/c17-9-3-1-8(5-10(9)18)2-4-13(20)25-12-7-16(24,15(22)23)6-11(19)14(12)21/h1-5,11-12,14,17-19,21,24H,6-7H2,(H,22,23)/b4-2+/t11-,12-,14-,16+/m1/s1
INCHIAUX=N/A
PUBMED=N/A
SUBMITUSER=mwang87
TAGS=
LIBRARYQUALITY=3
SPECTRUMID=CCMSLIB00000426818
SCANS=1790
79.0 9.37 
89.0 44.491 
107.0 9.844 
117.0 61.299 
135.0 70.236 
145.0 57.662 
163.0 100.0 
END IONS

BEGIN IONS
PEPMASS=182.082
CHARGE=1+
MSLEVEL=2
SOURCE_INSTRUMENT=Positive-Quattro_QQQ:10eV
FILENAME=hmdb_intermediate.mgf
SEQ=*..*
IONMODE=Positive
ORGANISM=HMDB
NAME=HMDB:HMDB00158-245 L-Tyrosine M+H
PI=HMDB
DATACOLLECTOR=HMDB
SMILES=N[C@@H](CC1=CC=C(O)C=C1)C(O)=O
INCHI=InChI=1S/C9H11NO3/c10-8(9(12)13)5-6-1-3-7(11)4-2-6/h1-4,8,11H,5,10H2,(H,12,13)/t8-/m0/s1
INCHIAUX=N/A
PUBMED=N/A
SUBMITUSER=mwang87
TAGS=
LIBRARYQUALITY=3
SPECTRUMID=CCMSLIB00000426819
SCANS=1791
91.035 3.216 
122.941 17.718 
135.948 100.0 
146.91 13.835 
164.907 95.146 
181.906 30.218 
END IONS

BEGIN IONS
PEPMASS=171.066
CHARGE=1+
MSLEVEL=2
SOURCE_INSTRUMENT=Positive-Quattro_QQQ:25eV
FILENAME=hmdb_intermediate.mgf
SEQ=*..*
IONMODE=Positive
ORGANISM=HMDB
NAME=HMDB:HMDB00318-532 3,4-Dihydroxyphenylglycol M+H
PI=HMDB
DATACOLLECTOR=HMDB
SMILES=OCC(O)C1=CC(O)=C(O)C=C1
INCHI=InChI=1S/C8H10O4/c9-4-8(12)5-1-2-6(10)7(11)3-5/h1-3,8-12H,4H2
INCHIAUX=N/A
PUBMED=N/A
SUBMITUSER=mwang87
TAGS=
LIBRARYQUALITY=3
SPECTRUMID=CCMSLIB00000426820
SCANS=1792
56.75 22.467 
70.945 37.445 
81.567 27.753 
89.129 100.0 
97.012 30.837 
110.459 35.242 
129.957 40.529 
140.205 15.419 
152.351 14.537 
186.714 13.656 
END IONS

BEGIN IONS
PEPMASS=189.124
CHARGE=1+
MSLEVEL=2
SOURCE_INSTRUMENT=Positive-Quattro_QQQ:40eV
FILENAME=hmdb_intermediate.mgf
SEQ=*..*
IONMODE=Positive
ORGANISM=HMDB
NAME=HMDB:HMDB00759-1091 Glycyl-L-leucine M+H
PI=HMDB
DATACOLLECTOR=HMDB
SMILES=CC(C)C[C@H](NC(=O)CN)C(O)=O
INCHI=InChI=1S/C8H16N2O3/c1-5(2)3-6(8(12)13)10-7(11)4-9/h5-6H,3-4,9H2,1-2H3,(H,10,11)(H,12,13)/t6-/m0/s1
INCHIAUX=N/A
PUBMED=N/A
SUBMITUSER=mwang87
TAGS=
LIBRARYQUALITY=3
SPECTRUMID=CCMSLIB00000426821
SCANS=1793
43.376 82.051 
55.266 2.985 
69.178 4.888 
84.183 6.01 
86.12 100.0 
131.997 6.651 
END IONS

BEGIN IONS
PEPMASS=192.069
CHARGE=1+
MSLEVEL=2
SOURCE_INSTRUMENT=Positive-Quattro_QQQ:10eV
FILENAME=hmdb_intermediate.mgf
SEQ=*..*
IONMODE=Positive
ORGANISM=HMDB
NAME=HMDB:HMDB11745-2499 N-Acetyl-L-methionine M+H
PI=HMDB
DATACOLLECTOR=HMDB
SMILES=CSCCC(NC(C)=O)C(O)=O
INCHI=InChI=1S/C7H13NO3S/c1-5(9)8-6(7(10)11)3-4-12-2/h6H,3-4H2,1-2H3,(H,8,9)(H,10,11)
INCHIAUX=N/A
PUBMED=N/A
SUBMITUSER=mwang87
TAGS=
LIBRARYQUALITY=3
SPECTRUMID=CCMSLIB00000426822
SCANS=1794
98.1 26.9151650298 
133.08 15.1117582858 
144.12 99.3102985045 
146.1 52.2645869622 
174.06 100.0 
192.06 73.701388697 
END IONS

BEGIN IONS
PEPMASS=259.022
CHARGE=1+
MSLEVEL=2
SOURCE_INSTRUMENT=Negative-Quattro_QQQ:10eV
FILENAME=hmdb_intermediate.mgf
SEQ=*..*
IONMODE=Negative
ORGANISM=HMDB
NAME=HMDB:HMDB01586-1657 Glucose 1-phosphate M-H
PI=HMDB
DATACOLLECTOR=HMDB
SMILES=OC[C@H]1OC(OP(O)(O)=O)[C@H](O)[C@@H](O)[C@@H]1O
INCHI=InChI=1S/C6H13O9P/c7-1-2-3(8)4(9)5(10)6(14-2)15-16(11,12)13/h2-10H,1H2,(H2,11,12,13)/t2-,3-,4+,5-,6?/m1/s1
INCHIAUX=N/A
PUBMED=N/A
SUBMITUSER=mwang87
TAGS=
LIBRARYQUALITY=3
SPECTRUMID=CCMSLIB00000426823
SCANS=1795
110.394 64.286 
258.33 100.0 
END IONS

BEGIN IONS
PEPMASS=258.109
CHARGE=1+
MSLEVEL=2
SOURCE_INSTRUMENT=Positive-Quattro_QQQ:40eV
FILENAME=hmdb_intermediate.mgf
SEQ=*..*
IONMODE=Positive
ORGANISM=HMDB
NAME=HMDB:HMDB00982-1377 5-Methylcytidine M+H
PI=HMDB
DATACOLLECTOR=HMDB
SMILES=CC1=CN([C@@H]2O[C@H](CO)[C@@H](O)[C@H]2O)C(=O)N=C1N
INCHI=InChI=1S/C10H15N3O5/c1-4-2-13(10(17)12-8(4)11)9-7(16)6(15)5(3-14)18-9/h2,5-7,9,14-16H,3H2,1H3,(H2,11,12,17)/t5-,6-,7-,9-/m1/s1
INCHIAUX=N/A
PUBMED=N/A
SUBMITUSER=mwang87
TAGS=
LIBRARYQUALITY=3
SPECTRUMID=CCMSLIB00000426824
SCANS=1796
82.958 18.95 
108.155 18.593 
125.931 100.0 
END IONS

BEGIN IONS
PEPMASS=227.103
CHARGE=1+
MSLEVEL=2
SOURCE_INSTRUMENT=Positive-Quattro_QQQ:25eV
FILENAME=hmdb_intermediate.mgf
SEQ=*..*
IONMODE=Positive
ORGANISM=HMDB
NAME=HMDB:HMDB00245-416 Porphobilinogen M+H
PI=HMDB
DATACOLLECTOR=HMDB
SMILES=NCC1=C(CC(O)=O)C(CCC(O)=O)=CN1
INCHI=InChI=1S/C10H14N2O4/c11-4-8-7(3-10(15)16)6(5-12-8)1-2-9(13)14/h5,12H,1-4,11H2,(H,13,14)(H,15,16)
INCHIAUX=N/A
PUBMED=N/A
SUBMITUSER=mwang87
TAGS=
LIBRARYQUALITY=3
SPECTRUMID=CCMSLIB00000426825
SCANS=1797
94.116 52.941 
106.085 38.971 
122.044 100.0 
133.989 5.538 
140.017 25.368 
149.996 32.353 
164.035 18.566 
166.01 12.868 
181.947 35.662 
209.903 10.938 
END IONS

BEGIN IONS
PEPMASS=163.076
CHARGE=1+
MSLEVEL=2
SOURCE_INSTRUMENT=Negative-Quattro_QQQ:25eV
FILENAME=hmdb_intermediate.mgf
SEQ=*..*
IONMODE=Negative
ORGANISM=HMDB
NAME=HMDB:HMDB00543-762 Benzenebutanoic acid M-H
PI=HMDB
DATACOLLECTOR=HMDB
SMILES=OC(=O)CCCC1=CC=CC=C1
INCHI=InChI=1S/C10H12O2/c11-10(12)8-4-7-9-5-2-1-3-6-9/h1-3,5-6H,4,7-8H2,(H,11,12)
INCHIAUX=N/A
PUBMED=N/A
SUBMITUSER=mwang87
TAGS=
LIBRARYQUALITY=3
SPECTRUMID=CCMSLIB00000426826
SCANS=1798
41.659 3.519 
59.469 31.933 
71.384 1.956 
91.314 100.0 
163.165 3.02 
END IONS

BEGIN IONS
PEPMASS=110.061
CHARGE=1+
MSLEVEL=2
SOURCE_INSTRUMENT=Positive-Quattro_QQQ:40eV
FILENAME=hmdb_intermediate.mgf
SEQ=*..*
IONMODE=Positive
ORGANISM=HMDB
NAME=HMDB:HMDB01169-1447 4-Aminophenol M+H
PI=HMDB
DATACOLLECTOR=HMDB
SMILES=NC1=CC=C(O)C=C1
INCHI=InChI=1S/C6H7NO/c7-5-1-3-6(8)4-2-5/h1-4,8H,7H2
INCHIAUX=N/A
PUBMED=N/A
SUBMITUSER=mwang87
TAGS=
LIBRARYQUALITY=3
SPECTRUMID=CCMSLIB00000426827
SCANS=1799
63.0 6.472 
65.0 100.0 
80.0 12.934 
93.0 10.288 
110.0 8.666 
END IONS

BEGIN IONS
PEPMASS=343.124
CHARGE=1+
MSLEVEL=2
SOURCE_INSTRUMENT=Positive-Quattro_QQQ:25eV
FILENAME=hmdb_intermediate.mgf
SEQ=*..*
IONMODE=Positive
ORGANISM=HMDB
NAME=HMDB:HMDB11740-2497 Turanose M+H
PI=HMDB
DATACOLLECTOR=HMDB
SMILES=OC[C@@H](O)[C@@H](O)[C@H](O[C@H]1O[C@H](CO)[C@@H](O)[C@H](O)[C@H]1O)C(=O)CO
INCHI=InChI=1S/C12H22O11/c13-1-4(16)7(18)11(5(17)2-14)23-12-10(21)9(20)8(19)6(3-15)22-12/h4,6-16,18-21H,1-3H2/t4-,6-,7-,8-,9+,10-,11-,12-/m1/s1
INCHIAUX=N/A
PUBMED=N/A
SUBMITUSER=mwang87
TAGS=
LIBRARYQUALITY=3
SPECTRUMID=CCMSLIB00000426828
SCANS=1800
69.0 9.8096631117 
85.02 86.5300147524 
97.02 36.3836008136 
109.02 5.5636893277 
115.2 3.9531480807 
127.02 100.0 
145.08 6.7349926238 
240.24 7.6866765821 
271.14 2.8550511501 
302.16 16.1054173015 
343.2 16.1786229421 
END IONS

BEGIN IONS
PEPMASS=147.066
CHARGE=1+
MSLEVEL=2
SOURCE_INSTRUMENT=Positive-Quattro_QQQ:25eV
FILENAME=hmdb_intermediate.mgf
SEQ=*..*
IONMODE=Positive
ORGANISM=HMDB
NAME=HMDB:HMDB00422-625 2-Methylglutaric acid M+H
PI=HMDB
DATACOLLECTOR=HMDB
SMILES=CC(CCC(O)=O)C(O)=O
INCHI=InChI=1S/C6H10O4/c1-4(6(9)10)2-3-5(7)8/h4H,2-3H2,1H3,(H,7,8)(H,9,10)
INCHIAUX=N/A
PUBMED=N/A
SUBMITUSER=mwang87
TAGS=
LIBRARYQUALITY=3
SPECTRUMID=CCMSLIB00000426829
SCANS=1801
71.0 40.4 
84.0 100.0 
85.0 98.82 
104.0 62.504 
105.0 56.064 
118.0 17.37 
130.0 19.735 
159.0 25.785 
END IONS

BEGIN IONS
PEPMASS=176.056
CHARGE=1+
MSLEVEL=2
SOURCE_INSTRUMENT=Positive-Quattro_QQQ:40eV
FILENAME=hmdb_intermediate.mgf
SEQ=*..*
IONMODE=Positive
ORGANISM=HMDB
NAME=HMDB:HMDB00812-1163 N-Acetyl-L-aspartic acid M+H
PI=HMDB
DATACOLLECTOR=HMDB
SMILES=CC(=O)N[C@@H](CC(O)=O)C(O)=O
INCHI=InChI=1S/C6H9NO5/c1-3(8)7-4(6(11)12)2-5(9)10/h4H,2H2,1H3,(H,7,8)(H,9,10)(H,11,12)/t4-/m0/s1
INCHIAUX=N/A
PUBMED=N/A
SUBMITUSER=mwang87
TAGS=
LIBRARYQUALITY=3
SPECTRUMID=CCMSLIB00000426830
SCANS=1802
43.292 100.0 
46.243 16.033 
56.181 4.303 
74.083 51.449 
88.058 25.725 
98.973 6.069 
134.069 5.367 
END IONS

BEGIN IONS
PEPMASS=134.045
CHARGE=1+
MSLEVEL=2
SOURCE_INSTRUMENT=Positive-Quattro_QQQ:10eV
FILENAME=hmdb_intermediate.mgf
SEQ=*..*
IONMODE=Positive
ORGANISM=HMDB
NAME=HMDB:HMDB06483-2487 D-Aspartic acid M+H
PI=HMDB
DATACOLLECTOR=HMDB
SMILES=N[C@H](CC(O)=O)C(O)=O
INCHI=InChI=1S/C4H7NO4/c5-2(4(8)9)1-3(6)7/h2H,1,5H2,(H,6,7)(H,8,9)/t2-/m1/s1
INCHIAUX=N/A
PUBMED=N/A
SUBMITUSER=mwang87
TAGS=
LIBRARYQUALITY=3
SPECTRUMID=CCMSLIB00000426831
SCANS=1803
73.98 17.6786478708 
87.96 45.006163479 
116.1 73.6581503498 
134.1 100.0 
END IONS

BEGIN IONS
PEPMASS=32.05
CHARGE=1+
MSLEVEL=2
SOURCE_INSTRUMENT=Positive-Quattro_QQQ:40eV
FILENAME=hmdb_intermediate.mgf
SEQ=*..*
IONMODE=Positive
ORGANISM=HMDB
NAME=HMDB:HMDB00164-262 Methylamine M+H
PI=HMDB
DATACOLLECTOR=HMDB
SMILES=CN
INCHI=InChI=1S/CH5N/c1-2/h2H2,1H3
INCHIAUX=N/A
PUBMED=N/A
SUBMITUSER=mwang87
TAGS=
LIBRARYQUALITY=3
SPECTRUMID=CCMSLIB00000426832
SCANS=1804
32.0 100.0 
END IONS

BEGIN IONS
PEPMASS=131.071
CHARGE=1+
MSLEVEL=2
SOURCE_INSTRUMENT=Positive-Quattro_QQQ:25eV
FILENAME=hmdb_intermediate.mgf
SEQ=*..*
IONMODE=Positive
ORGANISM=HMDB
NAME=HMDB:HMDB01864-1745 2-Ketohexanoic acid M+H
PI=HMDB
DATACOLLECTOR=HMDB
SMILES=CCCCC(=O)C(O)=O
INCHI=InChI=1S/C6H10O3/c1-2-3-4-5(7)6(8)9/h2-4H2,1H3,(H,8,9)
INCHIAUX=N/A
PUBMED=N/A
SUBMITUSER=mwang87
TAGS=
LIBRARYQUALITY=3
SPECTRUMID=CCMSLIB00000426833
SCANS=1805
68.998 100.0 
89.966 17.135 
98.827 23.736 
END IONS

BEGIN IONS
PEPMASS=151.061
CHARGE=1+
MSLEVEL=2
SOURCE_INSTRUMENT=Positive-Quattro_QQQ:25eV
FILENAME=hmdb_intermediate.mgf
SEQ=*..*
IONMODE=Positive
ORGANISM=HMDB
NAME=HMDB:HMDB01644-1667 D-Xylulose M+H
PI=HMDB
DATACOLLECTOR=HMDB
SMILES=OC[C@@H](O)[C@H](O)C(=O)CO
INCHI=InChI=1S/C5H10O5/c6-1-3(8)5(10)4(9)2-7/h3,5-8,10H,1-2H2/t3-,5+/m1/s1
INCHIAUX=N/A
PUBMED=N/A
SUBMITUSER=mwang87
TAGS=
LIBRARYQUALITY=3
SPECTRUMID=CCMSLIB00000426834
SCANS=1806
87.0 100.0 
101.0 6.875 
119.0 6.775 
END IONS

BEGIN IONS
PEPMASS=227.114
CHARGE=1+
MSLEVEL=2
SOURCE_INSTRUMENT=Positive-Quattro_QQQ:10eV
FILENAME=hmdb_intermediate.mgf
SEQ=*..*
IONMODE=Positive
ORGANISM=HMDB
NAME=HMDB:HMDB00033-54 Carnosine M+H
PI=HMDB
DATACOLLECTOR=HMDB
SMILES=NCCC(=O)N[C@@H](CC1=CN=CN1)C(O)=O
INCHI=InChI=1S/C9H14N4O3/c10-2-1-8(14)13-7(9(15)16)3-6-4-11-5-12-6/h4-5,7H,1-3,10H2,(H,11,12)(H,13,14)(H,15,16)/t7-/m0/s1
INCHIAUX=N/A
PUBMED=N/A
SUBMITUSER=mwang87
TAGS=
LIBRARYQUALITY=3
SPECTRUMID=CCMSLIB00000426835
SCANS=1807
110.075 31.313 
122.051 2.841 
138.034 6.692 
156.031 36.869 
180.183 16.667 
191.989 3.504 
209.864 80.808 
227.013 100.0 
END IONS

BEGIN IONS
PEPMASS=93.034
CHARGE=1+
MSLEVEL=2
SOURCE_INSTRUMENT=Negative-Quattro_QQQ:10eV
FILENAME=hmdb_intermediate.mgf
SEQ=*..*
IONMODE=Negative
ORGANISM=HMDB
NAME=HMDB:HMDB00228-379 Phenol M-H
PI=HMDB
DATACOLLECTOR=HMDB
SMILES=OC1=CC=CC=C1
INCHI=InChI=1S/C6H6O/c7-6-4-2-1-3-5-6/h1-5,7H
INCHIAUX=N/A
PUBMED=N/A
SUBMITUSER=mwang87
TAGS=
LIBRARYQUALITY=3
SPECTRUMID=CCMSLIB00000426836
SCANS=1808
93.0 100.0 
END IONS

BEGIN IONS
PEPMASS=168.102
CHARGE=1+
MSLEVEL=2
SOURCE_INSTRUMENT=Positive-Quattro_QQQ:10eV
FILENAME=hmdb_intermediate.mgf
SEQ=*..*
IONMODE=Positive
ORGANISM=HMDB
NAME=HMDB:HMDB00022-39 3-Methoxytyramine M+H
PI=HMDB
DATACOLLECTOR=HMDB
SMILES=COC1=C(O)C=CC(CCN)=C1
INCHI=InChI=1S/C9H13NO2/c1-12-9-6-7(4-5-10)2-3-8(9)11/h2-3,6,11H,4-5,10H2,1H3
INCHIAUX=N/A
PUBMED=N/A
SUBMITUSER=mwang87
TAGS=
LIBRARYQUALITY=3
SPECTRUMID=CCMSLIB00000426837
SCANS=1809
91.112 4.632 
95.101 1.446 
119.032 5.882 
151.013 100.0 
168.02 4.755 
END IONS

BEGIN IONS
PEPMASS=273.185
CHARGE=1+
MSLEVEL=2
SOURCE_INSTRUMENT=Positive-Quattro_QQQ:40eV
FILENAME=hmdb_intermediate.mgf
SEQ=*..*
IONMODE=Positive
ORGANISM=HMDB
NAME=HMDB:HMDB00429-634 17a-Estradiol M+H
PI=HMDB
DATACOLLECTOR=HMDB
SMILES=[H][C@@]12CC[C@@H](O)[C@@]1(C)CC[C@]1([H])C3=C(CC[C@@]21[H])C=C(O)C=C3
INCHI=InChI=1S/C18H24O2/c1-18-9-8-14-13-5-3-12(19)10-11(13)2-4-15(14)16(18)6-7-17(18)20/h3,5,10,14-17,19-20H,2,4,6-9H2,1H3/t14-,15-,16+,17-,18+/m1/s1
INCHIAUX=N/A
PUBMED=N/A
SUBMITUSER=mwang87
TAGS=
LIBRARYQUALITY=3
SPECTRUMID=CCMSLIB00000426838
SCANS=1810
66.0 84.498 
80.0 87.668 
106.0 100.0 
END IONS

BEGIN IONS
PEPMASS=181.071
CHARGE=1+
MSLEVEL=2
SOURCE_INSTRUMENT=Positive-Quattro_QQQ:25eV
FILENAME=hmdb_intermediate.mgf
SEQ=*..*
IONMODE=Positive
ORGANISM=HMDB
NAME=HMDB:HMDB03449-2317 Beta-D-Galactose M+H
PI=HMDB
DATACOLLECTOR=HMDB
SMILES=OC[C@H]1O[C@@H](O)[C@H](O)[C@@H](O)[C@H]1O
INCHI=InChI=1S/C6H12O6/c7-1-2-3(8)4(9)5(10)6(11)12-2/h2-11H,1H2/t2-,3+,4+,5-,6-/m1/s1
INCHIAUX=N/A
PUBMED=N/A
SUBMITUSER=mwang87
TAGS=
LIBRARYQUALITY=3
SPECTRUMID=CCMSLIB00000426839
SCANS=1811
55.0 27.147 
99.0 100.0 
END IONS

BEGIN IONS
PEPMASS=349.055
CHARGE=1+
MSLEVEL=2
SOURCE_INSTRUMENT=Positive-Quattro_QQQ:40eV
FILENAME=hmdb_intermediate.mgf
SEQ=*..*
IONMODE=Positive
ORGANISM=HMDB
NAME=HMDB:HMDB00175-279 Inosinic acid M+H
PI=HMDB
DATACOLLECTOR=HMDB
SMILES=O[C@@H]1[C@@H](COP(O)(O)=O)O[C@H]([C@@H]1O)N1C=NC2=C1N=CNC2=O
INCHI=InChI=1S/C10H13N4O8P/c15-6-4(1-21-23(18,19)20)22-10(7(6)16)14-3-13-5-8(14)11-2-12-9(5)17/h2-4,6-7,10,15-16H,1H2,(H,11,12,17)(H2,18,19,20)/t4-,6-,7-,10-/m1/s1
INCHIAUX=N/A
PUBMED=N/A
SUBMITUSER=mwang87
TAGS=
LIBRARYQUALITY=3
SPECTRUMID=CCMSLIB00000426840
SCANS=1812
66.153 16.203 
77.349 10.645 
88.797 16.203 
96.345 10.185 
107.164 13.424 
118.234 10.185 
129.809 12.5 
143.648 11.572 
150.316 10.645 
162.017 11.108 
171.076 13.888 
179.883 100.0 
200.644 75.924 
210.711 11.572 
223.042 11.108 
234.368 10.185 
243.554 12.036 
252.74 12.036 
254.628 10.645 
268.597 18.518 
289.11 10.185 
311.638 11.108 
316.421 11.572 
339.328 12.036 
351.915 19.906 
391.691 15.275 
430.212 11.572 
439.402 13.424 
450.732 10.185 
457.656 11.108 
END IONS

BEGIN IONS
PEPMASS=181.071
CHARGE=1+
MSLEVEL=2
SOURCE_INSTRUMENT=Positive-Quattro_QQQ:10eV
FILENAME=hmdb_intermediate.mgf
SEQ=*..*
IONMODE=Positive
ORGANISM=HMDB
NAME=HMDB:HMDB01266-1498 L-Sorbose M+H
PI=HMDB
DATACOLLECTOR=HMDB
SMILES=OC[C@@]1(O)OC[C@H](O)[C@@H](O)[C@@H]1O
INCHI=InChI=1S/C6H12O6/c7-2-6(11)5(10)4(9)3(8)1-12-6/h3-5,7-11H,1-2H2/t3-,4+,5-,6+/m0/s1
INCHIAUX=N/A
PUBMED=N/A
SUBMITUSER=mwang87
TAGS=
LIBRARYQUALITY=3
SPECTRUMID=CCMSLIB00000426841
SCANS=1813
85.0 15.355 
103.0 3.512 
105.0 4.048 
117.0 34.883 
131.0 3.75 
149.0 100.0 
163.0 7.608 
181.0 8.655 
END IONS

BEGIN IONS
PEPMASS=302.306
CHARGE=1+
MSLEVEL=2
SOURCE_INSTRUMENT=Positive-Quattro_QQQ:10eV
FILENAME=hmdb_intermediate.mgf
SEQ=*..*
IONMODE=Positive
ORGANISM=HMDB
NAME=HMDB:HMDB00269-469 Sphinganine M+H
PI=HMDB
DATACOLLECTOR=HMDB
SMILES=CCCCCCCCCCCCCCC[C@@H](O)[C@@H](N)CO
INCHI=InChI=1S/C18H39NO2/c1-2-3-4-5-6-7-8-9-10-11-12-13-14-15-18(21)17(19)16-20/h17-18,20-21H,2-16,19H2,1H3/t17-,18+/m0/s1
INCHIAUX=N/A
PUBMED=N/A
SUBMITUSER=mwang87
TAGS=
LIBRARYQUALITY=3
SPECTRUMID=CCMSLIB00000426842
SCANS=1814
53.893 10.099 
62.494 16.039 
69.703 24.751 
83.237 14.452 
87.664 10.099 
100.313 16.039 
124.472 14.452 
133.201 14.452 
136.11 16.829 
151.29 39.799 
155.338 10.889 
177.223 70.695 
186.079 17.62 
203.79 16.829 
210.116 10.889 
224.413 16.434 
224.539 12.871 
244.024 71.486 
253.893 10.494 
260.853 100.0 
271.608 17.224 
277.429 14.452 
290.082 10.889 
302.61 33.068 
312.86 15.643 
END IONS

BEGIN IONS
PEPMASS=186.017
CHARGE=1+
MSLEVEL=2
SOURCE_INSTRUMENT=Positive-Quattro_QQQ:40eV
FILENAME=hmdb_intermediate.mgf
SEQ=*..*
IONMODE=Positive
ORGANISM=HMDB
NAME=HMDB:HMDB00272-477 Phosphoserine M+H
PI=HMDB
DATACOLLECTOR=HMDB
SMILES=N[C@@H](COP(O)(O)=O)C(O)=O
INCHI=InChI=1S/C3H8NO6P/c4-2(3(5)6)1-10-11(7,8)9/h2H,1,4H2,(H,5,6)(H2,7,8,9)/t2-/m0/s1
INCHIAUX=N/A
PUBMED=N/A
SUBMITUSER=mwang87
TAGS=
LIBRARYQUALITY=3
SPECTRUMID=CCMSLIB00000426843
SCANS=1815
42.662 100.0 
44.89 2.111 
60.473 2.865 
70.355 37.5 
81.251 11.31 
88.258 23.363 
99.173 7.292 
END IONS

BEGIN IONS
PEPMASS=190.072
CHARGE=1+
MSLEVEL=2
SOURCE_INSTRUMENT=Positive-Quattro_QQQ:10eV
FILENAME=hmdb_intermediate.mgf
SEQ=*..*
IONMODE=Positive
ORGANISM=HMDB
NAME=HMDB:HMDB01138-1430 N-Acetylglutamic acid M+H
PI=HMDB
DATACOLLECTOR=HMDB
SMILES=CC(=O)NC(CCC(O)=O)C(O)=O
INCHI=InChI=1S/C7H11NO5/c1-4(9)8-5(7(12)13)2-3-6(10)11/h5H,2-3H2,1H3,(H,8,9)(H,10,11)(H,12,13)
INCHIAUX=N/A
PUBMED=N/A
SUBMITUSER=mwang87
TAGS=
LIBRARYQUALITY=3
SPECTRUMID=CCMSLIB00000426844
SCANS=1816
79.473 33.334 
86.015 14.425 
102.623 16.611 
107.404 34.098 
114.576 19.891 
133.826 41.421 
142.886 30.164 
148.296 51.367 
162.389 25.354 
171.701 100.0 
190.199 77.814 
END IONS

BEGIN IONS
PEPMASS=331.227
CHARGE=1+
MSLEVEL=2
SOURCE_INSTRUMENT=Positive-Quattro_QQQ:25eV
FILENAME=hmdb_intermediate.mgf
SEQ=*..*
IONMODE=Positive
ORGANISM=HMDB
NAME=HMDB:HMDB00016-29 Deoxycorticosterone M+H
PI=HMDB
DATACOLLECTOR=HMDB
SMILES=[H][C@@]12CC[C@H](C(=O)CO)[C@@]1(C)CC[C@@]1([H])[C@@]2([H])CCC2=CC(=O)CC[C@]12C
INCHI=InChI=1S/C21H30O3/c1-20-9-7-14(23)11-13(20)3-4-15-16-5-6-18(19(24)12-22)21(16,2)10-8-17(15)20/h11,15-18,22H,3-10,12H2,1-2H3/t15-,16-,17-,18+,20-,21-/m0/s1
INCHIAUX=N/A
PUBMED=N/A
SUBMITUSER=mwang87
TAGS=
LIBRARYQUALITY=3
SPECTRUMID=CCMSLIB00000426845
SCANS=1817
83.245 5.465 
93.249 2.694 
97.218 100.0 
109.173 85.356 
123.157 7.741 
133.095 2.537 
135.084 2.04 
145.117 3.609 
159.099 3.033 
171.077 2.929 
177.031 1.961 
185.046 1.961 
331.117 2.04 
END IONS

BEGIN IONS
PEPMASS=168.066
CHARGE=1+
MSLEVEL=2
SOURCE_INSTRUMENT=Positive-Quattro_QQQ:10eV
FILENAME=hmdb_intermediate.mgf
SEQ=*..*
IONMODE=Positive
ORGANISM=HMDB
NAME=HMDB:HMDB01545-1643 Pyridoxal M+H
PI=HMDB
DATACOLLECTOR=HMDB
SMILES=CC1=C(O)C(C=O)=C(CO)C=N1
INCHI=InChI=1S/C8H9NO3/c1-5-8(12)7(4-11)6(3-10)2-9-5/h2,4,10,12H,3H2,1H3
INCHIAUX=N/A
PUBMED=N/A
SUBMITUSER=mwang87
TAGS=
LIBRARYQUALITY=3
SPECTRUMID=CCMSLIB00000426846
SCANS=1818
149.975 100.0 
167.965 27.559 
END IONS

BEGIN IONS
PEPMASS=153.076
CHARGE=1+
MSLEVEL=2
SOURCE_INSTRUMENT=Positive-Quattro_QQQ:10eV
FILENAME=hmdb_intermediate.mgf
SEQ=*..*
IONMODE=Positive
ORGANISM=HMDB
NAME=HMDB:HMDB01851-1714 L-Arabitol M+H
PI=HMDB
DATACOLLECTOR=HMDB
SMILES=OC[C@H](O)C(O)[C@@H](O)CO
INCHI=InChI=1S/C5H12O5/c6-1-3(8)5(10)4(9)2-7/h3-10H,1-2H2/t3-,4-/m0/s1
INCHIAUX=N/A
PUBMED=N/A
SUBMITUSER=mwang87
TAGS=
LIBRARYQUALITY=3
SPECTRUMID=CCMSLIB00000426847
SCANS=1819
56.0 26.514 
68.0 44.592 
92.0 28.48 
98.0 34.405 
106.0 19.2 
120.0 100.0 
134.0 56.83 
135.0 21.827 
152.0 45.15 
END IONS

BEGIN IONS
PEPMASS=44.9851
CHARGE=1+
MSLEVEL=2
SOURCE_INSTRUMENT=Negative-Quattro_QQQ:25eV
FILENAME=hmdb_intermediate.mgf
SEQ=*..*
IONMODE=Negative
ORGANISM=HMDB
NAME=HMDB:HMDB02786-2132 Nitrite M-H
PI=HMDB
DATACOLLECTOR=HMDB
SMILES=[O-]N=O
INCHI=InChI=1S/HNO2/c2-1-3/h(H,2,3)/p-1
INCHIAUX=N/A
PUBMED=N/A
SUBMITUSER=mwang87
TAGS=
LIBRARYQUALITY=3
SPECTRUMID=CCMSLIB00000426848
SCANS=1820
44.0 79.95 
45.0 100.0 
END IONS

BEGIN IONS
PEPMASS=195.05
CHARGE=1+
MSLEVEL=2
SOURCE_INSTRUMENT=Positive-Quattro_QQQ:40eV
FILENAME=hmdb_intermediate.mgf
SEQ=*..*
IONMODE=Positive
ORGANISM=HMDB
NAME=HMDB:HMDB03402-2279 Pectin M+H
PI=HMDB
DATACOLLECTOR=HMDB
SMILES=O[C@@H]1O[C@@H]([C@H](O)[C@H](O)[C@H]1O)C(O)=O
INCHI=InChI=1S/C6H10O7/c7-1-2(8)4(5(10)11)13-6(12)3(1)9/h1-4,6-9,12H,(H,10,11)/t1-,2+,3+,4-,6+/m0/s1
INCHIAUX=N/A
PUBMED=N/A
SUBMITUSER=mwang87
TAGS=
LIBRARYQUALITY=3
SPECTRUMID=CCMSLIB00000426849
SCANS=1821
76.0 100.0 
END IONS

BEGIN IONS
PEPMASS=565.047
CHARGE=1+
MSLEVEL=2
SOURCE_INSTRUMENT=Negative-Quattro_QQQ:25eV
FILENAME=hmdb_intermediate.mgf
SEQ=*..*
IONMODE=Negative
ORGANISM=HMDB
NAME=HMDB:HMDB00286-484 Uridine diphosphate glucose M-H
PI=HMDB
DATACOLLECTOR=HMDB
SMILES=OC[C@@H]1OC(OP(O)(=O)OP(O)(=O)OC[C@@H]2O[C@@H]([C@@H](O)[C@H]2O)N2C=CC(=O)NC2=O)[C@@H](O)[C@H](O)[C@H]1O
INCHI=InChI=1S/C15H24N2O17P2/c18-3-5-8(20)10(22)12(24)14(32-5)33-36(28,29)34-35(26,27)30-4-6-9(21)11(23)13(31-6)17-2-1-7(19)16-15(17)25/h1-2,5-6,8-14,18,20-24H,3-4H2,(H,26,27)(H,28,29)(H,16,19,25)/t5-,6-,8-,9-,10+,11-,12-,13-,14?/m0/s1
INCHIAUX=N/A
PUBMED=N/A
SUBMITUSER=mwang87
TAGS=
LIBRARYQUALITY=3
SPECTRUMID=CCMSLIB00000426850
SCANS=1822
80.107 45.759 
103.0 45.759 
118.052 66.09 
155.241 43.504 
167.006 100.0 
232.411 52.541 
241.015 50.27 
273.911 45.759 
285.805 45.759 
297.32 52.541 
309.468 45.759 
320.983 48.015 
332.625 68.361 
335.409 61.579 
374.133 43.504 
391.471 54.797 
395.901 61.579 
422.858 52.541 
426.655 50.27 
438.806 48.015 
462.221 45.759 
497.789 52.541 
523.864 45.759 
580.068 50.27 
END IONS

BEGIN IONS
PEPMASS=140.995
CHARGE=1+
MSLEVEL=2
SOURCE_INSTRUMENT=Positive-Quattro_QQQ:10eV
FILENAME=hmdb_intermediate.mgf
SEQ=*..*
IONMODE=Positive
ORGANISM=HMDB
NAME=HMDB:HMDB01494-1613 Acetylphosphate M+H
PI=HMDB
DATACOLLECTOR=HMDB
SMILES=CC(=O)OP(O)(O)=O
INCHI=InChI=1S/C2H5O5P/c1-2(3)7-8(4,5)6/h1H3,(H2,4,5,6)
INCHIAUX=N/A
PUBMED=N/A
SUBMITUSER=mwang87
TAGS=
LIBRARYQUALITY=3
SPECTRUMID=CCMSLIB00000426851
SCANS=1823
76.0 100.0 
140.0 14.357 
END IONS

BEGIN IONS
PEPMASS=537.446
CHARGE=1+
MSLEVEL=2
SOURCE_INSTRUMENT=Positive-Quattro_QQQ:10eV
FILENAME=hmdb_intermediate.mgf
SEQ=*..*
IONMODE=Positive
ORGANISM=HMDB
NAME=HMDB:HMDB00561-782 B-Carotene M+H
PI=HMDB
DATACOLLECTOR=HMDB
SMILES=C\C(\C=C\C=C(/C)\C=C\C1=C(C)CCCC1(C)C)=C/C=C/C=C(\C)/C=C/C=C(\C)/C=C/C1=C(C)CCCC1(C)C
INCHI=InChI=1S/C40H56/c1-31(19-13-21-33(3)25-27-37-35(5)23-15-29-39(37,7)8)17-11-12-18-32(2)20-14-22-34(4)26-28-38-36(6)24-16-30-40(38,9)10/h11-14,17-22,25-28H,15-16,23-24,29-30H2,1-10H3/b12-11+,19-13+,20-14+,27-25+,28-26+,31-17+,32-18+,33-21+,34-22+
INCHIAUX=N/A
PUBMED=N/A
SUBMITUSER=mwang87
TAGS=
LIBRARYQUALITY=3
SPECTRUMID=CCMSLIB00000426852
SCANS=1824
63.188 12.434 
69.648 10.127 
81.957 15.505 
94.145 13.199 
94.511 10.898 
106.699 11.663 
121.569 12.434 
130.588 10.898 
139.73 11.663 
155.698 12.434 
167.888 13.969 
181.663 36.243 
191.415 100.0 
207.995 34.707 
216.894 15.505 
234.45 11.663 
234.693 19.348 
252.25 13.969 
259.321 13.969 
265.417 12.434 
277.61 12.434 
287.73 10.898 
299.801 14.735 
320.164 11.663 
329.553 13.199 
335.406 13.199 
347.601 10.898 
359.673 15.505 
364.673 12.434 
390.648 13.969 
400.404 17.041 
418.21 20.884 
427.113 12.434 
454.067 13.969 
461.019 10.898 
470.532 20.113 
478.094 13.199 
485.412 12.434 
503.586 13.199 
513.588 16.271 
521.272 11.663 
528.346 12.434 
536.763 71.578 
551.034 12.434 
561.036 13.969 
566.647 10.898 
580.309 12.434 
592.507 10.898 
595.679 15.505 
END IONS

BEGIN IONS
PEPMASS=163.124
CHARGE=1+
MSLEVEL=2
SOURCE_INSTRUMENT=Positive-Quattro_QQQ:25eV
FILENAME=hmdb_intermediate.mgf
SEQ=*..*
IONMODE=Positive
ORGANISM=HMDB
NAME=HMDB:HMDB01934-1879 L(-)-Nicotine pestanal M+H
PI=HMDB
DATACOLLECTOR=HMDB
SMILES=CN1CCC[C@H]1C1=CN=CC=C1
INCHI=InChI=1S/C10H14N2/c1-12-7-3-5-10(12)9-4-2-6-11-8-9/h2,4,6,8,10H,3,5,7H2,1H3/t10-/m0/s1
INCHIAUX=N/A
PUBMED=N/A
SUBMITUSER=mwang87
TAGS=
LIBRARYQUALITY=3
SPECTRUMID=CCMSLIB00000426853
SCANS=1825
84.0 38.521 
92.0 6.833 
106.0 27.599 
117.0 84.561 
130.0 100.0 
163.0 12.988 
END IONS

BEGIN IONS
PEPMASS=665.125
CHARGE=1+
MSLEVEL=2
SOURCE_INSTRUMENT=Positive-Quattro_QQQ:25eV
FILENAME=hmdb_intermediate.mgf
SEQ=*..*
IONMODE=Positive
ORGANISM=HMDB
NAME=HMDB:HMDB00902-1281 NAD M+H
PI=HMDB
DATACOLLECTOR=HMDB
SMILES=NC(=O)C1=C[N+](=CC=C1)[C@@H]1O[C@H](COP(O)(=O)OP(O)(=O)OC[C@H]2O[C@H]([C@H](O)[C@@H]2O)N2C=NC3=C2N=CN=C3N)[C@@H](O)[C@H]1O
INCHI=InChI=1S/C21H27N7O14P2/c22-17-12-19(25-7-24-17)28(8-26-12)21-16(32)14(30)11(41-21)6-39-44(36,37)42-43(34,35)38-5-10-13(29)15(31)20(40-10)27-3-1-2-9(4-27)18(23)33/h1-4,7-8,10-11,13-16,20-21,29-32H,5-6H2,(H5-,22,23,24,25,33,34,35,36,37)/p+1/t10-,11-,13-,14-,15-,16-,20-,21-/m1/s1
INCHIAUX=N/A
PUBMED=N/A
SUBMITUSER=mwang87
TAGS=
LIBRARYQUALITY=3
SPECTRUMID=CCMSLIB00000426854
SCANS=1826
97.0 8.341 
136.0 100.0 
216.0 1.861 
232.0 37.422 
250.0 3.204 
348.0 6.871 
428.0 56.044 
444.0 4.05 
524.0 10.522 
525.0 1.47 
542.0 2.677 
END IONS

BEGIN IONS
PEPMASS=169.098
CHARGE=1+
MSLEVEL=2
SOURCE_INSTRUMENT=Positive-Quattro_QQQ:25eV
FILENAME=hmdb_intermediate.mgf
SEQ=*..*
IONMODE=Positive
ORGANISM=HMDB
NAME=HMDB:HMDB01431-1575 Pyridoxamine M+H
PI=HMDB
DATACOLLECTOR=HMDB
SMILES=CC1=C(O)C(CN)=C(CO)C=N1
INCHI=InChI=1S/C8H12N2O2/c1-5-8(12)7(2-9)6(4-11)3-10-5/h3,11-12H,2,4,9H2,1H3
INCHIAUX=N/A
PUBMED=N/A
SUBMITUSER=mwang87
TAGS=
LIBRARYQUALITY=3
SPECTRUMID=CCMSLIB00000426855
SCANS=1827
79.127 14.696 
106.07 12.331 
123.645 8.15 
133.999 100.0 
151.832 20.946 
END IONS

BEGIN IONS
PEPMASS=175.024
CHARGE=1+
MSLEVEL=2
SOURCE_INSTRUMENT=Positive-Quattro_QQQ:25eV
FILENAME=hmdb_intermediate.mgf
SEQ=*..*
IONMODE=Positive
ORGANISM=HMDB
NAME=HMDB:HMDB00958-1361 trans-Aconitic acid M+H
PI=HMDB
DATACOLLECTOR=HMDB
SMILES=OC(=O)C\C(=C/C(O)=O)C(O)=O
INCHI=InChI=1S/C6H6O6/c7-4(8)1-3(6(11)12)2-5(9)10/h1H,2H2,(H,7,8)(H,9,10)(H,11,12)/b3-1+
INCHIAUX=N/A
PUBMED=N/A
SUBMITUSER=mwang87
TAGS=
LIBRARYQUALITY=3
SPECTRUMID=CCMSLIB00000426856
SCANS=1828
41.37 100.0 
85.035 51.923 
128.863 3.149 
END IONS

BEGIN IONS
PEPMASS=227.067
CHARGE=1+
MSLEVEL=2
SOURCE_INSTRUMENT=Positive-Quattro_QQQ:40eV
FILENAME=hmdb_intermediate.mgf
SEQ=*..*
IONMODE=Positive
ORGANISM=HMDB
NAME=HMDB:HMDB01904-1824 3-Nitrotyrosine M+H
PI=HMDB
DATACOLLECTOR=HMDB
SMILES=N[C@@H](CC1=CC(=C(O)C=C1)[N+]([O-])=O)C(O)=O
INCHI=InChI=1S/C9H10N2O5/c10-6(9(13)14)3-5-1-2-8(12)7(4-5)11(15)16/h1-2,4,6,12H,3,10H2,(H,13,14)/t6-/m0/s1
INCHIAUX=N/A
PUBMED=N/A
SUBMITUSER=mwang87
TAGS=
LIBRARYQUALITY=3
SPECTRUMID=CCMSLIB00000426857
SCANS=1829
64.0 45.879 
65.0 45.174 
78.0 88.602 
89.0 100.0 
104.0 61.272 
105.0 68.996 
121.0 31.958 
134.0 29.59 
END IONS

BEGIN IONS
PEPMASS=132.066
CHARGE=1+
MSLEVEL=2
SOURCE_INSTRUMENT=Positive-Quattro_QQQ:40eV
FILENAME=hmdb_intermediate.mgf
SEQ=*..*
IONMODE=Positive
ORGANISM=HMDB
NAME=HMDB:HMDB00783-1118 Propionylglycine M+H
PI=HMDB
DATACOLLECTOR=HMDB
SMILES=CCC(=O)NCC(O)=O
INCHI=InChI=1S/C5H9NO3/c1-2-4(7)6-3-5(8)9/h2-3H2,1H3,(H,6,7)(H,8,9)
INCHIAUX=N/A
PUBMED=N/A
SUBMITUSER=mwang87
TAGS=
LIBRARYQUALITY=3
SPECTRUMID=CCMSLIB00000426858
SCANS=1830
44.649 3.926 
57.495 100.0 
76.345 21.154 
87.311 4.868 
132.261 3.986 
END IONS

BEGIN IONS
PEPMASS=183.066
CHARGE=1+
MSLEVEL=2
SOURCE_INSTRUMENT=Positive-Quattro_QQQ:25eV
FILENAME=hmdb_intermediate.mgf
SEQ=*..*
IONMODE=Positive
ORGANISM=HMDB
NAME=HMDB:HMDB00423-627 3,4-Dihydroxyhydrocinnamic acid M+H
PI=HMDB
DATACOLLECTOR=HMDB
SMILES=OC(=O)CCC1=CC=C(O)C(O)=C1
INCHI=InChI=1S/C9H10O4/c10-7-3-1-6(5-8(7)11)2-4-9(12)13/h1,3,5,10-11H,2,4H2,(H,12,13)
INCHIAUX=N/A
PUBMED=N/A
SUBMITUSER=mwang87
TAGS=
LIBRARYQUALITY=3
SPECTRUMID=CCMSLIB00000426859
SCANS=1831
65.0 67.506 
77.0 11.609 
93.0 100.0 
95.0 53.945 
113.0 12.612 
119.0 9.889 
137.0 10.88 
END IONS

BEGIN IONS
PEPMASS=241.13
CHARGE=1+
MSLEVEL=2
SOURCE_INSTRUMENT=Positive-Quattro_QQQ:40eV
FILENAME=hmdb_intermediate.mgf
SEQ=*..*
IONMODE=Positive
ORGANISM=HMDB
NAME=HMDB:HMDB00194-315 Anserine M+H
PI=HMDB
DATACOLLECTOR=HMDB
SMILES=CN1C=NC=C1C[C@H](NC(=O)CCN)C(O)=O
INCHI=InChI=1S/C10H16N4O3/c1-14-6-12-5-7(14)4-8(10(16)17)13-9(15)2-3-11/h5-6,8H,2-4,11H2,1H3,(H,13,15)(H,16,17)/t8-/m0/s1
INCHIAUX=N/A
PUBMED=N/A
SUBMITUSER=mwang87
TAGS=
LIBRARYQUALITY=3
SPECTRUMID=CCMSLIB00000426860
SCANS=1832
51.629 10.663 
59.898 12.054 
70.673 73.342 
80.196 12.746 
96.86 100.0 
109.516 41.482 
119.164 96.195 
126.181 14.474 
137.71 14.823 
147.86 17.244 
161.143 14.131 
168.161 12.397 
179.69 13.439 
188.588 13.439 
196.107 11.705 
207.763 12.397 
217.037 11.012 
233.33 13.782 
238.344 15.859 
252.006 15.516 
256.643 16.9 
END IONS

BEGIN IONS
PEPMASS=391.285
CHARGE=1+
MSLEVEL=2
SOURCE_INSTRUMENT=Positive-Quattro_QQQ:25eV
FILENAME=hmdb_intermediate.mgf
SEQ=*..*
IONMODE=Positive
ORGANISM=HMDB
NAME=HMDB:HMDB00467-678 Nutriacholic acid M+H
PI=HMDB
DATACOLLECTOR=HMDB
SMILES=[H][C@@]12CCC([C@@H](C)CCC(O)=O)[C@@]1(C)CC[C@@]1([H])[C@@]2([H])C(=O)C[C@]2([H])C[C@H](O)CC[C@]12C
INCHI=InChI=1S/C24H38O4/c1-14(4-7-21(27)28)17-5-6-18-22-19(9-11-24(17,18)3)23(2)10-8-16(25)12-15(23)13-20(22)26/h14-19,22,25H,4-13H2,1-3H3,(H,27,28)/t14-,15-,16+,17?,18-,19-,22-,23-,24+/m0/s1
INCHIAUX=N/A
PUBMED=N/A
SUBMITUSER=mwang87
TAGS=
LIBRARYQUALITY=3
SPECTRUMID=CCMSLIB00000426861
SCANS=1833
57.083 11.767 
80.892 48.489 
84.942 15.49 
100.652 29.714 
105.439 29.869 
116.608 16.37 
132.932 37.369 
135.633 100.0 
146.802 60.385 
158.831 40.367 
173.316 43.161 
181.049 29.455 
187.31 23.663 
200.813 39.541 
213.212 16.266 
217.018 27.542 
227.207 49.626 
240.343 37.213 
245.132 32.144 
259.128 28.885 
269.564 19.472 
291.664 57.54 
294.734 16.37 
309.714 12.128 
319.292 70.155 
336.851 48.489 
355.149 44.092 
END IONS

BEGIN IONS
PEPMASS=131.118
CHARGE=1+
MSLEVEL=2
SOURCE_INSTRUMENT=Positive-Quattro_QQQ:40eV
FILENAME=hmdb_intermediate.mgf
SEQ=*..*
IONMODE=Positive
ORGANISM=HMDB
NAME=HMDB:HMDB60268-1977 N-Acetylputrescinium M+H
PI=HMDB
DATACOLLECTOR=HMDB
SMILES=CC(O)=NCCCCN
INCHI=InChI=1S/C6H14N2O/c1-6(9)8-5-3-2-4-7/h2-5,7H2,1H3,(H,8,9)
INCHIAUX=N/A
PUBMED=N/A
SUBMITUSER=mwang87
TAGS=
LIBRARYQUALITY=3
SPECTRUMID=CCMSLIB00000426862
SCANS=1834
72.0 100.0 
114.0 4.095 
131.0 5.066 
END IONS

BEGIN IONS
PEPMASS=651.608
CHARGE=1+
MSLEVEL=2
SOURCE_INSTRUMENT=Positive-Quattro_QQQ:10eV
FILENAME=hmdb_intermediate.mgf
SEQ=*..*
IONMODE=Positive
ORGANISM=HMDB
NAME=HMDB:HMDB00918-1303 CE(18:1(9Z)) M+H
PI=HMDB
DATACOLLECTOR=HMDB
SMILES=CCCCCCCC\C=C/CCCCCCCC(=O)O[C@H]1CC[C@@]2(C)C(=CC[C@@]3([H])[C@]4([H])CC[C@]([H])([C@H](C)CCCC(C)C)[C@@]4(C)CC[C@]23[H])C1
INCHI=InChI=1S/C45H78O2/c1-7-8-9-10-11-12-13-14-15-16-17-18-19-20-21-25-43(46)47-38-30-32-44(5)37(34-38)26-27-39-41-29-28-40(36(4)24-22-23-35(2)3)45(41,6)33-31-42(39)44/h14-15,26,35-36,38-42H,7-13,16-25,27-34H2,1-6H3/b15-14-/t36-,38+,39+,40-,41+,42+,44+,45-/m1/s1
INCHIAUX=N/A
PUBMED=N/A
SUBMITUSER=mwang87
TAGS=
LIBRARYQUALITY=3
SPECTRUMID=CCMSLIB00000426863
SCANS=1835
650.0 100.0 
END IONS

BEGIN IONS
PEPMASS=169.05
CHARGE=1+
MSLEVEL=2
SOURCE_INSTRUMENT=Positive-Quattro_QQQ:10eV
FILENAME=hmdb_intermediate.mgf
SEQ=*..*
IONMODE=Positive
ORGANISM=HMDB
NAME=HMDB:HMDB00130-197 Homogentisic acid M+H
PI=HMDB
DATACOLLECTOR=HMDB
SMILES=OC(=O)CC1=C(O)C=CC(O)=C1
INCHI=InChI=1S/C8H8O4/c9-6-1-2-7(10)5(3-6)4-8(11)12/h1-3,9-10H,4H2,(H,11,12)
INCHIAUX=N/A
PUBMED=N/A
SUBMITUSER=mwang87
TAGS=
LIBRARYQUALITY=3
SPECTRUMID=CCMSLIB00000426864
SCANS=1836
113.0 12.251 
123.0 100.0 
137.0 12.277 
151.0 20.06 
169.0 24.765 
END IONS

BEGIN IONS
PEPMASS=409.295
CHARGE=1+
MSLEVEL=2
SOURCE_INSTRUMENT=Positive-Quattro_QQQ:10eV
FILENAME=hmdb_intermediate.mgf
SEQ=*..*
IONMODE=Positive
ORGANISM=HMDB
NAME=HMDB:HMDB00364-579 3a,6a,7b-Trihydroxy-5b-cholanoic acid M+H
PI=HMDB
DATACOLLECTOR=HMDB
SMILES=[H][C@@]12CC[C@H]([C@H](C)CCC(O)=O)[C@@]1(C)CC[C@@]1([H])[C@@]2([H])[C@@H](O)[C@H](O)[C@]2([H])C[C@H](O)CC[C@]12C
INCHI=InChI=1S/C24H40O5/c1-13(4-7-19(26)27)15-5-6-16-20-17(9-11-23(15,16)2)24(3)10-8-14(25)12-18(24)21(28)22(20)29/h13-18,20-22,25,28-29H,4-12H2,1-3H3,(H,26,27)/t13-,14-,15-,16+,17+,18+,20+,21-,22-,23-,24-/m1/s1
INCHIAUX=N/A
PUBMED=N/A
SUBMITUSER=mwang87
TAGS=
LIBRARYQUALITY=3
SPECTRUMID=CCMSLIB00000426865
SCANS=1837
373.27 9.505 
391.23 11.76 
408.93 100.0 
END IONS

BEGIN IONS
PEPMASS=153.076
CHARGE=1+
MSLEVEL=2
SOURCE_INSTRUMENT=Positive-Quattro_QQQ:40eV
FILENAME=hmdb_intermediate.mgf
SEQ=*..*
IONMODE=Positive
ORGANISM=HMDB
NAME=HMDB:HMDB00568-796 D-Arabitol M+H
PI=HMDB
DATACOLLECTOR=HMDB
SMILES=OCC(O)C(O)C(O)CO
INCHI=InChI=1S/C5H12O5/c6-1-3(8)5(10)4(9)2-7/h3-10H,1-2H2
INCHIAUX=N/A
PUBMED=N/A
SUBMITUSER=mwang87
TAGS=
LIBRARYQUALITY=3
SPECTRUMID=CCMSLIB00000426866
SCANS=1838
61.0 100.0 
69.0 76.631 
75.0 33.178 
89.0 22.92 
END IONS

BEGIN IONS
PEPMASS=124.04
CHARGE=1+
MSLEVEL=2
SOURCE_INSTRUMENT=Positive-Quattro_QQQ:25eV
FILENAME=hmdb_intermediate.mgf
SEQ=*..*
IONMODE=Positive
ORGANISM=HMDB
NAME=HMDB:HMDB02243-2044 Picolinic acid M+H
PI=HMDB
DATACOLLECTOR=HMDB
SMILES=OC(=O)C1=CC=CC=N1
INCHI=InChI=1S/C6H5NO2/c8-6(9)5-3-1-2-4-7-5/h1-4H,(H,8,9)
INCHIAUX=N/A
PUBMED=N/A
SUBMITUSER=mwang87
TAGS=
LIBRARYQUALITY=3
SPECTRUMID=CCMSLIB00000426867
SCANS=1839
77.945 100.0 
END IONS

BEGIN IONS
PEPMASS=118.05
CHARGE=1+
MSLEVEL=2
SOURCE_INSTRUMENT=Positive-Quattro_QQQ:10eV
FILENAME=hmdb_intermediate.mgf
SEQ=*..*
IONMODE=Positive
ORGANISM=HMDB
NAME=HMDB:HMDB00532-752 Acetylglycine M+H
PI=HMDB
DATACOLLECTOR=HMDB
SMILES=CC(=O)NCC(O)=O
INCHI=InChI=1S/C4H7NO3/c1-3(6)5-2-4(7)8/h2H2,1H3,(H,5,6)(H,7,8)
INCHIAUX=N/A
PUBMED=N/A
SUBMITUSER=mwang87
TAGS=
LIBRARYQUALITY=3
SPECTRUMID=CCMSLIB00000426868
SCANS=1840
43.291 9.314 
48.28 3.015 
72.116 4.608 
76.074 100.0 
117.939 8.431 
END IONS

BEGIN IONS
PEPMASS=167.071
CHARGE=1+
MSLEVEL=2
SOURCE_INSTRUMENT=Positive-Quattro_QQQ:10eV
FILENAME=hmdb_intermediate.mgf
SEQ=*..*
IONMODE=Positive
ORGANISM=HMDB
NAME=HMDB:HMDB00779-1107 Phenyllactic acid M+H
PI=HMDB
DATACOLLECTOR=HMDB
SMILES=OC(CC1=CC=CC=C1)C(O)=O
INCHI=InChI=1S/C9H10O3/c10-8(9(11)12)6-7-4-2-1-3-5-7/h1-5,8,10H,6H2,(H,11,12)
INCHIAUX=N/A
PUBMED=N/A
SUBMITUSER=mwang87
TAGS=
LIBRARYQUALITY=3
SPECTRUMID=CCMSLIB00000426869
SCANS=1841
58.323 23.933 
71.947 45.321 
84.058 100.0 
85.319 19.154 
103.359 39.569 
108.153 16.643 
121.778 17.048 
126.698 51.478 
138.683 13.806 
152.183 16.561 
167.576 25.716 
END IONS

BEGIN IONS
PEPMASS=115.003
CHARGE=1+
MSLEVEL=2
SOURCE_INSTRUMENT=Negative-Quattro_QQQ:10eV
FILENAME=hmdb_intermediate.mgf
SEQ=*..*
IONMODE=Negative
ORGANISM=HMDB
NAME=HMDB:HMDB00134-206 Fumaric acid M-H
PI=HMDB
DATACOLLECTOR=HMDB
SMILES=OC(=O)\C=C\C(O)=O
INCHI=InChI=1S/C4H4O4/c5-3(6)1-2-4(7)8/h1-2H,(H,5,6)(H,7,8)/b2-1+
INCHIAUX=N/A
PUBMED=N/A
SUBMITUSER=mwang87
TAGS=
LIBRARYQUALITY=3
SPECTRUMID=CCMSLIB00000426870
SCANS=1842
71.102 100.0 
114.911 17.857 
END IONS

BEGIN IONS
PEPMASS=355.358
CHARGE=1+
MSLEVEL=2
SOURCE_INSTRUMENT=Positive-Quattro_QQQ:10eV
FILENAME=hmdb_intermediate.mgf
SEQ=*..*
IONMODE=Positive
ORGANISM=HMDB
NAME=HMDB:HMDB01160-1439 Tricosanoic acid M+H
PI=HMDB
DATACOLLECTOR=HMDB
SMILES=CCCCCCCCCCCCCCCCCCCCCCC(O)=O
INCHI=InChI=1S/C23H46O2/c1-2-3-4-5-6-7-8-9-10-11-12-13-14-15-16-17-18-19-20-21-22-23(24)25/h2-22H2,1H3,(H,24,25)
INCHIAUX=N/A
PUBMED=N/A
SUBMITUSER=mwang87
TAGS=
LIBRARYQUALITY=3
SPECTRUMID=CCMSLIB00000426871
SCANS=1843
106.0 38.641 
174.0 7.339 
218.0 52.665 
270.0 19.201 
286.0 53.277 
322.0 8.124 
336.0 6.881 
354.0 100.0 
355.0 61.843 
END IONS

BEGIN IONS
PEPMASS=151.04
CHARGE=1+
MSLEVEL=2
SOURCE_INSTRUMENT=Negative-Quattro_QQQ:10eV
FILENAME=hmdb_intermediate.mgf
SEQ=*..*
IONMODE=Negative
ORGANISM=HMDB
NAME=HMDB:HMDB00020-33 p-Hydroxyphenylacetic acid M-H
PI=HMDB
DATACOLLECTOR=HMDB
SMILES=OC(=O)CC1=CC=C(O)C=C1
INCHI=InChI=1S/C8H8O3/c9-7-3-1-6(2-4-7)5-8(10)11/h1-4,9H,5H2,(H,10,11)
INCHIAUX=N/A
PUBMED=N/A
SUBMITUSER=mwang87
TAGS=
LIBRARYQUALITY=3
SPECTRUMID=CCMSLIB00000426872
SCANS=1844
79.408 3.276 
107.292 100.0 
151.209 50.0 
END IONS

BEGIN IONS
PEPMASS=184.097
CHARGE=1+
MSLEVEL=2
SOURCE_INSTRUMENT=Positive-Quattro_QQQ:10eV
FILENAME=hmdb_intermediate.mgf
SEQ=*..*
IONMODE=Positive
ORGANISM=HMDB
NAME=HMDB:HMDB00068-108 Epinephrine M+H
PI=HMDB
DATACOLLECTOR=HMDB
SMILES=CNC[C@H](O)C1=CC=C(O)C(O)=C1
INCHI=InChI=1S/C9H13NO3/c1-10-5-9(13)6-2-3-7(11)8(12)4-6/h2-4,9-13H,5H2,1H3/t9-/m0/s1
INCHIAUX=N/A
PUBMED=N/A
SUBMITUSER=mwang87
TAGS=
LIBRARYQUALITY=3
SPECTRUMID=CCMSLIB00000426873
SCANS=1845
57.288 1.446 
107.018 2.23 
134.951 3.529 
147.982 1.489 
165.948 100.0 
183.946 10.098 
END IONS

BEGIN IONS
PEPMASS=72.0449
CHARGE=1+
MSLEVEL=2
SOURCE_INSTRUMENT=Positive-Quattro_QQQ:40eV
FILENAME=hmdb_intermediate.mgf
SEQ=*..*
IONMODE=Positive
ORGANISM=HMDB
NAME=HMDB:HMDB04296-2381 Acrylamide M+H
PI=HMDB
DATACOLLECTOR=HMDB
SMILES=NC(=O)C=C
INCHI=InChI=1S/C3H5NO/c1-2-3(4)5/h2H,1H2,(H2,4,5)
INCHIAUX=N/A
PUBMED=N/A
SUBMITUSER=mwang87
TAGS=
LIBRARYQUALITY=3
SPECTRUMID=CCMSLIB00000426874
SCANS=1846
44.15 100.0 
54.1 55.019 
55.31 63.31 
71.93 95.134 
END IONS

BEGIN IONS
PEPMASS=141.066
CHARGE=1+
MSLEVEL=2
SOURCE_INSTRUMENT=Positive-Quattro_QQQ:25eV
FILENAME=hmdb_intermediate.mgf
SEQ=*..*
IONMODE=Positive
ORGANISM=HMDB
NAME=HMDB:HMDB02820-2141 Methylimidazoleacetic acid M+H
PI=HMDB
DATACOLLECTOR=HMDB
SMILES=CN1C=NC(CC(O)=O)=C1
INCHI=InChI=1S/C6H8N2O2/c1-8-3-5(7-4-8)2-6(9)10/h3-4H,2H2,1H3,(H,9,10)
INCHIAUX=N/A
PUBMED=N/A
SUBMITUSER=mwang87
TAGS=
LIBRARYQUALITY=3
SPECTRUMID=CCMSLIB00000426875
SCANS=1847
42.0 9.542 
54.0 8.948 
68.0 25.0 
95.0 100.0 
END IONS

BEGIN IONS
PEPMASS=287.237
CHARGE=1+
MSLEVEL=2
SOURCE_INSTRUMENT=Positive-Quattro_QQQ:10eV
FILENAME=hmdb_intermediate.mgf
SEQ=*..*
IONMODE=Positive
ORGANISM=HMDB
NAME=HMDB:HMDB00305-519 Vitamin A M+H
PI=HMDB
DATACOLLECTOR=HMDB
SMILES=C\C(=C/CO)\C=C\C=C(/C)\C=C\C1=C(C)CCCC1(C)C
INCHI=InChI=1S/C20H30O/c1-16(8-6-9-17(2)13-15-21)11-12-19-18(3)10-7-14-20(19,4)5/h6,8-9,11-13,21H,7,10,14-15H2,1-5H3/b9-6+,12-11+,16-8+,17-13+
INCHIAUX=N/A
PUBMED=N/A
SUBMITUSER=mwang87
TAGS=
LIBRARYQUALITY=3
SPECTRUMID=CCMSLIB00000426876
SCANS=1848
95.146 4.25 
113.032 3.05 
121.066 4.25 
133.042 3.037 
135.08 2.65 
148.978 1.962 
163.157 1.987 
167.061 1.987 
191.041 2.05 
203.004 8.8 
212.843 1.962 
226.939 2.063 
245.025 7.1 
269.048 5.55 
287.184 100.0 
END IONS

BEGIN IONS
PEPMASS=623.577
CHARGE=1+
MSLEVEL=2
SOURCE_INSTRUMENT=Positive-Quattro_QQQ:10eV
FILENAME=hmdb_intermediate.mgf
SEQ=*..*
IONMODE=Positive
ORGANISM=HMDB
NAME=HMDB:HMDB00658-897 CE(16:1(9Z)) M+H
PI=HMDB
DATACOLLECTOR=HMDB
SMILES=CCCCCC\C=C/CCCCCCCC(=O)OC1CC[C@@]2(C)C(=CCC3C4CC[C@H]([C@H](C)CCCC(C)C)[C@@]4(C)CCC23)C1
INCHI=InChI=1S/C43H74O2/c1-7-8-9-10-11-12-13-14-15-16-17-18-19-23-41(44)45-36-28-30-42(5)35(32-36)24-25-37-39-27-26-38(34(4)22-20-21-33(2)3)43(39,6)31-29-40(37)42/h12-13,24,33-34,36-40H,7-11,14-23,25-32H2,1-6H3/b13-12-/t34-,36?,37?,38-,39?,40?,42+,43-/m1/s1
INCHIAUX=N/A
PUBMED=N/A
SUBMITUSER=mwang87
TAGS=
LIBRARYQUALITY=3
SPECTRUMID=CCMSLIB00000426877
SCANS=1849
591.0 19.395 
623.0 100.0 
END IONS

BEGIN IONS
PEPMASS=104.071
CHARGE=1+
MSLEVEL=2
SOURCE_INSTRUMENT=Positive-Quattro_QQQ:40eV
FILENAME=hmdb_intermediate.mgf
SEQ=*..*
IONMODE=Positive
ORGANISM=HMDB
NAME=HMDB:HMDB01906-1827 2-Aminoisobutyric acid M+H
PI=HMDB
DATACOLLECTOR=HMDB
SMILES=CC(C)(N)C(O)=O
INCHI=InChI=1S/C4H9NO2/c1-4(2,5)3(6)7/h5H2,1-2H3,(H,6,7)
INCHIAUX=N/A
PUBMED=N/A
SUBMITUSER=mwang87
TAGS=
LIBRARYQUALITY=3
SPECTRUMID=CCMSLIB00000426878
SCANS=1850
73.0 45.265 
86.0 37.881 
104.0 100.0 
105.0 18.688 
END IONS

BEGIN IONS
PEPMASS=291.087
CHARGE=1+
MSLEVEL=2
SOURCE_INSTRUMENT=Positive-Quattro_QQQ:40eV
FILENAME=hmdb_intermediate.mgf
SEQ=*..*
IONMODE=Positive
ORGANISM=HMDB
NAME=HMDB:HMDB01871-1761 Epicatechin M+H
PI=HMDB
DATACOLLECTOR=HMDB
SMILES=O[C@@H]1CC2=C(O)C=C(O)C=C2O[C@@H]1C1=CC(O)=C(O)C=C1
INCHI=InChI=1S/C15H14O6/c16-8-4-11(18)9-6-13(20)15(21-14(9)5-8)7-1-2-10(17)12(19)3-7/h1-5,13,15-20H,6H2/t13-,15-/m1/s1
INCHIAUX=N/A
PUBMED=N/A
SUBMITUSER=mwang87
TAGS=
LIBRARYQUALITY=3
SPECTRUMID=CCMSLIB00000426879
SCANS=1851
55.436 62.791 
66.682 42.059 
82.872 36.742 
94.242 40.466 
104.871 36.742 
115.623 82.808 
138.859 100.0 
160.737 42.591 
265.938 22.215 
290.048 23.454 
END IONS

BEGIN IONS
PEPMASS=345.14
CHARGE=1+
MSLEVEL=2
SOURCE_INSTRUMENT=Positive-Quattro_QQQ:25eV
FILENAME=hmdb_intermediate.mgf
SEQ=*..*
IONMODE=Positive
ORGANISM=HMDB
NAME=HMDB:HMDB02928-2171 Maltitol M+H
PI=HMDB
DATACOLLECTOR=HMDB
SMILES=[H][C@@](O[C@H]1O[C@H](CO)[C@@H](O)[C@H](O)[C@H]1O)([C@H](O)CO)[C@H](O)[C@@H](O)CO
INCHI=InChI=1S/C12H24O11/c13-1-4(16)7(18)11(5(17)2-14)23-12-10(21)9(20)8(19)6(3-15)22-12/h4-21H,1-3H2/t4-,5+,6+,7+,8+,9-,10+,11+,12+/m0/s1
INCHIAUX=N/A
PUBMED=N/A
SUBMITUSER=mwang87
TAGS=
LIBRARYQUALITY=3
SPECTRUMID=CCMSLIB00000426880
SCANS=1852
43.0 5.414 
61.0 10.506 
69.0 100.0 
83.0 32.942 
85.0 29.555 
99.0 13.231 
111.0 27.659 
129.0 40.514 
147.0 33.773 
165.0 13.842 
183.0 15.462 
END IONS

BEGIN IONS
PEPMASS=152.057
CHARGE=1+
MSLEVEL=2
SOURCE_INSTRUMENT=Positive-Quattro_QQQ:40eV
FILENAME=hmdb_intermediate.mgf
SEQ=*..*
IONMODE=Positive
ORGANISM=HMDB
NAME=HMDB:HMDB00403-614 2-Hydroxyadenine M+H
PI=HMDB
DATACOLLECTOR=HMDB
SMILES=NC1=NC(O)=NC2=C1NC=N2
INCHI=InChI=1S/C5H5N5O/c6-3-2-4(8-1-7-2)10-5(11)9-3/h1H,(H4,6,7,8,9,10,11)
INCHIAUX=N/A
PUBMED=N/A
SUBMITUSER=mwang87
TAGS=
LIBRARYQUALITY=3
SPECTRUMID=CCMSLIB00000426881
SCANS=1853
43.0 16.517 
54.0 41.466 
55.0 38.711 
66.0 17.14 
80.0 100.0 
91.0 20.409 
106.0 40.216 
134.0 32.669 
135.0 14.232 
151.0 15.884 
END IONS

BEGIN IONS
PEPMASS=117.055
CHARGE=1+
MSLEVEL=2
SOURCE_INSTRUMENT=Positive-Quattro_QQQ:40eV
FILENAME=hmdb_intermediate.mgf
SEQ=*..*
IONMODE=Positive
ORGANISM=HMDB
NAME=HMDB:HMDB00720-1013 Levulinic acid M+H
PI=HMDB
DATACOLLECTOR=HMDB
SMILES=CC(=O)CCC(O)=O
INCHI=InChI=1S/C5H8O3/c1-4(6)2-3-5(7)8/h2-3H2,1H3,(H,7,8)
INCHIAUX=N/A
PUBMED=N/A
SUBMITUSER=mwang87
TAGS=
LIBRARYQUALITY=3
SPECTRUMID=CCMSLIB00000426882
SCANS=1854
41.235 60.55 
55.195 8.142 
71.186 41.514 
113.873 40.826 
115.005 100.0 
END IONS

BEGIN IONS
PEPMASS=245.077
CHARGE=1+
MSLEVEL=2
SOURCE_INSTRUMENT=Positive-Quattro_QQQ:10eV
FILENAME=hmdb_intermediate.mgf
SEQ=*..*
IONMODE=Positive
ORGANISM=HMDB
NAME=HMDB:HMDB00296-504 Uridine M+H
PI=HMDB
DATACOLLECTOR=HMDB
SMILES=OC[C@H]1O[C@H]([C@H](O)[C@@H]1O)N1C=CC(=O)NC1=O
INCHI=InChI=1S/C9H12N2O6/c12-3-4-6(14)7(15)8(17-4)11-2-1-5(13)10-9(11)16/h1-2,4,6-8,12,14-15H,3H2,(H,10,13,16)/t4-,6-,7-,8-/m1/s1
INCHIAUX=N/A
PUBMED=N/A
SUBMITUSER=mwang87
TAGS=
LIBRARYQUALITY=3
SPECTRUMID=CCMSLIB00000426883
SCANS=1855
113.015 100.0 
114.998 1.365 
133.002 6.5 
208.93 2.281 
244.955 4.167 
END IONS

BEGIN IONS
PEPMASS=167.071
CHARGE=1+
MSLEVEL=2
SOURCE_INSTRUMENT=Positive-Quattro_QQQ:25eV
FILENAME=hmdb_intermediate.mgf
SEQ=*..*
IONMODE=Positive
ORGANISM=HMDB
NAME=HMDB:HMDB02199-2026 Desaminotyrosine M+H
PI=HMDB
DATACOLLECTOR=HMDB
SMILES=OC(=O)CCC1=CC=C(O)C=C1
INCHI=InChI=1S/C9H10O3/c10-8-4-1-7(2-5-8)3-6-9(11)12/h1-2,4-5,10H,3,6H2,(H,11,12)
INCHIAUX=N/A
PUBMED=N/A
SUBMITUSER=mwang87
TAGS=
LIBRARYQUALITY=3
SPECTRUMID=CCMSLIB00000426884
SCANS=1856
73.0 50.78 
77.0 51.668 
89.0 100.0 
103.0 49.206 
107.0 40.827 
117.0 21.989 
134.0 14.485 
135.0 15.432 
END IONS

BEGIN IONS
PEPMASS=151.076
CHARGE=1+
MSLEVEL=2
SOURCE_INSTRUMENT=Positive-Quattro_QQQ:25eV
FILENAME=hmdb_intermediate.mgf
SEQ=*..*
IONMODE=Positive
ORGANISM=HMDB
NAME=HMDB:HMDB00764-1099 Hydrocinnamic acid M+H
PI=HMDB
DATACOLLECTOR=HMDB
SMILES=OC(=O)CCC1=CC=CC=C1
INCHI=InChI=1S/C9H10O2/c10-9(11)7-6-8-4-2-1-3-5-8/h1-5H,6-7H2,(H,10,11)
INCHIAUX=N/A
PUBMED=N/A
SUBMITUSER=mwang87
TAGS=
LIBRARYQUALITY=3
SPECTRUMID=CCMSLIB00000426885
SCANS=1857
64.0 32.584 
65.0 19.723 
78.0 22.599 
90.0 100.0 
105.0 16.163 
118.0 18.89 
END IONS

BEGIN IONS
PEPMASS=334.905
CHARGE=1+
MSLEVEL=2
SOURCE_INSTRUMENT=Negative-Quattro_QQQ:40eV
FILENAME=hmdb_intermediate.mgf
SEQ=*..*
IONMODE=Negative
ORGANISM=HMDB
NAME=HMDB:HMDB04122-2369 Selenocystine M-H
PI=HMDB
DATACOLLECTOR=HMDB
SMILES=NC(C[Se][Se]CC(N)C(O)=O)C(O)=O
INCHI=InChI=1S/C6H12N2O4Se2/c7-3(5(9)10)1-13-14-2-4(8)6(11)12/h3-4H,1-2,7-8H2,(H,9,10)(H,11,12)
INCHIAUX=N/A
PUBMED=N/A
SUBMITUSER=mwang87
TAGS=
LIBRARYQUALITY=3
SPECTRUMID=CCMSLIB00000426886
SCANS=1858
80.0 13.095 
160.0 100.0 
END IONS

BEGIN IONS
PEPMASS=134.061
CHARGE=1+
MSLEVEL=2
SOURCE_INSTRUMENT=Positive-Quattro_QQQ:40eV
FILENAME=hmdb_intermediate.mgf
SEQ=*..*
IONMODE=Positive
ORGANISM=HMDB
NAME=HMDB:HMDB04094-2360 Indoxyl M+H
PI=HMDB
DATACOLLECTOR=HMDB
SMILES=OC1=CNC2=CC=CC=C12
INCHI=InChI=1S/C8H7NO/c10-8-5-9-7-4-2-1-3-6(7)8/h1-5,9-10H
INCHIAUX=N/A
PUBMED=N/A
SUBMITUSER=mwang87
TAGS=
LIBRARYQUALITY=3
SPECTRUMID=CCMSLIB00000426887
SCANS=1859
51.0 26.765 
63.0 5.417 
77.0 100.0 
89.0 15.748 
104.0 6.804 
105.0 5.615 
END IONS

BEGIN IONS
PEPMASS=133.05
CHARGE=1+
MSLEVEL=2
SOURCE_INSTRUMENT=Positive-Quattro_QQQ:40eV
FILENAME=hmdb_intermediate.mgf
SEQ=*..*
IONMODE=Positive
ORGANISM=HMDB
NAME=HMDB:HMDB02001-1937 Dimethylmalonic acid M+H
PI=HMDB
DATACOLLECTOR=HMDB
SMILES=CC(C)(C(O)=O)C(O)=O
INCHI=InChI=1S/C5H8O4/c1-5(2,3(6)7)4(8)9/h1-2H3,(H,6,7)(H,8,9)
INCHIAUX=N/A
PUBMED=N/A
SUBMITUSER=mwang87
TAGS=
LIBRARYQUALITY=3
SPECTRUMID=CCMSLIB00000426888
SCANS=1860
63.0 35.944 
72.0 100.0 
87.0 52.054 
114.0 7.543 
115.0 10.486 
133.0 13.846 
END IONS

BEGIN IONS
PEPMASS=127.051
CHARGE=1+
MSLEVEL=2
SOURCE_INSTRUMENT=Positive-Quattro_QQQ:25eV
FILENAME=hmdb_intermediate.mgf
SEQ=*..*
IONMODE=Positive
ORGANISM=HMDB
NAME=HMDB:HMDB02024-1951 Imidazoleacetic acid M+H
PI=HMDB
DATACOLLECTOR=HMDB
SMILES=OC(=O)CC1=CN=CN1
INCHI=InChI=1S/C5H6N2O2/c8-5(9)1-4-2-6-3-7-4/h2-3H,1H2,(H,6,7)(H,8,9)
INCHIAUX=N/A
PUBMED=N/A
SUBMITUSER=mwang87
TAGS=
LIBRARYQUALITY=3
SPECTRUMID=CCMSLIB00000426889
SCANS=1861
81.0 100.0 
END IONS

BEGIN IONS
PEPMASS=130.087
CHARGE=1+
MSLEVEL=2
SOURCE_INSTRUMENT=Positive-Quattro_QQQ:10eV
FILENAME=hmdb_intermediate.mgf
SEQ=*..*
IONMODE=Positive
ORGANISM=HMDB
NAME=HMDB:HMDB00070-111 Pipecolic acid M+H
PI=HMDB
DATACOLLECTOR=HMDB
SMILES=OC(=O)C1CCCCN1
INCHI=InChI=1S/C6H11NO2/c8-6(9)5-3-1-2-4-7-5/h5,7H,1-4H2,(H,8,9)
INCHIAUX=N/A
PUBMED=N/A
SUBMITUSER=mwang87
TAGS=
LIBRARYQUALITY=3
SPECTRUMID=CCMSLIB00000426890
SCANS=1862
84.043 100.0 
129.911 100.0 
END IONS

BEGIN IONS
PEPMASS=155.144
CHARGE=1+
MSLEVEL=2
SOURCE_INSTRUMENT=Positive-Quattro_QQQ:40eV
FILENAME=hmdb_intermediate.mgf
SEQ=*..*
IONMODE=Positive
ORGANISM=HMDB
NAME=HMDB:HMDB05812-2459 Geraniol M+H
PI=HMDB
DATACOLLECTOR=HMDB
SMILES=CC(C)=CCC\C(C)=C/CO
INCHI=InChI=1S/C10H18O/c1-9(2)5-4-6-10(3)7-8-11/h5,7,11H,4,6,8H2,1-3H3/b10-7-
INCHIAUX=N/A
PUBMED=N/A
SUBMITUSER=mwang87
TAGS=
LIBRARYQUALITY=3
SPECTRUMID=CCMSLIB00000426891
SCANS=1863
67.02 12.5200797859 
81.06 100.0 
93.06 6.8789574498 
95.1 25.1157541987 
END IONS

BEGIN IONS
PEPMASS=299.123
CHARGE=1+
MSLEVEL=2
SOURCE_INSTRUMENT=Positive-Quattro_QQQ:40eV
FILENAME=hmdb_intermediate.mgf
SEQ=*..*
IONMODE=Positive
ORGANISM=HMDB
NAME=HMDB:HMDB01107-1426 7-Methylguanosine M+H
PI=HMDB
DATACOLLECTOR=HMDB
SMILES=CN1C=[N+]([C@@H]2O[C@H](CO)[C@@H](O)[C@H]2O)C2=C1C(=O)N=C(N)N2
INCHI=InChI=1S/C11H15N5O5/c1-15-3-16(8-5(15)9(20)14-11(12)13-8)10-7(19)6(18)4(2-17)21-10/h3-4,6-7,10,17-19H,2H2,1H3,(H2-,12,13,14,20)/p+1/t4-,6-,7-,10-/m1/s1
INCHIAUX=N/A
PUBMED=N/A
SUBMITUSER=mwang87
TAGS=
LIBRARYQUALITY=3
SPECTRUMID=CCMSLIB00000426892
SCANS=1864
96.135 4.0 
106.971 5.071 
123.944 41.143 
148.928 100.0 
165.942 98.286 
END IONS

BEGIN IONS
PEPMASS=147.045
CHARGE=1+
MSLEVEL=2
SOURCE_INSTRUMENT=Positive-Quattro_QQQ:10eV
FILENAME=hmdb_intermediate.mgf
SEQ=*..*
IONMODE=Positive
ORGANISM=HMDB
NAME=HMDB:HMDB01218-1469 Coumarin M+H
PI=HMDB
DATACOLLECTOR=HMDB
SMILES=O=C1OC2=CC=CC=C2C=C1
INCHI=InChI=1S/C9H6O2/c10-9-6-5-7-3-1-2-4-8(7)11-9/h1-6H
INCHIAUX=N/A
PUBMED=N/A
SUBMITUSER=mwang87
TAGS=
LIBRARYQUALITY=3
SPECTRUMID=CCMSLIB00000426893
SCANS=1865
91.0 3.822 
103.0 13.401 
147.0 100.0 
END IONS

BEGIN IONS
PEPMASS=137.046
CHARGE=1+
MSLEVEL=2
SOURCE_INSTRUMENT=Positive-Quattro_QQQ:10eV
FILENAME=hmdb_intermediate.mgf
SEQ=*..*
IONMODE=Positive
ORGANISM=HMDB
NAME=HMDB:HMDB00157-242 Hypoxanthine M+H
PI=HMDB
DATACOLLECTOR=HMDB
SMILES=OC1=NC=NC2=C1NC=N2
INCHI=InChI=1S/C5H4N4O/c10-5-3-4(7-1-6-3)8-2-9-5/h1-2H,(H2,6,7,8,9,10)
INCHIAUX=N/A
PUBMED=N/A
SUBMITUSER=mwang87
TAGS=
LIBRARYQUALITY=3
SPECTRUMID=CCMSLIB00000426894
SCANS=1866
94.04 1.863 
109.972 2.647 
118.981 2.917 
136.92 100.0 
END IONS

BEGIN IONS
PEPMASS=397.405
CHARGE=1+
MSLEVEL=2
SOURCE_INSTRUMENT=Positive-Quattro_QQQ:10eV
FILENAME=hmdb_intermediate.mgf
SEQ=*..*
IONMODE=Positive
ORGANISM=HMDB
NAME=HMDB:HMDB02356-2076 Hexacosanoic acid M+H
PI=HMDB
DATACOLLECTOR=HMDB
SMILES=CCCCCCCCCCCCCCCCCCCCCCCCCC(O)=O
INCHI=InChI=1S/C26H52O2/c1-2-3-4-5-6-7-8-9-10-11-12-13-14-15-16-17-18-19-20-21-22-23-24-25-26(27)28/h2-25H2,1H3,(H,27,28)
INCHIAUX=N/A
PUBMED=N/A
SUBMITUSER=mwang87
TAGS=
LIBRARYQUALITY=3
SPECTRUMID=CCMSLIB00000426895
SCANS=1867
105.71 45.41 
158.7 56.201 
226.28 34.766 
270.2 31.512 
310.46 52.79 
338.85 40.967 
347.05 42.969 
356.45 100.0 
380.19 36.72 
388.7 50.367 
396.99 82.061 
END IONS

BEGIN IONS
PEPMASS=118.98
CHARGE=1+
MSLEVEL=2
SOURCE_INSTRUMENT=Negative-Quattro_QQQ:10eV
FILENAME=hmdb_intermediate.mgf
SEQ=*..*
IONMODE=Negative
ORGANISM=HMDB
NAME=HMDB:HMDB01368-1534 3-Mercaptopyruvic acid M-H
PI=HMDB
DATACOLLECTOR=HMDB
SMILES=OC(=O)C(=O)CS
INCHI=InChI=1S/C3H4O3S/c4-2(1-7)3(5)6/h7H,1H2,(H,5,6)
INCHIAUX=N/A
PUBMED=N/A
SUBMITUSER=mwang87
TAGS=
LIBRARYQUALITY=3
SPECTRUMID=CCMSLIB00000426896
SCANS=1868
33.0 100.0 
47.0 26.042 
75.0 72.504 
119.0 45.555 
END IONS

BEGIN IONS
PEPMASS=151.04
CHARGE=1+
MSLEVEL=2
SOURCE_INSTRUMENT=Negative-Quattro_QQQ:10eV
FILENAME=hmdb_intermediate.mgf
SEQ=*..*
IONMODE=Negative
ORGANISM=HMDB
NAME=HMDB:HMDB00669-918 Ortho-Hydroxyphenylacetic acid M-H
PI=HMDB
DATACOLLECTOR=HMDB
SMILES=OC(=O)CC1=CC=CC=C1O
INCHI=InChI=1S/C8H8O3/c9-7-4-2-1-3-6(7)5-8(10)11/h1-4,9H,5H2,(H,10,11)
INCHIAUX=N/A
PUBMED=N/A
SUBMITUSER=mwang87
TAGS=
LIBRARYQUALITY=3
SPECTRUMID=CCMSLIB00000426897
SCANS=1869
92.285 4.167 
107.261 6.924 
121.203 13.725 
136.193 100.0 
151.17 48.529 
END IONS

BEGIN IONS
PEPMASS=131.071
CHARGE=1+
MSLEVEL=2
SOURCE_INSTRUMENT=Positive-Quattro_QQQ:10eV
FILENAME=hmdb_intermediate.mgf
SEQ=*..*
IONMODE=Positive
ORGANISM=HMDB
NAME=HMDB:HMDB00491-710 3-Methyl-2-oxovaleric acid M+H
PI=HMDB
DATACOLLECTOR=HMDB
SMILES=CCC(C)C(=O)C(O)=O
INCHI=InChI=1S/C6H10O3/c1-3-4(2)5(7)6(8)9/h4H,3H2,1-2H3,(H,8,9)
INCHIAUX=N/A
PUBMED=N/A
SUBMITUSER=mwang87
TAGS=
LIBRARYQUALITY=3
SPECTRUMID=CCMSLIB00000426898
SCANS=1870
90.0 41.72 
99.0 100.0 
131.0 89.683 
END IONS

BEGIN IONS
PEPMASS=177.051
CHARGE=1+
MSLEVEL=2
SOURCE_INSTRUMENT=Positive-Quattro_QQQ:40eV
FILENAME=hmdb_intermediate.mgf
SEQ=*..*
IONMODE=Positive
ORGANISM=HMDB
NAME=HMDB:HMDB00828-1180 Ureidosuccinic acid M+H
PI=HMDB
DATACOLLECTOR=HMDB
SMILES=NC(=O)N[C@@H](CC(O)=O)C(O)=O
INCHI=InChI=1S/C5H8N2O5/c6-5(12)7-2(4(10)11)1-3(8)9/h2H,1H2,(H,8,9)(H,10,11)(H3,6,7,12)/t2-/m0/s1
INCHIAUX=N/A
PUBMED=N/A
SUBMITUSER=mwang87
TAGS=
LIBRARYQUALITY=3
SPECTRUMID=CCMSLIB00000426899
SCANS=1871
43.256 63.889 
46.206 34.954 
56.156 8.391 
74.022 100.0 
87.986 28.241 
98.946 4.745 
END IONS

BEGIN IONS
PEPMASS=153.055
CHARGE=1+
MSLEVEL=2
SOURCE_INSTRUMENT=Positive-Quattro_QQQ:25eV
FILENAME=hmdb_intermediate.mgf
SEQ=*..*
IONMODE=Positive
ORGANISM=HMDB
NAME=HMDB:HMDB04815-2410 4-Hydroxy-3-methylbenzoic acid M+H
PI=HMDB
DATACOLLECTOR=HMDB
SMILES=CC1=CC(=CC=C1O)C(O)=O
INCHI=InChI=1S/C8H8O3/c1-5-4-6(8(10)11)2-3-7(5)9/h2-4,9H,1H3,(H,10,11)
INCHIAUX=N/A
PUBMED=N/A
SUBMITUSER=mwang87
TAGS=
LIBRARYQUALITY=3
SPECTRUMID=CCMSLIB00000426900
SCANS=1872
65.0 42.396 
79.0 74.884 
94.0 100.0 
107.0 51.339 
135.0 16.233 
END IONS

BEGIN IONS
PEPMASS=269.089
CHARGE=1+
MSLEVEL=2
SOURCE_INSTRUMENT=Positive-Quattro_QQQ:10eV
FILENAME=hmdb_intermediate.mgf
SEQ=*..*
IONMODE=Positive
ORGANISM=HMDB
NAME=HMDB:HMDB00195-316 Inosine M+H
PI=HMDB
DATACOLLECTOR=HMDB
SMILES=OC[C@H]1O[C@H]([C@H](O)[C@@H]1O)N1C=NC2=C1N=CNC2=O
INCHI=InChI=1S/C10H12N4O5/c15-1-4-6(16)7(17)10(19-4)14-3-13-5-8(14)11-2-12-9(5)18/h2-4,6-7,10,15-17H,1H2,(H,11,12,18)/t4-,6-,7-,10-/m1/s1
INCHIAUX=N/A
PUBMED=N/A
SUBMITUSER=mwang87
TAGS=
LIBRARYQUALITY=3
SPECTRUMID=CCMSLIB00000426901
SCANS=1873
137.003 100.0 
268.965 1.525 
END IONS

BEGIN IONS
PEPMASS=269.284
CHARGE=1+
MSLEVEL=2
SOURCE_INSTRUMENT=Negative-Quattro_QQQ:10eV
FILENAME=hmdb_intermediate.mgf
SEQ=*..*
IONMODE=Negative
ORGANISM=HMDB
NAME=HMDB:HMDB02350-2073 Octadecanol M-H
PI=HMDB
DATACOLLECTOR=HMDB
SMILES=CCCCCCCCCCCCCCCCCCO
INCHI=InChI=1S/C18H38O/c1-2-3-4-5-6-7-8-9-10-11-12-13-14-15-16-17-18-19/h19H,2-18H2,1H3
INCHIAUX=N/A
PUBMED=N/A
SUBMITUSER=mwang87
TAGS=
LIBRARYQUALITY=3
SPECTRUMID=CCMSLIB00000426902
SCANS=1874
167.0 44.491 
269.0 100.0 
END IONS

BEGIN IONS
PEPMASS=181.05
CHARGE=1+
MSLEVEL=2
SOURCE_INSTRUMENT=Negative-Quattro_QQQ:25eV
FILENAME=hmdb_intermediate.mgf
SEQ=*..*
IONMODE=Negative
ORGANISM=HMDB
NAME=HMDB:HMDB00118-169 Homovanillic acid M-H
PI=HMDB
DATACOLLECTOR=HMDB
SMILES=COC1=CC(CC(O)=O)=CC=C1O
INCHI=InChI=1S/C9H10O4/c1-13-8-4-6(5-9(11)12)2-3-7(8)10/h2-4,10H,5H2,1H3,(H,11,12)
INCHIAUX=N/A
PUBMED=N/A
SUBMITUSER=mwang87
TAGS=
LIBRARYQUALITY=3
SPECTRUMID=CCMSLIB00000426903
SCANS=1875
77.371 54.124 
94.255 26.031 
105.272 12.178 
122.045 100.0 
137.097 26.546 
END IONS

BEGIN IONS
PEPMASS=166.073
CHARGE=1+
MSLEVEL=2
SOURCE_INSTRUMENT=Positive-Quattro_QQQ:40eV
FILENAME=hmdb_intermediate.mgf
SEQ=*..*
IONMODE=Positive
ORGANISM=HMDB
NAME=HMDB:HMDB00897-1270 7-Methylguanine M+H
PI=HMDB
DATACOLLECTOR=HMDB
SMILES=CN1C=NC2=C1C(=O)N=C(N)N2
INCHI=InChI=1S/C6H7N5O/c1-11-2-8-4-3(11)5(12)10-6(7)9-4/h2H,1H3,(H3,7,9,10,12)
INCHIAUX=N/A
PUBMED=N/A
SUBMITUSER=mwang87
TAGS=
LIBRARYQUALITY=3
SPECTRUMID=CCMSLIB00000426904
SCANS=1876
68.96 100.0 
79.01 29.621 
94.21 10.832 
END IONS

BEGIN IONS
PEPMASS=219.123
CHARGE=1+
MSLEVEL=2
SOURCE_INSTRUMENT=Positive-Quattro_QQQ:25eV
FILENAME=hmdb_intermediate.mgf
SEQ=*..*
IONMODE=Positive
ORGANISM=HMDB
NAME=HMDB:HMDB00350-562 3-Hydroxysebacic acid M+H
PI=HMDB
DATACOLLECTOR=HMDB
SMILES=OC(CCCCCCC(O)=O)CC(O)=O
INCHI=InChI=1S/C10H18O5/c11-8(7-10(14)15)5-3-1-2-4-6-9(12)13/h8,11H,1-7H2,(H,12,13)(H,14,15)
INCHIAUX=N/A
PUBMED=N/A
SUBMITUSER=mwang87
TAGS=
LIBRARYQUALITY=3
SPECTRUMID=CCMSLIB00000426905
SCANS=1877
67.0 53.975 
81.0 21.174 
91.0 100.0 
95.0 90.011 
109.0 31.916 
119.0 83.787 
137.0 34.606 
147.0 19.098 
203.0 16.459 
END IONS

BEGIN IONS
PEPMASS=136.062
CHARGE=1+
MSLEVEL=2
SOURCE_INSTRUMENT=Positive-Quattro_QQQ:40eV
FILENAME=hmdb_intermediate.mgf
SEQ=*..*
IONMODE=Positive
ORGANISM=HMDB
NAME=HMDB:HMDB00034-59 Adenine M+H
PI=HMDB
DATACOLLECTOR=HMDB
SMILES=NC1=NC=NC2=C1NC=N2
INCHI=InChI=1S/C5H5N5/c6-4-3-5(9-1-7-3)10-2-8-4/h1-2H,(H3,6,7,8,9,10)
INCHIAUX=N/A
PUBMED=N/A
SUBMITUSER=mwang87
TAGS=
LIBRARYQUALITY=3
SPECTRUMID=CCMSLIB00000426906
SCANS=1878
40.341 18.148 
55.2 28.704 
65.127 100.0 
77.061 8.241 
92.008 71.111 
118.861 40.37 
135.802 26.111 
END IONS

BEGIN IONS
PEPMASS=153.019
CHARGE=1+
MSLEVEL=2
SOURCE_INSTRUMENT=Negative-Quattro_QQQ:40eV
FILENAME=hmdb_intermediate.mgf
SEQ=*..*
IONMODE=Negative
ORGANISM=HMDB
NAME=HMDB:HMDB00397-605 2-Pyrocatechuic acid M-H
PI=HMDB
DATACOLLECTOR=HMDB
SMILES=OC(=O)C1=CC=CC(O)=C1O
INCHI=InChI=1S/C7H6O4/c8-5-3-1-2-4(6(5)9)7(10)11/h1-3,8-9H,(H,10,11)
INCHIAUX=N/A
PUBMED=N/A
SUBMITUSER=mwang87
TAGS=
LIBRARYQUALITY=3
SPECTRUMID=CCMSLIB00000426907
SCANS=1879
41.629 12.5 
53.486 31.971 
63.389 4.387 
65.353 25.481 
80.448 7.933 
91.205 24.519 
108.192 100.0 
152.873 12.019 
END IONS

BEGIN IONS
PEPMASS=155.034
CHARGE=1+
MSLEVEL=2
SOURCE_INSTRUMENT=Positive-Quattro_QQQ:10eV
FILENAME=hmdb_intermediate.mgf
SEQ=*..*
IONMODE=Positive
ORGANISM=HMDB
NAME=HMDB:HMDB01856-1723 Protocatechuic acid M+H
PI=HMDB
DATACOLLECTOR=HMDB
SMILES=OC(=O)C1=CC(O)=C(O)C=C1
INCHI=InChI=1S/C7H6O4/c8-5-2-1-4(7(10)11)3-6(5)9/h1-3,8-9H,(H,10,11)
INCHIAUX=N/A
PUBMED=N/A
SUBMITUSER=mwang87
TAGS=
LIBRARYQUALITY=3
SPECTRUMID=CCMSLIB00000426908
SCANS=1880
114.285 100.0 
114.536 47.916 
136.499 22.35 
154.447 11.029 
155.451 32.825 
END IONS

BEGIN IONS
PEPMASS=258.109
CHARGE=1+
MSLEVEL=2
SOURCE_INSTRUMENT=Positive-Quattro_QQQ:10eV
FILENAME=hmdb_intermediate.mgf
SEQ=*..*
IONMODE=Positive
ORGANISM=HMDB
NAME=HMDB:HMDB00982-1375 5-Methylcytidine M+H
PI=HMDB
DATACOLLECTOR=HMDB
SMILES=CC1=CN([C@@H]2O[C@H](CO)[C@@H](O)[C@H]2O)C(=O)N=C1N
INCHI=InChI=1S/C10H15N3O5/c1-4-2-13(10(17)12-8(4)11)9-7(16)6(15)5(3-14)18-9/h2,5-7,9,14-16H,3H2,1H3,(H2,11,12,17)/t5-,6-,7-,9-/m1/s1
INCHIAUX=N/A
PUBMED=N/A
SUBMITUSER=mwang87
TAGS=
LIBRARYQUALITY=3
SPECTRUMID=CCMSLIB00000426909
SCANS=1881
125.92 100.0 
END IONS

BEGIN IONS
PEPMASS=170.045
CHARGE=1+
MSLEVEL=2
SOURCE_INSTRUMENT=Positive-Quattro_QQQ:10eV
FILENAME=hmdb_intermediate.mgf
SEQ=*..*
IONMODE=Positive
ORGANISM=HMDB
NAME=HMDB:HMDB00439-638 2-Furoylglycine M+H
PI=HMDB
DATACOLLECTOR=HMDB
SMILES=OC(=O)CNC(=O)C1=CC=CO1
INCHI=InChI=1S/C7H7NO4/c9-6(10)4-8-7(11)5-2-1-3-12-5/h1-3H,4H2,(H,8,11)(H,9,10)
INCHIAUX=N/A
PUBMED=N/A
SUBMITUSER=mwang87
TAGS=
LIBRARYQUALITY=3
SPECTRUMID=CCMSLIB00000426910
SCANS=1882
95.062 91.045 
124.021 100.0 
151.982 26.306 
169.972 22.575 
END IONS

BEGIN IONS
PEPMASS=118.062
CHARGE=1+
MSLEVEL=2
SOURCE_INSTRUMENT=Positive-Quattro_QQQ:40eV
FILENAME=hmdb_intermediate.mgf
SEQ=*..*
IONMODE=Positive
ORGANISM=HMDB
NAME=HMDB:HMDB00128-196 Guanidoacetic acid M+H
PI=HMDB
DATACOLLECTOR=HMDB
SMILES=NC(=N)NCC(O)=O
INCHI=InChI=1S/C3H7N3O2/c4-3(5)6-1-2(7)8/h1H2,(H,7,8)(H4,4,5,6)
INCHIAUX=N/A
PUBMED=N/A
SUBMITUSER=mwang87
TAGS=
LIBRARYQUALITY=3
SPECTRUMID=CCMSLIB00000426911
SCANS=1883
43.283 100.0 
55.213 21.285 
72.053 20.482 
117.963 20.482 
END IONS

BEGIN IONS
PEPMASS=44.9851
CHARGE=1+
MSLEVEL=2
SOURCE_INSTRUMENT=Negative-Quattro_QQQ:40eV
FILENAME=hmdb_intermediate.mgf
SEQ=*..*
IONMODE=Negative
ORGANISM=HMDB
NAME=HMDB:HMDB02786-2133 Nitrite M-H
PI=HMDB
DATACOLLECTOR=HMDB
SMILES=[O-]N=O
INCHI=InChI=1S/HNO2/c2-1-3/h(H,2,3)/p-1
INCHIAUX=N/A
PUBMED=N/A
SUBMITUSER=mwang87
TAGS=
LIBRARYQUALITY=3
SPECTRUMID=CCMSLIB00000426912
SCANS=1884
44.0 100.0 
45.0 87.189 
END IONS

BEGIN IONS
PEPMASS=224.092
CHARGE=1+
MSLEVEL=2
SOURCE_INSTRUMENT=Positive-Quattro_QQQ:25eV
FILENAME=hmdb_intermediate.mgf
SEQ=*..*
IONMODE=Positive
ORGANISM=HMDB
NAME=HMDB:HMDB00866-1221 N-Acetyl-L-tyrosine M+H
PI=HMDB
DATACOLLECTOR=HMDB
SMILES=CC(=O)N[C@@H](CC1=CC=C(O)C=C1)C(O)=O
INCHI=InChI=1S/C11H13NO4/c1-7(13)12-10(11(15)16)6-8-2-4-9(14)5-3-8/h2-5,10,14H,6H2,1H3,(H,12,13)(H,15,16)/t10-/m0/s1
INCHIAUX=N/A
PUBMED=N/A
SUBMITUSER=mwang87
TAGS=
LIBRARYQUALITY=3
SPECTRUMID=CCMSLIB00000426913
SCANS=1885
91.095 29.449 
95.069 4.184 
118.975 25.847 
136.004 100.0 
146.966 6.621 
164.956 8.686 
END IONS

BEGIN IONS
PEPMASS=281.202
CHARGE=1+
MSLEVEL=2
SOURCE_INSTRUMENT=Positive-Quattro_QQQ:25eV
FILENAME=hmdb_intermediate.mgf
SEQ=*..*
IONMODE=Positive
ORGANISM=HMDB
NAME=HMDB:HMDB01848-1706 Imipramine M+H
PI=HMDB
DATACOLLECTOR=HMDB
SMILES=CN(C)CCCN1C2=CC=CC=C2CCC2=CC=CC=C12
INCHI=InChI=1S/C19H24N2/c1-20(2)14-7-15-21-18-10-5-3-8-16(18)12-13-17-9-4-6-11-19(17)21/h3-6,8-11H,7,12-15H2,1-2H3
INCHIAUX=N/A
PUBMED=N/A
SUBMITUSER=mwang87
TAGS=
LIBRARYQUALITY=3
SPECTRUMID=CCMSLIB00000426914
SCANS=1886
58.332 39.464 
86.314 100.0 
208.08 15.875 
END IONS

BEGIN IONS
PEPMASS=176.104
CHARGE=1+
MSLEVEL=2
SOURCE_INSTRUMENT=Positive-Quattro_QQQ:40eV
FILENAME=hmdb_intermediate.mgf
SEQ=*..*
IONMODE=Positive
ORGANISM=HMDB
NAME=HMDB:HMDB00904-1288 Citrulline M+H
PI=HMDB
DATACOLLECTOR=HMDB
SMILES=N[C@@H](CCCNC(N)=O)C(O)=O
INCHI=InChI=1S/C6H13N3O3/c7-4(5(10)11)2-1-3-9-6(8)12/h4H,1-3,7H2,(H,10,11)(H3,8,9,12)/t4-/m0/s1
INCHIAUX=N/A
PUBMED=N/A
SUBMITUSER=mwang87
TAGS=
LIBRARYQUALITY=3
SPECTRUMID=CCMSLIB00000426915
SCANS=1887
43.295 12.891 
70.104 100.0 
END IONS

BEGIN IONS
PEPMASS=500.305
CHARGE=1+
MSLEVEL=2
SOURCE_INSTRUMENT=Positive-Quattro_QQQ:25eV
FILENAME=hmdb_intermediate.mgf
SEQ=*..*
IONMODE=Positive
ORGANISM=HMDB
NAME=HMDB:HMDB00896-1266 Taurodeoxycholic acid M+H
PI=HMDB
DATACOLLECTOR=HMDB
SMILES=[H][C@@]1(CC[C@@]2([H])[C@]3([H])CC[C@]4([H])C[C@H](O)CC[C@]4(C)[C@@]3([H])C[C@H](O)[C@]12C)[C@H](C)CCC(=O)NCCS(O)(=O)=O
INCHI=InChI=1S/C26H45NO6S/c1-16(4-9-24(30)27-12-13-34(31,32)33)20-7-8-21-19-6-5-17-14-18(28)10-11-25(17,2)22(19)15-23(29)26(20,21)3/h16-23,28-29H,4-15H2,1-3H3,(H,27,30)(H,31,32,33)/t16-,17-,18-,19+,20-,21+,22+,23+,25+,26-/m1/s1
INCHIAUX=N/A
PUBMED=N/A
SUBMITUSER=mwang87
TAGS=
LIBRARYQUALITY=3
SPECTRUMID=CCMSLIB00000426916
SCANS=1888
57.214 5.71 
104.265 20.052 
109.324 32.27 
126.274 77.95 
135.634 100.0 
161.566 41.301 
170.421 7.57 
184.21 5.975 
187.499 22.177 
201.668 5.443 
211.157 33.332 
231.146 40.239 
242.786 85.126 
268.471 25.63 
284.413 5.443 
286.565 20.584 
297.067 6.772 
316.301 27.754 
372.867 5.975 
409.822 5.178 
463.234 16.069 
464.5 97.073 
540.573 6.507 
552.219 5.975 
566.65 5.71 
END IONS

BEGIN IONS
PEPMASS=104.071
CHARGE=1+
MSLEVEL=2
SOURCE_INSTRUMENT=Positive-Quattro_QQQ:10eV
FILENAME=hmdb_intermediate.mgf
SEQ=*..*
IONMODE=Positive
ORGANISM=HMDB
NAME=HMDB:HMDB00452-659 L-Alpha-aminobutyric acid M+H
PI=HMDB
DATACOLLECTOR=HMDB
SMILES=CC[C@H](N)C(O)=O
INCHI=InChI=1S/C4H9NO2/c1-2-3(5)4(6)7/h3H,2,5H2,1H3,(H,6,7)/t3-/m0/s1
INCHIAUX=N/A
PUBMED=N/A
SUBMITUSER=mwang87
TAGS=
LIBRARYQUALITY=3
SPECTRUMID=CCMSLIB00000426917
SCANS=1889
58.188 100.0 
103.964 12.985 
END IONS

BEGIN IONS
PEPMASS=160.097
CHARGE=1+
MSLEVEL=2
SOURCE_INSTRUMENT=Positive-Quattro_QQQ:40eV
FILENAME=hmdb_intermediate.mgf
SEQ=*..*
IONMODE=Positive
ORGANISM=HMDB
NAME=HMDB:HMDB00678-941 Isovalerylglycine M+H
PI=HMDB
DATACOLLECTOR=HMDB
SMILES=CC(C)CC(=O)NCC(O)=O
INCHI=InChI=1S/C7H13NO3/c1-5(2)3-6(9)8-4-7(10)11/h5H,3-4H2,1-2H3,(H,8,9)(H,10,11)
INCHIAUX=N/A
PUBMED=N/A
SUBMITUSER=mwang87
TAGS=
LIBRARYQUALITY=3
SPECTRUMID=CCMSLIB00000426918
SCANS=1890
41.651 91.057 
57.505 100.0 
73.348 5.335 
76.309 8.638 
85.32 10.01 
END IONS

BEGIN IONS
PEPMASS=173.081
CHARGE=1+
MSLEVEL=2
SOURCE_INSTRUMENT=Negative-Quattro_QQQ:25eV
FILENAME=hmdb_intermediate.mgf
SEQ=*..*
IONMODE=Negative
ORGANISM=HMDB
NAME=HMDB:HMDB00893-1257 Suberic acid M-H
PI=HMDB
DATACOLLECTOR=HMDB
SMILES=OC(=O)CCCCCCC(O)=O
INCHI=InChI=1S/C8H14O4/c9-7(10)5-3-1-2-4-6-8(11)12/h1-6H2,(H,9,10)(H,11,12)
INCHIAUX=N/A
PUBMED=N/A
SUBMITUSER=mwang87
TAGS=
LIBRARYQUALITY=3
SPECTRUMID=CCMSLIB00000426919
SCANS=1891
54.246 4.73 
57.226 60.135 
67.178 13.345 
83.092 100.0 
111.017 50.676 
154.9 5.363 
172.838 9.628 
END IONS

BEGIN IONS
PEPMASS=119.071
CHARGE=1+
MSLEVEL=2
SOURCE_INSTRUMENT=Positive-Quattro_QQQ:25eV
FILENAME=hmdb_intermediate.mgf
SEQ=*..*
IONMODE=Positive
ORGANISM=HMDB
NAME=HMDB:HMDB00754-1081 3-Hydroxyisovaleric acid M+H
PI=HMDB
DATACOLLECTOR=HMDB
SMILES=CC(C)(O)CC(O)=O
INCHI=InChI=1S/C5H10O3/c1-5(2,8)3-4(6)7/h8H,3H2,1-2H3,(H,6,7)
INCHIAUX=N/A
PUBMED=N/A
SUBMITUSER=mwang87
TAGS=
LIBRARYQUALITY=3
SPECTRUMID=CCMSLIB00000426920
SCANS=1892
59.332 100.0 
END IONS

BEGIN IONS
PEPMASS=179.107
CHARGE=1+
MSLEVEL=2
SOURCE_INSTRUMENT=Positive-Quattro_QQQ:10eV
FILENAME=hmdb_intermediate.mgf
SEQ=*..*
IONMODE=Positive
ORGANISM=HMDB
NAME=HMDB:HMDB02043-1965 5-Phenylvaleric acid M+H
PI=HMDB
DATACOLLECTOR=HMDB
SMILES=OC(=O)CCCCC1=CC=CC=C1
INCHI=InChI=1S/C11H14O2/c12-11(13)9-5-4-8-10-6-2-1-3-7-10/h1-3,6-7H,4-5,8-9H2,(H,12,13)
INCHIAUX=N/A
PUBMED=N/A
SUBMITUSER=mwang87
TAGS=
LIBRARYQUALITY=3
SPECTRUMID=CCMSLIB00000426921
SCANS=1893
178.0 100.0 
END IONS

BEGIN IONS
PEPMASS=75.0922
CHARGE=1+
MSLEVEL=2
SOURCE_INSTRUMENT=Positive-Quattro_QQQ:40eV
FILENAME=hmdb_intermediate.mgf
SEQ=*..*
IONMODE=Positive
ORGANISM=HMDB
NAME=HMDB:HMDB00002-6 1,3-Diaminopropane M+H
PI=HMDB
DATACOLLECTOR=HMDB
SMILES=NCCCN
INCHI=InChI=1S/C3H10N2/c4-2-1-3-5/h1-5H2
INCHIAUX=N/A
PUBMED=N/A
SUBMITUSER=mwang87
TAGS=
LIBRARYQUALITY=3
SPECTRUMID=CCMSLIB00000426922
SCANS=1894
30.35 100.0 
42.358 21.176 
58.083 25.294 
73.62 9.853 
74.978 33.824 
END IONS

BEGIN IONS
PEPMASS=248.032
CHARGE=1+
MSLEVEL=2
SOURCE_INSTRUMENT=Positive-Quattro_QQQ:25eV
FILENAME=hmdb_intermediate.mgf
SEQ=*..*
IONMODE=Positive
ORGANISM=HMDB
NAME=HMDB:HMDB01491-1611 Pyridoxal 5'-phosphate M+H
PI=HMDB
DATACOLLECTOR=HMDB
SMILES=CC1=NC=C(COP(O)(O)=O)C(C=O)=C1O
INCHI=InChI=1S/C8H10NO6P/c1-5-8(11)7(3-10)6(2-9-5)4-15-16(12,13)14/h2-3,11H,4H2,1H3,(H2,12,13,14)
INCHIAUX=N/A
PUBMED=N/A
SUBMITUSER=mwang87
TAGS=
LIBRARYQUALITY=3
SPECTRUMID=CCMSLIB00000426923
SCANS=1895
67.0 53.042 
79.0 6.379 
94.0 100.0 
106.0 19.797 
122.0 58.827 
150.0 94.857 
168.0 3.805 
END IONS

BEGIN IONS
PEPMASS=147.077
CHARGE=1+
MSLEVEL=2
SOURCE_INSTRUMENT=Positive-Quattro_QQQ:10eV
FILENAME=hmdb_intermediate.mgf
SEQ=*..*
IONMODE=Positive
ORGANISM=HMDB
NAME=HMDB:HMDB00641-879 L-Glutamine M+H
PI=HMDB
DATACOLLECTOR=HMDB
SMILES=N[C@@H](CCC(N)=O)C(O)=O
INCHI=InChI=1S/C5H10N2O3/c6-3(5(9)10)1-2-4(7)8/h3H,1-2,6H2,(H2,7,8)(H,9,10)/t3-/m0/s1
INCHIAUX=N/A
PUBMED=N/A
SUBMITUSER=mwang87
TAGS=
LIBRARYQUALITY=3
SPECTRUMID=CCMSLIB00000426924
SCANS=1896
84.077 53.488 
101.117 8.285 
129.97 100.0 
146.966 29.07 
END IONS

BEGIN IONS
PEPMASS=136.043
CHARGE=1+
MSLEVEL=2
SOURCE_INSTRUMENT=Positive-Quattro_QQQ:10eV
FILENAME=hmdb_intermediate.mgf
SEQ=*..*
IONMODE=Positive
ORGANISM=HMDB
NAME=HMDB:HMDB00742-1053 Homocysteine M+H
PI=HMDB
DATACOLLECTOR=HMDB
SMILES=NC(CCS)C(O)=O
INCHI=InChI=1S/C4H9NO2S/c5-3(1-2-8)4(6)7/h3,8H,1-2,5H2,(H,6,7)
INCHIAUX=N/A
PUBMED=N/A
SUBMITUSER=mwang87
TAGS=
LIBRARYQUALITY=3
SPECTRUMID=CCMSLIB00000426925
SCANS=1897
56.241 6.149 
90.087 100.0 
118.031 11.538 
135.966 31.174 
END IONS

BEGIN IONS
PEPMASS=123.056
CHARGE=1+
MSLEVEL=2
SOURCE_INSTRUMENT=Positive-Quattro_QQQ:25eV
FILENAME=hmdb_intermediate.mgf
SEQ=*..*
IONMODE=Positive
ORGANISM=HMDB
NAME=HMDB:HMDB01406-1560 Niacinamide M+H
PI=HMDB
DATACOLLECTOR=HMDB
SMILES=NC(=O)C1=CN=CC=C1
INCHI=InChI=1S/C6H6N2O/c7-6(9)5-2-1-3-8-4-5/h1-4H,(H2,7,9)
INCHIAUX=N/A
PUBMED=N/A
SUBMITUSER=mwang87
TAGS=
LIBRARYQUALITY=3
SPECTRUMID=CCMSLIB00000426926
SCANS=1898
53.217 30.435 
80.072 100.0 
122.863 11.957 
END IONS

BEGIN IONS
PEPMASS=189.135
CHARGE=1+
MSLEVEL=2
SOURCE_INSTRUMENT=Positive-Quattro_QQQ:40eV
FILENAME=hmdb_intermediate.mgf
SEQ=*..*
IONMODE=Positive
ORGANISM=HMDB
NAME=HMDB:HMDB00670-923 Homo-L-arginine M+H
PI=HMDB
DATACOLLECTOR=HMDB
SMILES=N[C@@H](CCCCNC(N)=N)C(O)=O
INCHI=InChI=1S/C7H16N4O2/c8-5(6(12)13)3-1-2-4-11-7(9)10/h5H,1-4,8H2,(H,12,13)(H4,9,10,11)/t5-/m0/s1
INCHIAUX=N/A
PUBMED=N/A
SUBMITUSER=mwang87
TAGS=
LIBRARYQUALITY=3
SPECTRUMID=CCMSLIB00000426927
SCANS=1899
41.343 23.276 
56.04 53.161 
67.154 27.586 
84.14 100.0 
85.513 3.161 
END IONS

BEGIN IONS
PEPMASS=137.133
CHARGE=1+
MSLEVEL=2
SOURCE_INSTRUMENT=Positive-Quattro_QQQ:25eV
FILENAME=hmdb_intermediate.mgf
SEQ=*..*
IONMODE=Positive
ORGANISM=HMDB
NAME=HMDB:HMDB04321-2383 (+)-Limonene M+H
PI=HMDB
DATACOLLECTOR=HMDB
SMILES=CC(=C)[C@@H]1CCC(C)=CC1
INCHI=InChI=1S/C10H16/c1-8(2)10-6-4-9(3)5-7-10/h4,10H,1,5-7H2,2-3H3/t10-/m0/s1
INCHIAUX=N/A
PUBMED=N/A
SUBMITUSER=mwang87
TAGS=
LIBRARYQUALITY=3
SPECTRUMID=CCMSLIB00000426928
SCANS=1900
41.0 67.323 
54.0 68.032 
66.0 100.0 
76.0 80.079 
94.0 79.843 
END IONS

BEGIN IONS
PEPMASS=109.065
CHARGE=1+
MSLEVEL=2
SOURCE_INSTRUMENT=Positive-Quattro_QQQ:10eV
FILENAME=hmdb_intermediate.mgf
SEQ=*..*
IONMODE=Positive
ORGANISM=HMDB
NAME=HMDB:HMDB02048-1968 m-Cresol M+H
PI=HMDB
DATACOLLECTOR=HMDB
SMILES=CC1=CC(O)=CC=C1
INCHI=InChI=1S/C7H8O/c1-6-3-2-4-7(8)5-6/h2-5,8H,1H3
INCHIAUX=N/A
PUBMED=N/A
SUBMITUSER=mwang87
TAGS=
LIBRARYQUALITY=3
SPECTRUMID=CCMSLIB00000426929
SCANS=1901
81.0 17.06 
91.0 14.433 
109.0 100.0 
END IONS

BEGIN IONS
PEPMASS=217.18
CHARGE=1+
MSLEVEL=2
SOURCE_INSTRUMENT=Positive-Quattro_QQQ:10eV
FILENAME=hmdb_intermediate.mgf
SEQ=*..*
IONMODE=Positive
ORGANISM=HMDB
NAME=HMDB:HMDB02059-1974 12-Hydroxydodecanoic acid M+H
PI=HMDB
DATACOLLECTOR=HMDB
SMILES=OCCCCCCCCCCCC(O)=O
INCHI=InChI=1S/C12H24O3/c13-11-9-7-5-3-1-2-4-6-8-10-12(14)15/h13H,1-11H2,(H,14,15)
INCHIAUX=N/A
PUBMED=N/A
SUBMITUSER=mwang87
TAGS=
LIBRARYQUALITY=3
SPECTRUMID=CCMSLIB00000426930
SCANS=1902
84.0 7.096 
95.0 12.749 
111.0 6.317 
124.0 5.013 
138.0 5.539 
163.0 32.226 
180.0 30.762 
187.0 4.074 
198.0 24.633 
217.0 100.0 
END IONS

BEGIN IONS
PEPMASS=101.06
CHARGE=1+
MSLEVEL=2
SOURCE_INSTRUMENT=Positive-Quattro_QQQ:40eV
FILENAME=hmdb_intermediate.mgf
SEQ=*..*
IONMODE=Positive
ORGANISM=HMDB
NAME=HMDB:HMDB01862-1743 2-Ethylacrylic acid M+H
PI=HMDB
DATACOLLECTOR=HMDB
SMILES=CCC(=C)C(O)=O
INCHI=InChI=1S/C5H8O2/c1-3-4(2)5(6)7/h2-3H2,1H3,(H,6,7)
INCHIAUX=N/A
PUBMED=N/A
SUBMITUSER=mwang87
TAGS=
LIBRARYQUALITY=3
SPECTRUMID=CCMSLIB00000426931
SCANS=1903
44.0 100.0 
END IONS

BEGIN IONS
PEPMASS=181.071
CHARGE=1+
MSLEVEL=2
SOURCE_INSTRUMENT=Positive-Quattro_QQQ:25eV
FILENAME=hmdb_intermediate.mgf
SEQ=*..*
IONMODE=Positive
ORGANISM=HMDB
NAME=HMDB:HMDB03345-2254 Alpha-D-Glucose M+H
PI=HMDB
DATACOLLECTOR=HMDB
SMILES=OC[C@H]1O[C@H](O)[C@H](O)[C@@H](O)[C@@H]1O
INCHI=InChI=1S/C6H12O6/c7-1-2-3(8)4(9)5(10)6(11)12-2/h2-11H,1H2/t2-,3-,4+,5-,6+/m1/s1
INCHIAUX=N/A
PUBMED=N/A
SUBMITUSER=mwang87
TAGS=
LIBRARYQUALITY=3
SPECTRUMID=CCMSLIB00000426932
SCANS=1904
41.0 3.024 
63.0 3.218 
73.0 25.975 
75.0 10.363 
85.0 100.0 
103.0 7.781 
117.0 15.874 
END IONS

BEGIN IONS
PEPMASS=189.124
CHARGE=1+
MSLEVEL=2
SOURCE_INSTRUMENT=Positive-Quattro_QQQ:40eV
FILENAME=hmdb_intermediate.mgf
SEQ=*..*
IONMODE=Positive
ORGANISM=HMDB
NAME=HMDB:HMDB00206-333 N6-Acetyl-L-lysine M+H
PI=HMDB
DATACOLLECTOR=HMDB
SMILES=CC(=O)NCCCC[C@H](N)C(O)=O
INCHI=InChI=1S/C8H16N2O3/c1-6(11)10-5-3-2-4-7(9)8(12)13/h7H,2-5,9H2,1H3,(H,10,11)(H,12,13)/t7-/m0/s1
INCHIAUX=N/A
PUBMED=N/A
SUBMITUSER=mwang87
TAGS=
LIBRARYQUALITY=3
SPECTRUMID=CCMSLIB00000426933
SCANS=1905
43.197 8.108 
56.133 32.207 
67.195 5.856 
84.113 100.0 
END IONS

BEGIN IONS
PEPMASS=158.082
CHARGE=1+
MSLEVEL=2
SOURCE_INSTRUMENT=Positive-Quattro_QQQ:25eV
FILENAME=hmdb_intermediate.mgf
SEQ=*..*
IONMODE=Positive
ORGANISM=HMDB
NAME=HMDB:HMDB00459-669 3-Methylcrotonylglycine M+H
PI=HMDB
DATACOLLECTOR=HMDB
SMILES=CC(C)=CC(=O)NCC(O)=O
INCHI=InChI=1S/C7H11NO3/c1-5(2)3-6(9)8-4-7(10)11/h3H,4H2,1-2H3,(H,8,9)(H,10,11)
INCHIAUX=N/A
PUBMED=N/A
SUBMITUSER=mwang87
TAGS=
LIBRARYQUALITY=3
SPECTRUMID=CCMSLIB00000426934
SCANS=1906
55.554 100.0 
83.352 94.624 
END IONS

BEGIN IONS
PEPMASS=191.092
CHARGE=1+
MSLEVEL=2
SOURCE_INSTRUMENT=Positive-Quattro_QQQ:40eV
FILENAME=hmdb_intermediate.mgf
SEQ=*..*
IONMODE=Positive
ORGANISM=HMDB
NAME=HMDB:HMDB00325-539 3-Hydroxysuberic acid M+H
PI=HMDB
DATACOLLECTOR=HMDB
SMILES=OC(CCCCC(O)=O)CC(O)=O
INCHI=InChI=1S/C8H14O5/c9-6(5-8(12)13)3-1-2-4-7(10)11/h6,9H,1-5H2,(H,10,11)(H,12,13)
INCHIAUX=N/A
PUBMED=N/A
SUBMITUSER=mwang87
TAGS=
LIBRARYQUALITY=3
SPECTRUMID=CCMSLIB00000426935
SCANS=1907
67.0 77.369 
79.0 100.0 
91.0 32.58 
END IONS

BEGIN IONS
PEPMASS=196.061
CHARGE=1+
MSLEVEL=2
SOURCE_INSTRUMENT=Positive-Quattro_QQQ:10eV
FILENAME=hmdb_intermediate.mgf
SEQ=*..*
IONMODE=Positive
ORGANISM=HMDB
NAME=HMDB:HMDB02404-2101 Alpha-Hydroxyhippuric acid M+H
PI=HMDB
DATACOLLECTOR=HMDB
SMILES=OC(NC(=O)C1=CC=CC=C1)C(O)=O
INCHI=InChI=1S/C9H9NO4/c11-7(10-8(12)9(13)14)6-4-2-1-3-5-6/h1-5,8,12H,(H,10,11)(H,13,14)
INCHIAUX=N/A
PUBMED=N/A
SUBMITUSER=mwang87
TAGS=
LIBRARYQUALITY=3
SPECTRUMID=CCMSLIB00000426936
SCANS=1908
77.0 1.4 
105.0 100.0 
178.0 2.888 
END IONS

BEGIN IONS
PEPMASS=335.064
CHARGE=1+
MSLEVEL=2
SOURCE_INSTRUMENT=Positive-Quattro_QQQ:25eV
FILENAME=hmdb_intermediate.mgf
SEQ=*..*
IONMODE=Positive
ORGANISM=HMDB
NAME=HMDB:HMDB00229-383 Nicotinamide ribotide M+H
PI=HMDB
DATACOLLECTOR=HMDB
SMILES=NC(=O)C1=CC=C[N+](=C1)[C@@H]1O[C@H](COP(O)([O-])=O)[C@@H](O)[C@H]1O
INCHI=InChI=1S/C11H15N2O8P/c12-10(16)6-2-1-3-13(4-6)11-9(15)8(14)7(21-11)5-20-22(17,18)19/h1-4,7-9,11,14-15H,5H2,(H3-,12,16,17,18,19)/t7-,8-,9-,11-/m1/s1
INCHIAUX=N/A
PUBMED=N/A
SUBMITUSER=mwang87
TAGS=
LIBRARYQUALITY=3
SPECTRUMID=CCMSLIB00000426937
SCANS=1909
57.593 11.121 
69.119 6.452 
83.402 5.578 
93.049 7.023 
96.432 97.851 
106.455 7.459 
122.743 100.0 
135.273 7.023 
161.211 40.479 
175.747 13.001 
193.29 6.888 
209.08 18.309 
216.6 6.787 
226.375 5.007 
253.446 15.89 
270.366 11.994 
316.993 5.88 
END IONS

BEGIN IONS
PEPMASS=331.227
CHARGE=1+
MSLEVEL=2
SOURCE_INSTRUMENT=Positive-Quattro_QQQ:40eV
FILENAME=hmdb_intermediate.mgf
SEQ=*..*
IONMODE=Positive
ORGANISM=HMDB
NAME=HMDB:HMDB00920-1308 11a-Hydroxyprogesterone M+H
PI=HMDB
DATACOLLECTOR=HMDB
SMILES=[H][C@@]12CCC(C(C)=O)[C@@]1(C)C[C@@H](O)[C@@]1([H])[C@@]2([H])CCC2=CC(=O)CC[C@]12C
INCHI=InChI=1S/C21H30O3/c1-12(22)16-6-7-17-15-5-4-13-10-14(23)8-9-20(13,2)19(15)18(24)11-21(16,17)3/h10,15-19,24H,4-9,11H2,1-3H3/t15-,16?,17-,18+,19+,20-,21+/m0/s1
INCHIAUX=N/A
PUBMED=N/A
SUBMITUSER=mwang87
TAGS=
LIBRARYQUALITY=3
SPECTRUMID=CCMSLIB00000426938
SCANS=1910
43.562 100.0 
55.455 22.624 
67.381 22.964 
81.312 39.367 
93.272 43.439 
97.234 55.204 
105.211 54.751 
121.161 64.706 
131.114 30.317 
142.706 13.688 
145.101 29.412 
159.021 17.647 
173.074 10.52 
END IONS

BEGIN IONS
PEPMASS=191.019
CHARGE=1+
MSLEVEL=2
SOURCE_INSTRUMENT=Negative-Quattro_QQQ:40eV
FILENAME=hmdb_intermediate.mgf
SEQ=*..*
IONMODE=Negative
ORGANISM=HMDB
NAME=HMDB:HMDB00094-146 Citric acid M-H
PI=HMDB
DATACOLLECTOR=HMDB
SMILES=OC(=O)CC(O)(CC(O)=O)C(O)=O
INCHI=InChI=1S/C6H8O7/c7-3(8)1-6(13,5(11)12)2-4(9)10/h13H,1-2H2,(H,7,8)(H,9,10)(H,11,12)
INCHIAUX=N/A
PUBMED=N/A
SUBMITUSER=mwang87
TAGS=
LIBRARYQUALITY=3
SPECTRUMID=CCMSLIB00000426939
SCANS=1911
43.339 100.0 
57.23 50.658 
67.143 29.605 
87.028 84.211 
110.95 20.724 
190.976 6.168 
END IONS

BEGIN IONS
PEPMASS=667.23
CHARGE=1+
MSLEVEL=2
SOURCE_INSTRUMENT=Positive-Quattro_QQQ:10eV
FILENAME=hmdb_intermediate.mgf
SEQ=*..*
IONMODE=Positive
ORGANISM=HMDB
NAME=HMDB:HMDB03553-2328 Stachyose M+H
PI=HMDB
DATACOLLECTOR=HMDB
SMILES=OC[C@H]1O[C@@](CO)(O[C@H]2O[C@H](CO[C@H]3O[C@H](CO[C@H]4O[C@H](CO)[C@H](O)[C@H](O)[C@H]4O)[C@H](O)[C@H](O)[C@H]3O)[C@@H](O)[C@H](O)[C@H]2O)[C@@H](O)[C@@H]1O
INCHI=InChI=1S/C24H42O21/c25-1-6-10(28)14(32)17(35)21(41-6)39-3-8-11(29)15(33)18(36)22(42-8)40-4-9-12(30)16(34)19(37)23(43-9)45-24(5-27)20(38)13(31)7(2-26)44-24/h6-23,25-38H,1-5H2/t6-,7-,8-,9-,10+,11+,12-,13-,14+,15+,16+,17-,18-,19-,20+,21+,22+,23-,24+/m1/s1
INCHIAUX=N/A
PUBMED=N/A
SUBMITUSER=mwang87
TAGS=
LIBRARYQUALITY=3
SPECTRUMID=CCMSLIB00000426940
SCANS=1912
664.0 3.86 
665.0 100.0 
END IONS

BEGIN IONS
PEPMASS=154.087
CHARGE=1+
MSLEVEL=2
SOURCE_INSTRUMENT=Positive-Quattro_QQQ:10eV
FILENAME=hmdb_intermediate.mgf
SEQ=*..*
IONMODE=Positive
ORGANISM=HMDB
NAME=HMDB:HMDB00073-120 Dopamine M+H
PI=HMDB
DATACOLLECTOR=HMDB
SMILES=NCCC1=CC=C(O)C(O)=C1
INCHI=InChI=1S/C8H11NO2/c9-4-3-6-1-2-7(10)8(11)5-6/h1-2,5,10-11H,3-4,9H2
INCHIAUX=N/A
PUBMED=N/A
SUBMITUSER=mwang87
TAGS=
LIBRARYQUALITY=3
SPECTRUMID=CCMSLIB00000426941
SCANS=1913
91.106 80.734 
109.072 5.161 
119.034 66.972 
154.015 100.0 
END IONS

BEGIN IONS
PEPMASS=289.071
CHARGE=1+
MSLEVEL=2
SOURCE_INSTRUMENT=Negative-Quattro_QQQ:40eV
FILENAME=hmdb_intermediate.mgf
SEQ=*..*
IONMODE=Negative
ORGANISM=HMDB
NAME=HMDB:HMDB02780-2130 Catechin M-H
PI=HMDB
DATACOLLECTOR=HMDB
SMILES=O[C@H]1CC2=C(O)C=C(O)C=C2O[C@@H]1C1=CC(O)=C(O)C=C1
INCHI=InChI=1S/C15H14O6/c16-8-4-11(18)9-6-13(20)15(21-14(9)5-8)7-1-2-10(17)12(19)3-7/h1-5,13,15-20H,6H2/t13-,15+/m0/s1
INCHIAUX=N/A
PUBMED=N/A
SUBMITUSER=mwang87
TAGS=
LIBRARYQUALITY=3
SPECTRUMID=CCMSLIB00000426942
SCANS=1914
68.49 100.0 
81.7 100.0 
98.74 64.063 
END IONS

BEGIN IONS
PEPMASS=119.071
CHARGE=1+
MSLEVEL=2
SOURCE_INSTRUMENT=Positive-Quattro_QQQ:40eV
FILENAME=hmdb_intermediate.mgf
SEQ=*..*
IONMODE=Positive
ORGANISM=HMDB
NAME=HMDB:HMDB00351-566 3-Hydroxy-2-methyl-[R-(R,S)]-butanoic acid M+H
PI=HMDB
DATACOLLECTOR=HMDB
SMILES=C[C@@H](O)[C@H](C)C(O)=O
INCHI=InChI=1S/C5H10O3/c1-3(4(2)6)5(7)8/h3-4,6H,1-2H3,(H,7,8)/t3-,4+/m0/s1
INCHIAUX=N/A
PUBMED=N/A
SUBMITUSER=mwang87
TAGS=
LIBRARYQUALITY=3
SPECTRUMID=CCMSLIB00000426943
SCANS=1915
40.0 59.619 
45.0 100.0 
57.0 81.992 
END IONS

BEGIN IONS
PEPMASS=153.055
CHARGE=1+
MSLEVEL=2
SOURCE_INSTRUMENT=Positive-Quattro_QQQ:40eV
FILENAME=hmdb_intermediate.mgf
SEQ=*..*
IONMODE=Positive
ORGANISM=HMDB
NAME=HMDB:HMDB04815-2411 4-Hydroxy-3-methylbenzoic acid M+H
PI=HMDB
DATACOLLECTOR=HMDB
SMILES=CC1=CC(=CC=C1O)C(O)=O
INCHI=InChI=1S/C8H8O3/c1-5-4-6(8(10)11)2-3-7(5)9/h2-4,9H,1H3,(H,10,11)
INCHIAUX=N/A
PUBMED=N/A
SUBMITUSER=mwang87
TAGS=
LIBRARYQUALITY=3
SPECTRUMID=CCMSLIB00000426944
SCANS=1916
65.0 42.293 
77.0 100.0 
94.0 38.173 
107.0 10.948 
END IONS

BEGIN IONS
PEPMASS=275.092
CHARGE=1+
MSLEVEL=2
SOURCE_INSTRUMENT=Positive-Quattro_QQQ:10eV
FILENAME=hmdb_intermediate.mgf
SEQ=*..*
IONMODE=Positive
ORGANISM=HMDB
NAME=HMDB:HMDB03306-2233 Phloretin M+H
PI=HMDB
DATACOLLECTOR=HMDB
SMILES=OC1=CC=C(CCC(=O)C2=C(O)C=C(O)C=C2O)C=C1
INCHI=InChI=1S/C15H14O5/c16-10-4-1-9(2-5-10)3-6-12(18)15-13(19)7-11(17)8-14(15)20/h1-2,4-5,7-8,16-17,19-20H,3,6H2
INCHIAUX=N/A
PUBMED=N/A
SUBMITUSER=mwang87
TAGS=
LIBRARYQUALITY=3
SPECTRUMID=CCMSLIB00000426945
SCANS=1917
62.0 24.503 
102.0 17.101 
142.0 100.0 
182.0 13.099 
END IONS

BEGIN IONS
PEPMASS=315.149
CHARGE=1+
MSLEVEL=2
SOURCE_INSTRUMENT=Positive-Quattro_QQQ:40eV
FILENAME=hmdb_intermediate.mgf
SEQ=*..*
IONMODE=Positive
ORGANISM=HMDB
NAME=HMDB:HMDB01930-1871 Ranitidine M+H
PI=HMDB
DATACOLLECTOR=HMDB
SMILES=CN\C(NCCSCC1=CC=C(CN(C)C)O1)=C/[N+]([O-])=O
INCHI=InChI=1S/C13H22N4O3S/c1-14-13(9-17(18)19)15-6-7-21-10-12-5-4-11(20-12)8-16(2)3/h4-5,9,14-15H,6-8,10H2,1-3H3/b13-9+
INCHIAUX=N/A
PUBMED=N/A
SUBMITUSER=mwang87
TAGS=
LIBRARYQUALITY=3
SPECTRUMID=CCMSLIB00000426946
SCANS=1918
56.978 12.81 
67.751 15.502 
81.53 42.244 
84.912 15.621 
102.075 100.0 
107.587 26.748 
123.623 25.043 
129.762 70.329 
140.411 18.792 
147.678 62.252 
159.455 20.587 
165.219 31.863 
175.493 72.003 
190.404 9.37 
208.698 15.472 
222.232 15.591 
END IONS

BEGIN IONS
PEPMASS=179.056
CHARGE=1+
MSLEVEL=2
SOURCE_INSTRUMENT=Negative-Quattro_QQQ:40eV
FILENAME=hmdb_intermediate.mgf
SEQ=*..*
IONMODE=Negative
ORGANISM=HMDB
NAME=HMDB:HMDB01151-1438 Allose M-H
PI=HMDB
DATACOLLECTOR=HMDB
SMILES=[H][C@@]1(CO)OC(O)[C@@]([H])(O)[C@@]([H])(O)[C@@]1([H])O
INCHI=InChI=1S/C6H12O6/c7-1-2-3(8)4(9)5(10)6(11)12-2/h2-11H,1H2/t2-,3-,4-,5-,6?/m0/s1
INCHIAUX=N/A
PUBMED=N/A
SUBMITUSER=mwang87
TAGS=
LIBRARYQUALITY=3
SPECTRUMID=CCMSLIB00000426947
SCANS=1919
29.0 4.691 
43.0 11.584 
59.0 100.0 
71.0 14.383 
89.0 5.169 
END IONS

BEGIN IONS
PEPMASS=119.071
CHARGE=1+
MSLEVEL=2
SOURCE_INSTRUMENT=Positive-Quattro_QQQ:10eV
FILENAME=hmdb_intermediate.mgf
SEQ=*..*
IONMODE=Positive
ORGANISM=HMDB
NAME=HMDB:HMDB00754-1080 3-Hydroxyisovaleric acid M+H
PI=HMDB
DATACOLLECTOR=HMDB
SMILES=CC(C)(O)CC(O)=O
INCHI=InChI=1S/C5H10O3/c1-5(2,8)3-4(6)7/h8H,3H2,1-2H3,(H,6,7)
INCHIAUX=N/A
PUBMED=N/A
SUBMITUSER=mwang87
TAGS=
LIBRARYQUALITY=3
SPECTRUMID=CCMSLIB00000426948
SCANS=1920
58.829 100.0 
76.674 12.371 
87.732 5.096 
101.053 34.599 
119.402 5.012 
END IONS

BEGIN IONS
PEPMASS=400.343
CHARGE=1+
MSLEVEL=2
SOURCE_INSTRUMENT=Positive-Quattro_QQQ:25eV
FILENAME=hmdb_intermediate.mgf
SEQ=*..*
IONMODE=Positive
ORGANISM=HMDB
NAME=HMDB:HMDB00222-365 L-Palmitoylcarnitine M+H
PI=HMDB
DATACOLLECTOR=HMDB
SMILES=CCCCCCCCCCCCCCCC(=O)O[C@H](CC([O-])=O)C[N+](C)(C)C
INCHI=InChI=1S/C23H45NO4/c1-5-6-7-8-9-10-11-12-13-14-15-16-17-18-23(27)28-21(19-22(25)26)20-24(2,3)4/h21H,5-20H2,1-4H3/t21-/m1/s1
INCHIAUX=N/A
PUBMED=N/A
SUBMITUSER=mwang87
TAGS=
LIBRARYQUALITY=3
SPECTRUMID=CCMSLIB00000426949
SCANS=1921
60.421 21.694 
71.343 4.494 
81.284 2.505 
85.175 100.0 
95.25 3.125 
109.21 1.64 
144.135 5.398 
239.163 1.582 
400.308 2.789 
END IONS

BEGIN IONS
PEPMASS=103.04
CHARGE=1+
MSLEVEL=2
SOURCE_INSTRUMENT=Negative-Quattro_QQQ:10eV
FILENAME=hmdb_intermediate.mgf
SEQ=*..*
IONMODE=Negative
ORGANISM=HMDB
NAME=HMDB:HMDB00023-42 (S)-3-Hydroxyisobutyric acid M-H
PI=HMDB
DATACOLLECTOR=HMDB
SMILES=C[C@@H](CO)C(O)=O
INCHI=InChI=1S/C4H8O3/c1-3(2-5)4(6)7/h3,5H,2H2,1H3,(H,6,7)/t3-/m0/s1
INCHIAUX=N/A
PUBMED=N/A
SUBMITUSER=mwang87
TAGS=
LIBRARYQUALITY=3
SPECTRUMID=CCMSLIB00000426950
SCANS=1922
45.574 28.041 
57.493 67.568 
103.248 100.0 
END IONS

BEGIN IONS
PEPMASS=61.029
CHARGE=1+
MSLEVEL=2
SOURCE_INSTRUMENT=Positive-Quattro_QQQ:25eV
FILENAME=hmdb_intermediate.mgf
SEQ=*..*
IONMODE=Positive
ORGANISM=HMDB
NAME=HMDB:HMDB00042-70 Acetic acid M+H
PI=HMDB
DATACOLLECTOR=HMDB
SMILES=CC(O)=O
INCHI=InChI=1S/C2H4O2/c1-2(3)4/h1H3,(H,3,4)
INCHIAUX=N/A
PUBMED=N/A
SUBMITUSER=mwang87
TAGS=
LIBRARYQUALITY=3
SPECTRUMID=CCMSLIB00000426951
SCANS=1923
44.284 59.21 
44.782 100.0 
61.099 60.211 
END IONS

BEGIN IONS
PEPMASS=95.0167
CHARGE=1+
MSLEVEL=2
SOURCE_INSTRUMENT=Positive-Quattro_QQQ:25eV
FILENAME=hmdb_intermediate.mgf
SEQ=*..*
IONMODE=Positive
ORGANISM=HMDB
NAME=HMDB:HMDB04983-2422 Dimethyl sulfone M+H
PI=HMDB
DATACOLLECTOR=HMDB
SMILES=CS(C)(=O)=O
INCHI=InChI=1S/C2H6O2S/c1-5(2,3)4/h1-2H3
INCHIAUX=N/A
PUBMED=N/A
SUBMITUSER=mwang87
TAGS=
LIBRARYQUALITY=3
SPECTRUMID=CCMSLIB00000426952
SCANS=1924
63.0 49.58 
65.0 100.0 
80.0 12.747 
95.0 10.521 
END IONS

BEGIN IONS
PEPMASS=369.373
CHARGE=1+
MSLEVEL=2
SOURCE_INSTRUMENT=Positive-Quattro_QQQ:40eV
FILENAME=hmdb_intermediate.mgf
SEQ=*..*
IONMODE=Positive
ORGANISM=HMDB
NAME=HMDB:HMDB02003-1940 Tetracosanoic acid M+H
PI=HMDB
DATACOLLECTOR=HMDB
SMILES=CCCCCCCCCCCCCCCCCCCCCCCC(O)=O
INCHI=InChI=1S/C24H48O2/c1-2-3-4-5-6-7-8-9-10-11-12-13-14-15-16-17-18-19-20-21-22-23-24(25)26/h2-23H2,1H3,(H,25,26)
INCHIAUX=N/A
PUBMED=N/A
SUBMITUSER=mwang87
TAGS=
LIBRARYQUALITY=3
SPECTRUMID=CCMSLIB00000426953
SCANS=1925
179.0 100.0 
END IONS

BEGIN IONS
PEPMASS=222.098
CHARGE=1+
MSLEVEL=2
SOURCE_INSTRUMENT=Positive-Quattro_QQQ:25eV
FILENAME=hmdb_intermediate.mgf
SEQ=*..*
IONMODE=Positive
ORGANISM=HMDB
NAME=HMDB:HMDB00212-347 N-Acetylgalactosamine M+H
PI=HMDB
DATACOLLECTOR=HMDB
SMILES=CC(=O)N[C@H]1[C@@H](O)O[C@H](CO)[C@H](O)[C@@H]1O
INCHI=InChI=1S/C8H15NO6/c1-3(11)9-5-7(13)6(12)4(2-10)15-8(5)14/h4-8,10,12-14H,2H2,1H3,(H,9,11)/t4-,5-,6+,7-,8+/m1/s1
INCHIAUX=N/A
PUBMED=N/A
SUBMITUSER=mwang87
TAGS=
LIBRARYQUALITY=3
SPECTRUMID=CCMSLIB00000426954
SCANS=1926
43.625 7.218 
60.495 19.032 
72.271 9.315 
84.283 100.0 
96.343 45.161 
108.827 6.734 
126.186 55.484 
144.119 50.323 
END IONS

BEGIN IONS
PEPMASS=197.045
CHARGE=1+
MSLEVEL=2
SOURCE_INSTRUMENT=Negative-Quattro_QQQ:40eV
FILENAME=hmdb_intermediate.mgf
SEQ=*..*
IONMODE=Negative
ORGANISM=HMDB
NAME=HMDB:HMDB00291-494 Vanillylmandelic acid M-H
PI=HMDB
DATACOLLECTOR=HMDB
SMILES=COC1=C(O)C=CC(=C1)[C@H](O)C(O)=O
INCHI=InChI=1S/C9H10O5/c1-14-7-4-5(2-3-6(7)10)8(11)9(12)13/h2-4,8,10-11H,1H3,(H,12,13)/t8-/m0/s1
INCHIAUX=N/A
PUBMED=N/A
SUBMITUSER=mwang87
TAGS=
LIBRARYQUALITY=3
SPECTRUMID=CCMSLIB00000426955
SCANS=1927
53.503 5.749 
81.27 11.23 
91.996 9.225 
108.214 14.439 
119.131 2.574 
136.913 100.0 
END IONS

BEGIN IONS
PEPMASS=565.047
CHARGE=1+
MSLEVEL=2
SOURCE_INSTRUMENT=Negative-Quattro_QQQ:10eV
FILENAME=hmdb_intermediate.mgf
SEQ=*..*
IONMODE=Negative
ORGANISM=HMDB
NAME=HMDB:HMDB00286-483 Uridine diphosphate glucose M-H
PI=HMDB
DATACOLLECTOR=HMDB
SMILES=OC[C@@H]1OC(OP(O)(=O)OP(O)(=O)OC[C@@H]2O[C@@H]([C@@H](O)[C@H]2O)N2C=CC(=O)NC2=O)[C@@H](O)[C@H](O)[C@H]1O
INCHI=InChI=1S/C15H24N2O17P2/c18-3-5-8(20)10(22)12(24)14(32-5)33-36(28,29)34-35(26,27)30-4-6-9(21)11(23)13(31-6)17-2-1-7(19)16-15(17)25/h1-2,5-6,8-14,18,20-24H,3-4H2,(H,26,27)(H,28,29)(H,16,19,25)/t5-,6-,8-,9-,10+,11-,12-,13-,14?/m0/s1
INCHIAUX=N/A
PUBMED=N/A
SUBMITUSER=mwang87
TAGS=
LIBRARYQUALITY=3
SPECTRUMID=CCMSLIB00000426956
SCANS=1928
542.852 55.295 
566.777 100.0 
END IONS

BEGIN IONS
PEPMASS=181.073
CHARGE=1+
MSLEVEL=2
SOURCE_INSTRUMENT=Positive-Quattro_QQQ:10eV
FILENAME=hmdb_intermediate.mgf
SEQ=*..*
IONMODE=Positive
ORGANISM=HMDB
NAME=HMDB:HMDB01889-1792 Theophylline M+H
PI=HMDB
DATACOLLECTOR=HMDB
SMILES=CN1C2=C(NC=N2)C(=O)N(C)C1=O
INCHI=InChI=1S/C7H8N4O2/c1-10-5-4(8-3-9-5)6(12)11(2)7(10)13/h3H,1-2H3,(H,8,9)
INCHIAUX=N/A
PUBMED=N/A
SUBMITUSER=mwang87
TAGS=
LIBRARYQUALITY=3
SPECTRUMID=CCMSLIB00000426957
SCANS=1929
121.389 100.0 
180.468 35.267 
END IONS

BEGIN IONS
PEPMASS=283.264
CHARGE=1+
MSLEVEL=2
SOURCE_INSTRUMENT=Positive-Quattro_QQQ:25eV
FILENAME=hmdb_intermediate.mgf
SEQ=*..*
IONMODE=Positive
ORGANISM=HMDB
NAME=HMDB:HMDB00207-335 Oleic acid M+H
PI=HMDB
DATACOLLECTOR=HMDB
SMILES=CCCCCCCC\C=C/CCCCCCCC(O)=O
INCHI=InChI=1S/C18H34O2/c1-2-3-4-5-6-7-8-9-10-11-12-13-14-15-16-17-18(19)20/h9-10H,2-8,11-17H2,1H3,(H,19,20)/b10-9-
INCHIAUX=N/A
PUBMED=N/A
SUBMITUSER=mwang87
TAGS=
LIBRARYQUALITY=3
SPECTRUMID=CCMSLIB00000426958
SCANS=1930
43.0 34.532 
57.0 79.101 
69.0 100.0 
83.0 69.407 
93.0 34.117 
97.0 52.269 
107.0 24.086 
121.0 20.393 
135.0 16.83 
END IONS

BEGIN IONS
PEPMASS=228.098
CHARGE=1+
MSLEVEL=2
SOURCE_INSTRUMENT=Positive-Quattro_QQQ:40eV
FILENAME=hmdb_intermediate.mgf
SEQ=*..*
IONMODE=Positive
ORGANISM=HMDB
NAME=HMDB:HMDB00014-24 Deoxycytidine M+H
PI=HMDB
DATACOLLECTOR=HMDB
SMILES=NC1=NC(=O)N(C=C1)[C@H]1C[C@H](O)[C@@H](CO)O1
INCHI=InChI=1S/C9H13N3O4/c10-7-1-2-12(9(15)11-7)8-3-5(14)6(4-13)16-8/h1-2,5-6,8,13-14H,3-4H2,(H2,10,11,15)/t5-,6+,8+/m0/s1
INCHIAUX=N/A
PUBMED=N/A
SUBMITUSER=mwang87
TAGS=
LIBRARYQUALITY=3
SPECTRUMID=CCMSLIB00000426959
SCANS=1931
43.333 20.906 
45.331 18.421 
69.111 25.439 
94.874 76.023 
112.003 100.0 
END IONS

BEGIN IONS
PEPMASS=241.13
CHARGE=1+
MSLEVEL=2
SOURCE_INSTRUMENT=Positive-Quattro_QQQ:40eV
FILENAME=hmdb_intermediate.mgf
SEQ=*..*
IONMODE=Positive
ORGANISM=HMDB
NAME=HMDB:HMDB00745-1061 Homocarnosine M+H
PI=HMDB
DATACOLLECTOR=HMDB
SMILES=NCCCC(=O)N[C@@H](CC1=CNC=N1)C(O)=O
INCHI=InChI=1S/C10H16N4O3/c11-3-1-2-9(15)14-8(10(16)17)4-7-5-12-6-13-7/h5-6,8H,1-4,11H2,(H,12,13)(H,14,15)(H,16,17)/t8-/m0/s1
INCHIAUX=N/A
PUBMED=N/A
SUBMITUSER=mwang87
TAGS=
LIBRARYQUALITY=3
SPECTRUMID=CCMSLIB00000426960
SCANS=1932
56.235 10.96 
69.108 29.71 
82.888 91.304 
93.076 43.841 
95.067 33.696 
110.017 100.0 
END IONS

BEGIN IONS
PEPMASS=190.072
CHARGE=1+
MSLEVEL=2
SOURCE_INSTRUMENT=Positive-Quattro_QQQ:10eV
FILENAME=hmdb_intermediate.mgf
SEQ=*..*
IONMODE=Positive
ORGANISM=HMDB
NAME=HMDB:HMDB00590-813 Glutarylglycine M+H
PI=HMDB
DATACOLLECTOR=HMDB
SMILES=OC(=O)CCCC(=O)NCC(O)=O
INCHI=InChI=1S/C7H11NO5/c9-5(8-4-7(12)13)2-1-3-6(10)11/h1-4H2,(H,8,9)(H,10,11)(H,12,13)
INCHIAUX=N/A
PUBMED=N/A
SUBMITUSER=mwang87
TAGS=
LIBRARYQUALITY=3
SPECTRUMID=CCMSLIB00000426961
SCANS=1933
70.0 4.306 
77.0 5.841 
98.0 46.156 
112.0 2.936 
126.0 100.0 
141.0 8.514 
158.0 11.69 
END IONS

BEGIN IONS
PEPMASS=325.311
CHARGE=1+
MSLEVEL=2
SOURCE_INSTRUMENT=Negative-Quattro_QQQ:10eV
FILENAME=hmdb_intermediate.mgf
SEQ=*..*
IONMODE=Negative
ORGANISM=HMDB
NAME=HMDB:HMDB02345-2067 Heneicosanoic acid M-H
PI=HMDB
DATACOLLECTOR=HMDB
SMILES=CCCCCCCCCCCCCCCCCCCCC(O)=O
INCHI=InChI=1S/C21H42O2/c1-2-3-4-5-6-7-8-9-10-11-12-13-14-15-16-17-18-19-20-21(22)23/h2-20H2,1H3,(H,22,23)
INCHIAUX=N/A
PUBMED=N/A
SUBMITUSER=mwang87
TAGS=
LIBRARYQUALITY=3
SPECTRUMID=CCMSLIB00000426962
SCANS=1934
324.0 8.269 
325.0 100.0 
END IONS

BEGIN IONS
PEPMASS=131.071
CHARGE=1+
MSLEVEL=2
SOURCE_INSTRUMENT=Positive-Quattro_QQQ:10eV
FILENAME=hmdb_intermediate.mgf
SEQ=*..*
IONMODE=Positive
ORGANISM=HMDB
NAME=HMDB:HMDB01864-1744 2-Ketohexanoic acid M+H
PI=HMDB
DATACOLLECTOR=HMDB
SMILES=CCCCC(=O)C(O)=O
INCHI=InChI=1S/C6H10O3/c1-2-3-4-5(7)6(8)9/h2-4H2,1H3,(H,8,9)
INCHIAUX=N/A
PUBMED=N/A
SUBMITUSER=mwang87
TAGS=
LIBRARYQUALITY=3
SPECTRUMID=CCMSLIB00000426963
SCANS=1935
69.372 59.095 
83.975 14.223 
89.466 100.0 
98.578 76.929 
114.179 77.275 
114.554 24.765 
130.78 35.044 
END IONS

BEGIN IONS
PEPMASS=137.133
CHARGE=1+
MSLEVEL=2
SOURCE_INSTRUMENT=Positive-Quattro_QQQ:40eV
FILENAME=hmdb_intermediate.mgf
SEQ=*..*
IONMODE=Positive
ORGANISM=HMDB
NAME=HMDB:HMDB04321-2384 (+)-Limonene M+H
PI=HMDB
DATACOLLECTOR=HMDB
SMILES=CC(=C)[C@@H]1CCC(C)=CC1
INCHI=InChI=1S/C10H16/c1-8(2)10-6-4-9(3)5-7-10/h4,10H,1,5-7H2,2-3H3/t10-/m0/s1
INCHIAUX=N/A
PUBMED=N/A
SUBMITUSER=mwang87
TAGS=
LIBRARYQUALITY=3
SPECTRUMID=CCMSLIB00000426964
SCANS=1936
41.0 100.0 
END IONS

BEGIN IONS
PEPMASS=176.067
CHARGE=1+
MSLEVEL=2
SOURCE_INSTRUMENT=Positive-Quattro_QQQ:25eV
FILENAME=hmdb_intermediate.mgf
SEQ=*..*
IONMODE=Positive
ORGANISM=HMDB
NAME=HMDB:HMDB03157-2207 Guanidinosuccinic acid M+H
PI=HMDB
DATACOLLECTOR=HMDB
SMILES=NC(=N)N[C@@H](CC(O)=O)C(O)=O
INCHI=InChI=1S/C5H9N3O4/c6-5(7)8-2(4(11)12)1-3(9)10/h2H,1H2,(H,9,10)(H,11,12)(H4,6,7,8)/t2-/m0/s1
INCHIAUX=N/A
PUBMED=N/A
SUBMITUSER=mwang87
TAGS=
LIBRARYQUALITY=3
SPECTRUMID=CCMSLIB00000426965
SCANS=1937
43.0 44.825 
46.0 14.158 
60.0 13.192 
70.0 100.0 
88.0 62.181 
98.0 13.625 
112.0 7.747 
116.0 13.518 
END IONS

BEGIN IONS
PEPMASS=364.066
CHARGE=1+
MSLEVEL=2
SOURCE_INSTRUMENT=Positive-Quattro_QQQ:10eV
FILENAME=hmdb_intermediate.mgf
SEQ=*..*
IONMODE=Positive
ORGANISM=HMDB
NAME=HMDB:HMDB01397-1553 Guanosine monophosphate M+H
PI=HMDB
DATACOLLECTOR=HMDB
SMILES=NC1=NC2=C(N=CN2[C@@H]2O[C@H](COP(O)(O)=O)[C@@H](O)[C@H]2O)C(=O)N1
INCHI=InChI=1S/C10H14N5O8P/c11-10-13-7-4(8(18)14-10)12-2-15(7)9-6(17)5(16)3(23-9)1-22-24(19,20)21/h2-3,5-6,9,16-17H,1H2,(H2,19,20,21)(H3,11,13,14,18)/t3-,5-,6-,9-/m1/s1
INCHIAUX=N/A
PUBMED=N/A
SUBMITUSER=mwang87
TAGS=
LIBRARYQUALITY=3
SPECTRUMID=CCMSLIB00000426966
SCANS=1938
97.0 1.335 
152.0 100.0 
364.0 19.236 
END IONS

BEGIN IONS
PEPMASS=147.066
CHARGE=1+
MSLEVEL=2
SOURCE_INSTRUMENT=Positive-Quattro_QQQ:25eV
FILENAME=hmdb_intermediate.mgf
SEQ=*..*
IONMODE=Positive
ORGANISM=HMDB
NAME=HMDB:HMDB00752-1075 Methylglutaric acid M+H
PI=HMDB
DATACOLLECTOR=HMDB
SMILES=CC(CC(O)=O)CC(O)=O
INCHI=InChI=1S/C6H10O4/c1-4(2-5(7)8)3-6(9)10/h4H,2-3H2,1H3,(H,7,8)(H,9,10)
INCHIAUX=N/A
PUBMED=N/A
SUBMITUSER=mwang87
TAGS=
LIBRARYQUALITY=3
SPECTRUMID=CCMSLIB00000426967
SCANS=1939
55.627 100.0 
68.961 24.925 
83.417 32.779 
101.363 17.642 
END IONS

BEGIN IONS
PEPMASS=170.082
CHARGE=1+
MSLEVEL=2
SOURCE_INSTRUMENT=Positive-Quattro_QQQ:40eV
FILENAME=hmdb_intermediate.mgf
SEQ=*..*
IONMODE=Positive
ORGANISM=HMDB
NAME=HMDB:HMDB01537-1633 6-Hydroxydopamine M+H
PI=HMDB
DATACOLLECTOR=HMDB
SMILES=NCCC1=C(O)C=C(O)C(O)=C1
INCHI=InChI=1S/C8H11NO3/c9-2-1-5-3-7(11)8(12)4-6(5)10/h3-4,10-12H,1-2,9H2
INCHIAUX=N/A
PUBMED=N/A
SUBMITUSER=mwang87
TAGS=
LIBRARYQUALITY=3
SPECTRUMID=CCMSLIB00000426968
SCANS=1940
69.0 8.7859231059 
77.04 36.9915877475 
89.04 43.1445602036 
107.04 100.0 
117.0 10.6434496274 
125.04 5.5742066515 
135.12 47.3760290925 
153.12 70.4844924688 
END IONS

BEGIN IONS
PEPMASS=361.202
CHARGE=1+
MSLEVEL=2
SOURCE_INSTRUMENT=Positive-Quattro_QQQ:10eV
FILENAME=hmdb_intermediate.mgf
SEQ=*..*
IONMODE=Positive
ORGANISM=HMDB
NAME=HMDB:HMDB02802-2134 Cortisone M+H
PI=HMDB
DATACOLLECTOR=HMDB
SMILES=[H][C@@]12CC[C@](O)(C(=O)CO)[C@@]1(C)CC(=O)[C@@]1([H])[C@@]2([H])CCC2=CC(=O)CC[C@]12C
INCHI=InChI=1S/C21H28O5/c1-19-7-5-13(23)9-12(19)3-4-14-15-6-8-21(26,17(25)11-22)20(15,2)10-16(24)18(14)19/h9,14-15,18,22,26H,3-8,10-11H2,1-2H3/t14-,15-,18+,19-,20-,21-/m0/s1
INCHIAUX=N/A
PUBMED=N/A
SUBMITUSER=mwang87
TAGS=
LIBRARYQUALITY=3
SPECTRUMID=CCMSLIB00000426969
SCANS=1941
361.07 100.0 
END IONS

BEGIN IONS
PEPMASS=649.592
CHARGE=1+
MSLEVEL=2
SOURCE_INSTRUMENT=Positive-Quattro_QQQ:10eV
FILENAME=hmdb_intermediate.mgf
SEQ=*..*
IONMODE=Positive
ORGANISM=HMDB
NAME=HMDB:HMDB00610-828 CE(18:2(9Z,12Z)) M+H
PI=HMDB
DATACOLLECTOR=HMDB
SMILES=CCCCC\C=C/C\C=C/CCCCCCCC(=O)O[C@H]1CC[C@@]2(C)C(=CC[C@@]3([H])[C@]4([H])CC[C@]([H])([C@H](C)CCCC(C)C)[C@@]4(C)CC[C@]23[H])C1
INCHI=InChI=1S/C45H76O2/c1-7-8-9-10-11-12-13-14-15-16-17-18-19-20-21-25-43(46)47-38-30-32-44(5)37(34-38)26-27-39-41-29-28-40(36(4)24-22-23-35(2)3)45(41,6)33-31-42(39)44/h11-12,14-15,26,35-36,38-42H,7-10,13,16-25,27-34H2,1-6H3/b12-11-,15-14-/t36-,38+,39+,40-,41+,42+,44+,45-/m1/s1
INCHIAUX=N/A
PUBMED=N/A
SUBMITUSER=mwang87
TAGS=
LIBRARYQUALITY=3
SPECTRUMID=CCMSLIB00000426970
SCANS=1942
649.0 100.0 
END IONS

BEGIN IONS
PEPMASS=183.066
CHARGE=1+
MSLEVEL=2
SOURCE_INSTRUMENT=Positive-Quattro_QQQ:40eV
FILENAME=hmdb_intermediate.mgf
SEQ=*..*
IONMODE=Positive
ORGANISM=HMDB
NAME=HMDB:HMDB00423-628 3,4-Dihydroxyhydrocinnamic acid M+H
PI=HMDB
DATACOLLECTOR=HMDB
SMILES=OC(=O)CCC1=CC=C(O)C(O)=C1
INCHI=InChI=1S/C9H10O4/c10-7-3-1-6(5-8(7)11)2-4-9(12)13/h1,3,5,10-11H,2,4H2,(H,12,13)
INCHIAUX=N/A
PUBMED=N/A
SUBMITUSER=mwang87
TAGS=
LIBRARYQUALITY=3
SPECTRUMID=CCMSLIB00000426971
SCANS=1943
63.0 8.196 
65.0 100.0 
77.0 22.131 
89.0 24.814 
95.0 7.941 
END IONS

BEGIN IONS
PEPMASS=147.045
CHARGE=1+
MSLEVEL=2
SOURCE_INSTRUMENT=Positive-Quattro_QQQ:10eV
FILENAME=hmdb_intermediate.mgf
SEQ=*..*
IONMODE=Positive
ORGANISM=HMDB
NAME=HMDB:HMDB02359-2079 Phenylpropiolic acid M+H
PI=HMDB
DATACOLLECTOR=HMDB
SMILES=OC(=O)C#CC1=CC=CC=C1
INCHI=InChI=1S/C9H6O2/c10-9(11)7-6-8-4-2-1-3-5-8/h1-5H,(H,10,11)
INCHIAUX=N/A
PUBMED=N/A
SUBMITUSER=mwang87
TAGS=
LIBRARYQUALITY=3
SPECTRUMID=CCMSLIB00000426972
SCANS=1944
69.0 59.128 
77.0 6.447 
103.0 16.499 
105.0 7.441 
129.0 60.139 
147.0 100.0 
END IONS

BEGIN IONS
PEPMASS=106.05
CHARGE=1+
MSLEVEL=2
SOURCE_INSTRUMENT=Positive-Quattro_QQQ:25eV
FILENAME=hmdb_intermediate.mgf
SEQ=*..*
IONMODE=Positive
ORGANISM=HMDB
NAME=HMDB:HMDB00187-296 L-Serine M+H
PI=HMDB
DATACOLLECTOR=HMDB
SMILES=N[C@@H](CO)C(O)=O
INCHI=InChI=1S/C3H7NO3/c4-2(1-5)3(6)7/h2,5H,1,4H2,(H,6,7)/t2-/m0/s1
INCHIAUX=N/A
PUBMED=N/A
SUBMITUSER=mwang87
TAGS=
LIBRARYQUALITY=3
SPECTRUMID=CCMSLIB00000426973
SCANS=1945
42.3 75.397 
60.108 100.0 
70.05 7.49 
105.789 18.452 
END IONS

BEGIN IONS
PEPMASS=216.043
CHARGE=1+
MSLEVEL=2
SOURCE_INSTRUMENT=Positive-Quattro_QQQ:40eV
FILENAME=hmdb_intermediate.mgf
SEQ=*..*
IONMODE=Positive
ORGANISM=HMDB
NAME=HMDB:HMDB01885-1785 3-Chlorotyrosine M+H
PI=HMDB
DATACOLLECTOR=HMDB
SMILES=NC(CC1=CC(Cl)=C(O)C=C1)C(O)=O
INCHI=InChI=1S/C9H10ClNO3/c10-6-3-5(1-2-8(6)12)4-7(11)9(13)14/h1-3,7,12H,4,11H2,(H,13,14)
INCHIAUX=N/A
PUBMED=N/A
SUBMITUSER=mwang87
TAGS=
LIBRARYQUALITY=3
SPECTRUMID=CCMSLIB00000426974
SCANS=1946
94.08 4.5471497351 
106.08 11.4745029516 
118.08 5.7698016589 
134.1 60.2460775205 
135.06 100.0 
153.06 22.2136187209 
157.08 22.7068885189 
170.1 41.630072061 
END IONS

BEGIN IONS
PEPMASS=165.092
CHARGE=1+
MSLEVEL=2
SOURCE_INSTRUMENT=Positive-Quattro_QQQ:25eV
FILENAME=hmdb_intermediate.mgf
SEQ=*..*
IONMODE=Positive
ORGANISM=HMDB
NAME=HMDB:HMDB01955-1909 3-Phenylbutyric acid M+H
PI=HMDB
DATACOLLECTOR=HMDB
SMILES=CC(CC(O)=O)C1=CC=CC=C1
INCHI=InChI=1S/C10H12O2/c1-8(7-10(11)12)9-5-3-2-4-6-9/h2-6,8H,7H2,1H3,(H,11,12)
INCHIAUX=N/A
PUBMED=N/A
SUBMITUSER=mwang87
TAGS=
LIBRARYQUALITY=3
SPECTRUMID=CCMSLIB00000426975
SCANS=1947
78.0 20.871 
90.0 14.413 
104.0 100.0 
105.0 36.467 
END IONS

BEGIN IONS
PEPMASS=104.071
CHARGE=1+
MSLEVEL=2
SOURCE_INSTRUMENT=Positive-Quattro_QQQ:10eV
FILENAME=hmdb_intermediate.mgf
SEQ=*..*
IONMODE=Positive
ORGANISM=HMDB
NAME=HMDB:HMDB00650-885 D-Alpha-aminobutyric acid M+H
PI=HMDB
DATACOLLECTOR=HMDB
SMILES=CC[C@@H](N)C(O)=O
INCHI=InChI=1S/C4H9NO2/c1-2-3(5)4(6)7/h3H,2,5H2,1H3,(H,6,7)/t3-/m1/s1
INCHIAUX=N/A
PUBMED=N/A
SUBMITUSER=mwang87
TAGS=
LIBRARYQUALITY=3
SPECTRUMID=CCMSLIB00000426976
SCANS=1948
58.203 100.0 
103.988 11.383 
END IONS

BEGIN IONS
PEPMASS=87.0446
CHARGE=1+
MSLEVEL=2
SOURCE_INSTRUMENT=Negative-Quattro_QQQ:10eV
FILENAME=hmdb_intermediate.mgf
SEQ=*..*
IONMODE=Negative
ORGANISM=HMDB
NAME=HMDB:HMDB00039-66 Butyric acid M-H
PI=HMDB
DATACOLLECTOR=HMDB
SMILES=CCCC(O)=O
INCHI=InChI=1S/C4H8O2/c1-2-3-4(5)6/h2-3H2,1H3,(H,5,6)
INCHIAUX=N/A
PUBMED=N/A
SUBMITUSER=mwang87
TAGS=
LIBRARYQUALITY=3
SPECTRUMID=CCMSLIB00000426977
SCANS=1949
87.139 100.0 
END IONS

BEGIN IONS
PEPMASS=73.0653
CHARGE=1+
MSLEVEL=2
SOURCE_INSTRUMENT=Positive-Quattro_QQQ:10eV
FILENAME=hmdb_intermediate.mgf
SEQ=*..*
IONMODE=Positive
ORGANISM=HMDB
NAME=HMDB:HMDB03543-2322 Butanal M+H
PI=HMDB
DATACOLLECTOR=HMDB
SMILES=CCCC=O
INCHI=InChI=1S/C4H8O/c1-2-3-4-5/h4H,2-3H2,1H3
INCHIAUX=N/A
PUBMED=N/A
SUBMITUSER=mwang87
TAGS=
LIBRARYQUALITY=3
SPECTRUMID=CCMSLIB00000426978
SCANS=1950
43.0 8.997 
55.0 100.0 
73.0 79.57 
END IONS

BEGIN IONS
PEPMASS=223.075
CHARGE=1+
MSLEVEL=2
SOURCE_INSTRUMENT=Positive-Quattro_QQQ:25eV
FILENAME=hmdb_intermediate.mgf
SEQ=*..*
IONMODE=Positive
ORGANISM=HMDB
NAME=HMDB:HMDB00099-157 L-Cystathionine M+H
PI=HMDB
DATACOLLECTOR=HMDB
SMILES=N[C@@H](CCSC[C@H](N)C(O)=O)C(O)=O
INCHI=InChI=1S/C7H14N2O4S/c8-4(6(10)11)1-2-14-3-5(9)7(12)13/h4-5H,1-3,8-9H2,(H,10,11)(H,12,13)/t4-,5-/m0/s1
INCHIAUX=N/A
PUBMED=N/A
SUBMITUSER=mwang87
TAGS=
LIBRARYQUALITY=3
SPECTRUMID=CCMSLIB00000426979
SCANS=1951
56.253 5.362 
88.082 100.0 
133.95 26.183 
END IONS

BEGIN IONS
PEPMASS=204.102
CHARGE=1+
MSLEVEL=2
SOURCE_INSTRUMENT=Positive-Quattro_QQQ:25eV
FILENAME=hmdb_intermediate.mgf
SEQ=*..*
IONMODE=Positive
ORGANISM=HMDB
NAME=HMDB:HMDB02096-2000 3-Indolebutyric acid M+H
PI=HMDB
DATACOLLECTOR=HMDB
SMILES=OC(=O)CCCC1=CNC2=CC=CC=C12
INCHI=InChI=1S/C12H13NO2/c14-12(15)7-3-4-9-8-13-11-6-2-1-5-10(9)11/h1-2,5-6,8,13H,3-4,7H2,(H,14,15)
INCHIAUX=N/A
PUBMED=N/A
SUBMITUSER=mwang87
TAGS=
LIBRARYQUALITY=3
SPECTRUMID=CCMSLIB00000426980
SCANS=1952
55.0 19.27 
117.0 24.008 
130.0 100.0 
144.0 54.492 
158.0 13.341 
168.0 21.174 
186.0 15.658 
END IONS

BEGIN IONS
PEPMASS=222.098
CHARGE=1+
MSLEVEL=2
SOURCE_INSTRUMENT=Positive-Quattro_QQQ:25eV
FILENAME=hmdb_intermediate.mgf
SEQ=*..*
IONMODE=Positive
ORGANISM=HMDB
NAME=HMDB:HMDB00803-1145 Beta-N-Acetylglucosamine M+H
PI=HMDB
DATACOLLECTOR=HMDB
SMILES=CC(=O)N[C@H]1[C@H](O)O[C@H](CO)[C@@H](O)[C@@H]1O
INCHI=InChI=1S/C8H15NO6/c1-3(11)9-5-7(13)6(12)4(2-10)15-8(5)14/h4-8,10,12-14H,2H2,1H3,(H,9,11)/t4-,5-,6-,7-,8-/m1/s1
INCHIAUX=N/A
PUBMED=N/A
SUBMITUSER=mwang87
TAGS=
LIBRARYQUALITY=3
SPECTRUMID=CCMSLIB00000426981
SCANS=1953
43.317 7.461 
61.249 6.719 
69.118 11.719 
84.03 73.75 
96.139 58.125 
108.943 12.969 
126.025 41.875 
137.979 100.0 
END IONS

BEGIN IONS
PEPMASS=74.0718
CHARGE=1+
MSLEVEL=2
SOURCE_INSTRUMENT=Positive-Quattro_QQQ:40eV
FILENAME=hmdb_intermediate.mgf
SEQ=*..*
IONMODE=Positive
ORGANISM=HMDB
NAME=HMDB:HMDB01522-1624 Methylguanidine M+H
PI=HMDB
DATACOLLECTOR=HMDB
SMILES=CNC(N)=N
INCHI=InChI=1S/C2H7N3/c1-5-2(3)4/h1H3,(H4,3,4,5)
INCHIAUX=N/A
PUBMED=N/A
SUBMITUSER=mwang87
TAGS=
LIBRARYQUALITY=3
SPECTRUMID=CCMSLIB00000426982
SCANS=1954
43.193 100.0 
57.005 30.093 
73.948 38.117 
END IONS

BEGIN IONS
PEPMASS=163.124
CHARGE=1+
MSLEVEL=2
SOURCE_INSTRUMENT=Positive-Quattro_QQQ:10eV
FILENAME=hmdb_intermediate.mgf
SEQ=*..*
IONMODE=Positive
ORGANISM=HMDB
NAME=HMDB:HMDB01934-1878 L(-)-Nicotine pestanal M+H
PI=HMDB
DATACOLLECTOR=HMDB
SMILES=CN1CCC[C@H]1C1=CN=CC=C1
INCHI=InChI=1S/C10H14N2/c1-12-7-3-5-10(12)9-4-2-6-11-8-9/h2,4,6,8,10H,3,5,7H2,1H3/t10-/m0/s1
INCHIAUX=N/A
PUBMED=N/A
SUBMITUSER=mwang87
TAGS=
LIBRARYQUALITY=3
SPECTRUMID=CCMSLIB00000426983
SCANS=1955
123.0 100.0 
END IONS

BEGIN IONS
PEPMASS=89.1079
CHARGE=1+
MSLEVEL=2
SOURCE_INSTRUMENT=Positive-Quattro_QQQ:40eV
FILENAME=hmdb_intermediate.mgf
SEQ=*..*
IONMODE=Positive
ORGANISM=HMDB
NAME=HMDB:HMDB60243-1570 Putrescine M+H
PI=HMDB
DATACOLLECTOR=HMDB
SMILES=NCCCCN
INCHI=InChI=1S/C4H12N2/c5-3-1-2-4-6/h1-6H2
INCHIAUX=N/A
PUBMED=N/A
SUBMITUSER=mwang87
TAGS=
LIBRARYQUALITY=3
SPECTRUMID=CCMSLIB00000426984
SCANS=1956
44.339 28.963 
55.254 16.159 
72.18 100.0 
89.131 64.024 
END IONS

BEGIN IONS
PEPMASS=281.114
CHARGE=1+
MSLEVEL=2
SOURCE_INSTRUMENT=Positive-Quattro_QQQ:25eV
FILENAME=hmdb_intermediate.mgf
SEQ=*..*
IONMODE=Positive
ORGANISM=HMDB
NAME=HMDB:HMDB00706-988 L-Aspartyl-L-phenylalanine M+H
PI=HMDB
DATACOLLECTOR=HMDB
SMILES=N[C@@H](CC(O)=O)C(=O)N[C@@H](CC1=CC=CC=C1)C(O)=O
INCHI=InChI=1S/C13H16N2O5/c14-9(7-11(16)17)12(18)15-10(13(19)20)6-8-4-2-1-3-5-8/h1-5,9-10H,6-7,14H2,(H,15,18)(H,16,17)(H,19,20)/t9-,10-/m0/s1
INCHIAUX=N/A
PUBMED=N/A
SUBMITUSER=mwang87
TAGS=
LIBRARYQUALITY=3
SPECTRUMID=CCMSLIB00000426985
SCANS=1957
70.148 17.69 
88.088 32.31 
103.077 5.592 
107.043 2.558 
120.042 100.0 
130.075 8.004 
144.043 2.595 
148.969 2.741 
157.027 2.924 
165.991 11.404 
175.017 13.596 
199.95 11.842 
END IONS

BEGIN IONS
PEPMASS=145.05
CHARGE=1+
MSLEVEL=2
SOURCE_INSTRUMENT=Negative-Quattro_QQQ:40eV
FILENAME=hmdb_intermediate.mgf
SEQ=*..*
IONMODE=Negative
ORGANISM=HMDB
NAME=HMDB:HMDB00448-655 Adipic acid M-H
PI=HMDB
DATACOLLECTOR=HMDB
SMILES=OC(=O)CCCCC(O)=O
INCHI=InChI=1S/C6H10O4/c7-5(8)3-1-2-4-6(9)10/h1-4H2,(H,7,8)(H,9,10)
INCHIAUX=N/A
PUBMED=N/A
SUBMITUSER=mwang87
TAGS=
LIBRARYQUALITY=3
SPECTRUMID=CCMSLIB00000426986
SCANS=1958
53.302 77.311 
81.072 100.0 
101.099 34.244 
144.012 27.311 
145.011 89.916 
END IONS

BEGIN IONS
PEPMASS=281.202
CHARGE=1+
MSLEVEL=2
SOURCE_INSTRUMENT=Positive-Quattro_QQQ:10eV
FILENAME=hmdb_intermediate.mgf
SEQ=*..*
IONMODE=Positive
ORGANISM=HMDB
NAME=HMDB:HMDB01848-1705 Imipramine M+H
PI=HMDB
DATACOLLECTOR=HMDB
SMILES=CN(C)CCCN1C2=CC=CC=C2CCC2=CC=CC=C12
INCHI=InChI=1S/C19H24N2/c1-20(2)14-7-15-21-18-10-5-3-8-16(18)12-13-17-9-4-6-11-19(17)21/h3-6,8-11H,7,12-15H2,1-2H3
INCHIAUX=N/A
PUBMED=N/A
SUBMITUSER=mwang87
TAGS=
LIBRARYQUALITY=3
SPECTRUMID=CCMSLIB00000426987
SCANS=1959
58.577 12.003 
86.191 100.0 
236.439 5.465 
281.375 10.107 
END IONS

BEGIN IONS
PEPMASS=129.019
CHARGE=1+
MSLEVEL=2
SOURCE_INSTRUMENT=Negative-Quattro_QQQ:25eV
FILENAME=hmdb_intermediate.mgf
SEQ=*..*
IONMODE=Negative
ORGANISM=HMDB
NAME=HMDB:HMDB00634-865 Citraconic acid M-H
PI=HMDB
DATACOLLECTOR=HMDB
SMILES=C\C(=C\C(O)=O)C(O)=O
INCHI=InChI=1S/C5H6O4/c1-3(5(8)9)2-4(6)7/h2H,1H3,(H,6,7)(H,8,9)/b3-2-
INCHIAUX=N/A
PUBMED=N/A
SUBMITUSER=mwang87
TAGS=
LIBRARYQUALITY=3
SPECTRUMID=CCMSLIB00000426988
SCANS=1960
41.668 100.0 
85.263 27.344 
129.073 7.129 
END IONS

BEGIN IONS
PEPMASS=125.06
CHARGE=1+
MSLEVEL=2
SOURCE_INSTRUMENT=Positive-Quattro_QQQ:40eV
FILENAME=hmdb_intermediate.mgf
SEQ=*..*
IONMODE=Positive
ORGANISM=HMDB
NAME=HMDB:HMDB00873-1234 4-Methylcatechol M+H
PI=HMDB
DATACOLLECTOR=HMDB
SMILES=CC1=CC(O)=C(O)C=C1
INCHI=InChI=1S/C7H8O2/c1-5-2-3-6(8)7(9)4-5/h2-4,8-9H,1H3
INCHIAUX=N/A
PUBMED=N/A
SUBMITUSER=mwang87
TAGS=
LIBRARYQUALITY=3
SPECTRUMID=CCMSLIB00000426989
SCANS=1961
51.269 4.741 
77.12 100.0 
106.992 10.259 
125.091 2.694 
END IONS

BEGIN IONS
PEPMASS=118.087
CHARGE=1+
MSLEVEL=2
SOURCE_INSTRUMENT=Positive-Quattro_QQQ:10eV
FILENAME=hmdb_intermediate.mgf
SEQ=*..*
IONMODE=Positive
ORGANISM=HMDB
NAME=HMDB:HMDB00883-1244 L-Valine M+H
PI=HMDB
DATACOLLECTOR=HMDB
SMILES=CC(C)[C@H](N)C(O)=O
INCHI=InChI=1S/C5H11NO2/c1-3(2)4(6)5(7)8/h3-4H,6H2,1-2H3,(H,7,8)/t4-/m0/s1
INCHIAUX=N/A
PUBMED=N/A
SUBMITUSER=mwang87
TAGS=
LIBRARYQUALITY=3
SPECTRUMID=CCMSLIB00000426990
SCANS=1962
55.234 4.24 
72.146 100.0 
117.994 10.588 
END IONS

BEGIN IONS
PEPMASS=173.021
CHARGE=1+
MSLEVEL=2
SOURCE_INSTRUMENT=Positive-Quattro_QQQ:40eV
FILENAME=hmdb_intermediate.mgf
SEQ=*..*
IONMODE=Positive
ORGANISM=HMDB
NAME=HMDB:HMDB00126-191 Glycerol 3-phosphate M+H
PI=HMDB
DATACOLLECTOR=HMDB
SMILES=OC[C@@H](O)COP(O)(O)=O
INCHI=InChI=1S/C3H9O6P/c4-1-3(5)2-9-10(6,7)8/h3-5H,1-2H2,(H2,6,7,8)/t3-/m1/s1
INCHIAUX=N/A
PUBMED=N/A
SUBMITUSER=mwang87
TAGS=
LIBRARYQUALITY=3
SPECTRUMID=CCMSLIB00000426991
SCANS=1963
45.0 8.165 
57.0 12.305 
81.0 100.0 
99.0 74.968 
173.0 9.85 
END IONS

BEGIN IONS
PEPMASS=224.092
CHARGE=1+
MSLEVEL=2
SOURCE_INSTRUMENT=Positive-Quattro_QQQ:40eV
FILENAME=hmdb_intermediate.mgf
SEQ=*..*
IONMODE=Positive
ORGANISM=HMDB
NAME=HMDB:HMDB00866-1222 N-Acetyl-L-tyrosine M+H
PI=HMDB
DATACOLLECTOR=HMDB
SMILES=CC(=O)N[C@@H](CC1=CC=C(O)C=C1)C(O)=O
INCHI=InChI=1S/C11H13NO4/c1-7(13)12-10(11(15)16)6-8-2-4-9(14)5-3-8/h2-5,10,14H,6H2,1H3,(H,12,13)(H,15,16)/t10-/m0/s1
INCHIAUX=N/A
PUBMED=N/A
SUBMITUSER=mwang87
TAGS=
LIBRARYQUALITY=3
SPECTRUMID=CCMSLIB00000426992
SCANS=1964
65.184 3.939 
77.113 12.412 
91.08 100.0 
95.03 16.197 
107.03 10.563 
118.921 17.518 
135.949 17.342 
END IONS

BEGIN IONS
PEPMASS=611.161
CHARGE=1+
MSLEVEL=2
SOURCE_INSTRUMENT=Positive-Quattro_QQQ:25eV
FILENAME=hmdb_intermediate.mgf
SEQ=*..*
IONMODE=Positive
ORGANISM=HMDB
NAME=HMDB:HMDB03249-2222 Rutin M+H
PI=HMDB
DATACOLLECTOR=HMDB
SMILES=C[C@@H]1O[C@@H](OC[C@H]2O[C@@H](OC3=C(OC4=CC(O)=CC(O)=C4C3=O)C3=CC(O)=C(O)C=C3)[C@H](O)[C@@H](O)[C@@H]2O)[C@H](O)[C@H](O)[C@H]1O
INCHI=InChI=1S/C27H30O16/c1-8-17(32)20(35)22(37)26(40-8)39-7-15-18(33)21(36)23(38)27(42-15)43-25-19(34)16-13(31)5-10(28)6-14(16)41-24(25)9-2-3-11(29)12(30)4-9/h2-6,8,15,17-18,20-23,26-33,35-38H,7H2,1H3/t8-,15+,17-,18+,20+,21-,22+,23+,26+,27-/m0/s1
INCHIAUX=N/A
PUBMED=N/A
SUBMITUSER=mwang87
TAGS=
LIBRARYQUALITY=3
SPECTRUMID=CCMSLIB00000426993
SCANS=1965
56.0 0.671 
70.0 1.515 
84.0 3.329 
85.0 2.294 
129.0 1.535 
147.0 1.092 
283.0 0.763 
303.0 17.17 
307.0 0.885 
537.0 1.296 
565.0 1.451 
611.0 100.0 
END IONS

BEGIN IONS
PEPMASS=181.073
CHARGE=1+
MSLEVEL=2
SOURCE_INSTRUMENT=Positive-Quattro_QQQ:25eV
FILENAME=hmdb_intermediate.mgf
SEQ=*..*
IONMODE=Positive
ORGANISM=HMDB
NAME=HMDB:HMDB01860-1736 Paraxanthine M+H
PI=HMDB
DATACOLLECTOR=HMDB
SMILES=CN1C=NC2=C1C(=O)N(C)C(=O)N2
INCHI=InChI=1S/C7H8N4O2/c1-10-3-8-5-4(10)6(12)11(2)7(13)9-5/h3H,1-2H3,(H,9,13)
INCHIAUX=N/A
PUBMED=N/A
SUBMITUSER=mwang87
TAGS=
LIBRARYQUALITY=3
SPECTRUMID=CCMSLIB00000426994
SCANS=1966
96.464 14.152 
123.882 100.0 
124.505 81.547 
181.34 19.379 
END IONS

BEGIN IONS
PEPMASS=163.076
CHARGE=1+
MSLEVEL=2
SOURCE_INSTRUMENT=Negative-Quattro_QQQ:25eV
FILENAME=hmdb_intermediate.mgf
SEQ=*..*
IONMODE=Negative
ORGANISM=HMDB
NAME=HMDB:HMDB00329-541 2-Phenylbutyric acid M-H
PI=HMDB
DATACOLLECTOR=HMDB
SMILES=CCC(C(O)=O)C1=CC=CC=C1
INCHI=InChI=1S/C10H12O2/c1-2-9(10(11)12)8-6-4-3-5-7-8/h3-7,9H,2H2,1H3,(H,11,12)
INCHIAUX=N/A
PUBMED=N/A
SUBMITUSER=mwang87
TAGS=
LIBRARYQUALITY=3
SPECTRUMID=CCMSLIB00000426995
SCANS=1967
77.284 4.273 
90.34 26.13 
103.265 11.158 
119.227 100.0 
134.099 6.356 
163.165 7.733 
END IONS

BEGIN IONS
PEPMASS=405.01
CHARGE=1+
MSLEVEL=2
SOURCE_INSTRUMENT=Positive-Quattro_QQQ:10eV
FILENAME=hmdb_intermediate.mgf
SEQ=*..*
IONMODE=Positive
ORGANISM=HMDB
NAME=HMDB:HMDB00295-501 Uridine 5'-diphosphate M+H
PI=HMDB
DATACOLLECTOR=HMDB
SMILES=O[C@H]1[C@@H](O)[C@@H](O[C@@H]1COP(O)(=O)OP(O)(O)=O)N1C=CC(=O)NC1=O
INCHI=InChI=1S/C9H14N2O12P2/c12-5-1-2-11(9(15)10-5)8-7(14)6(13)4(22-8)3-21-25(19,20)23-24(16,17)18/h1-2,4,6-8,13-14H,3H2,(H,19,20)(H,10,12,15)(H2,16,17,18)/t4-,6-,7-,8-/m1/s1
INCHIAUX=N/A
PUBMED=N/A
SUBMITUSER=mwang87
TAGS=
LIBRARYQUALITY=3
SPECTRUMID=CCMSLIB00000426996
SCANS=1968
69.0 24.618 
97.1 100.0 
END IONS

BEGIN IONS
PEPMASS=140.995
CHARGE=1+
MSLEVEL=2
SOURCE_INSTRUMENT=Positive-Quattro_QQQ:40eV
FILENAME=hmdb_intermediate.mgf
SEQ=*..*
IONMODE=Positive
ORGANISM=HMDB
NAME=HMDB:HMDB01494-1615 Acetylphosphate M+H
PI=HMDB
DATACOLLECTOR=HMDB
SMILES=CC(=O)OP(O)(O)=O
INCHI=InChI=1S/C2H5O5P/c1-2(3)7-8(4,5)6/h1H3,(H2,4,5,6)
INCHIAUX=N/A
PUBMED=N/A
SUBMITUSER=mwang87
TAGS=
LIBRARYQUALITY=3
SPECTRUMID=CCMSLIB00000426997
SCANS=1969
50.0 100.0 
76.0 94.72 
END IONS

BEGIN IONS
PEPMASS=175.024
CHARGE=1+
MSLEVEL=2
SOURCE_INSTRUMENT=Positive-Quattro_QQQ:25eV
FILENAME=hmdb_intermediate.mgf
SEQ=*..*
IONMODE=Positive
ORGANISM=HMDB
NAME=HMDB:HMDB00072-118 cis-Aconitic acid M+H
PI=HMDB
DATACOLLECTOR=HMDB
SMILES=OC(=O)C\C(=C\C(O)=O)C(O)=O
INCHI=InChI=1S/C6H6O6/c7-4(8)1-3(6(11)12)2-5(9)10/h1H,2H2,(H,7,8)(H,9,10)(H,11,12)/b3-1-
INCHIAUX=N/A
PUBMED=N/A
SUBMITUSER=mwang87
TAGS=
LIBRARYQUALITY=3
SPECTRUMID=CCMSLIB00000426998
SCANS=1970
41.37 100.0 
85.035 51.923 
128.863 3.149 
END IONS

BEGIN IONS
PEPMASS=427.096
CHARGE=1+
MSLEVEL=2
SOURCE_INSTRUMENT=Positive-Quattro_QQQ:25eV
FILENAME=hmdb_intermediate.mgf
SEQ=*..*
IONMODE=Positive
ORGANISM=HMDB
NAME=HMDB:HMDB00656-895 Cysteineglutathione disulfide M+H
PI=HMDB
DATACOLLECTOR=HMDB
SMILES=N[C@@H](CCC(=O)N[C@@H](CSSCC(N)C(O)=O)C(=O)NCC(O)=O)C(O)=O
INCHI=InChI=1S/C13H22N4O8S2/c14-6(12(22)23)1-2-9(18)17-8(11(21)16-3-10(19)20)5-27-26-4-7(15)13(24)25/h6-8H,1-5,14-15H2,(H,16,21)(H,17,18)(H,19,20)(H,22,23)(H,24,25)/t6-,7?,8-/m0/s1
INCHIAUX=N/A
PUBMED=N/A
SUBMITUSER=mwang87
TAGS=
LIBRARYQUALITY=3
SPECTRUMID=CCMSLIB00000426999
SCANS=1971
54.597 33.11 
76.319 20.478 
92.029 26.986 
111.298 55.407 
122.59 34.641 
129.34 100.0 
135.968 21.818 
145.665 12.536 
163.709 20.0 
177.089 36.172 
185.313 10.718 
200.535 31.866 
230.858 23.349 
235.032 22.105 
END IONS

BEGIN IONS
PEPMASS=146.082
CHARGE=1+
MSLEVEL=2
SOURCE_INSTRUMENT=Positive-Quattro_QQQ:40eV
FILENAME=hmdb_intermediate.mgf
SEQ=*..*
IONMODE=Positive
ORGANISM=HMDB
NAME=HMDB:HMDB00730-1028 Isobutyrylglycine M+H
PI=HMDB
DATACOLLECTOR=HMDB
SMILES=CC(C)C(=O)NCC(O)=O
INCHI=InChI=1S/C6H11NO3/c1-4(2)6(10)7-3-5(8)9/h4H,3H2,1-2H3,(H,7,10)(H,8,9)
INCHIAUX=N/A
PUBMED=N/A
SUBMITUSER=mwang87
TAGS=
LIBRARYQUALITY=3
SPECTRUMID=CCMSLIB00000427000
SCANS=1972
43.624 100.0 
55.527 2.818 
71.353 6.808 
76.372 3.125 
86.325 2.441 
END IONS

BEGIN IONS
PEPMASS=103.076
CHARGE=1+
MSLEVEL=2
SOURCE_INSTRUMENT=Positive-Quattro_QQQ:25eV
FILENAME=hmdb_intermediate.mgf
SEQ=*..*
IONMODE=Positive
ORGANISM=HMDB
NAME=HMDB:HMDB00718-1006 Isovaleric acid M+H
PI=HMDB
DATACOLLECTOR=HMDB
SMILES=CC(C)CC(O)=O
INCHI=InChI=1S/C5H10O2/c1-4(2)3-5(6)7/h4H,3H2,1-2H3,(H,6,7)
INCHIAUX=N/A
PUBMED=N/A
SUBMITUSER=mwang87
TAGS=
LIBRARYQUALITY=3
SPECTRUMID=CCMSLIB00000427001
SCANS=1973
43.0 100.0 
60.0 7.647 
102.0 7.762 
END IONS

BEGIN IONS
PEPMASS=130.087
CHARGE=1+
MSLEVEL=2
SOURCE_INSTRUMENT=Positive-Quattro_QQQ:25eV
FILENAME=hmdb_intermediate.mgf
SEQ=*..*
IONMODE=Positive
ORGANISM=HMDB
NAME=HMDB:HMDB00070-112 Pipecolic acid M+H
PI=HMDB
DATACOLLECTOR=HMDB
SMILES=OC(=O)C1CCCCN1
INCHI=InChI=1S/C6H11NO2/c8-6(9)5-3-1-2-4-7-5/h5,7H,1-4H2,(H,8,9)
INCHIAUX=N/A
PUBMED=N/A
SUBMITUSER=mwang87
TAGS=
LIBRARYQUALITY=3
SPECTRUMID=CCMSLIB00000427002
SCANS=1974
56.056 27.049 
67.115 2.152 
84.028 100.0 
129.771 3.304 
END IONS

BEGIN IONS
PEPMASS=75.0446
CHARGE=1+
MSLEVEL=2
SOURCE_INSTRUMENT=Positive-Quattro_QQQ:25eV
FILENAME=hmdb_intermediate.mgf
SEQ=*..*
IONMODE=Positive
ORGANISM=HMDB
NAME=HMDB:HMDB00237-398 Propionic acid M+H
PI=HMDB
DATACOLLECTOR=HMDB
SMILES=CCC(O)=O
INCHI=InChI=1S/C3H6O2/c1-2-3(4)5/h2H2,1H3,(H,4,5)
INCHIAUX=N/A
PUBMED=N/A
SUBMITUSER=mwang87
TAGS=
LIBRARYQUALITY=3
SPECTRUMID=CCMSLIB00000427003
SCANS=1975
57.0 14.3920609369 
75.1 100.0 
END IONS

BEGIN IONS
PEPMASS=190.05
CHARGE=1+
MSLEVEL=2
SOURCE_INSTRUMENT=Positive-Quattro_QQQ:40eV
FILENAME=hmdb_intermediate.mgf
SEQ=*..*
IONMODE=Positive
ORGANISM=HMDB
NAME=HMDB:HMDB00715-1001 Kynurenic acid M+H
PI=HMDB
DATACOLLECTOR=HMDB
SMILES=OC(=O)C1=CC(=O)C2=CC=CC=C2N1
INCHI=InChI=1S/C10H7NO3/c12-9-5-8(10(13)14)11-7-4-2-1-3-6(7)9/h1-5H,(H,11,12)(H,13,14)
INCHIAUX=N/A
PUBMED=N/A
SUBMITUSER=mwang87
TAGS=
LIBRARYQUALITY=3
SPECTRUMID=CCMSLIB00000427004
SCANS=1976
63.182 2.786 
89.093 100.0 
100.968 2.306 
115.998 43.976 
143.802 18.373 
END IONS

BEGIN IONS
PEPMASS=112.937
CHARGE=1+
MSLEVEL=2
SOURCE_INSTRUMENT=Positive-Quattro_QQQ:40eV
FILENAME=hmdb_intermediate.mgf
SEQ=*..*
IONMODE=Positive
ORGANISM=HMDB
NAME=HMDB:HMDB00257-447 Thiosulfate M+H
PI=HMDB
DATACOLLECTOR=HMDB
SMILES=[O-]S([S-])(=O)=O
INCHI=InChI=1S/H2O3S2/c1-5(2,3)4/h(H2,1,2,3,4)/p-2
INCHIAUX=N/A
PUBMED=N/A
SUBMITUSER=mwang87
TAGS=
LIBRARYQUALITY=3
SPECTRUMID=CCMSLIB00000427005
SCANS=1977
53.677 53.168 
55.185 100.0 
72.401 93.29 
83.962 49.757 
84.591 43.521 
95.398 50.581 
113.746 40.342 
END IONS

BEGIN IONS
PEPMASS=69.0453
CHARGE=1+
MSLEVEL=2
SOURCE_INSTRUMENT=Positive-Quattro_QQQ:25eV
FILENAME=hmdb_intermediate.mgf
SEQ=*..*
IONMODE=Positive
ORGANISM=HMDB
NAME=HMDB:HMDB01525-1626 Imidazole M+H
PI=HMDB
DATACOLLECTOR=HMDB
SMILES=N1C=CN=C1
INCHI=InChI=1S/C3H4N2/c1-2-5-3-4-1/h1-3H,(H,4,5)
INCHIAUX=N/A
PUBMED=N/A
SUBMITUSER=mwang87
TAGS=
LIBRARYQUALITY=3
SPECTRUMID=CCMSLIB00000427006
SCANS=1978
42.416 24.549 
69.319 100.0 
END IONS

BEGIN IONS
PEPMASS=195.05
CHARGE=1+
MSLEVEL=2
SOURCE_INSTRUMENT=Positive-Quattro_QQQ:40eV
FILENAME=hmdb_intermediate.mgf
SEQ=*..*
IONMODE=Positive
ORGANISM=HMDB
NAME=HMDB:HMDB02545-2118 Galacturonic acid M+H
PI=HMDB
DATACOLLECTOR=HMDB
SMILES=O[C@@H](C=O)[C@@H](O)[C@@H](O)[C@H](O)C(O)=O
INCHI=InChI=1S/C6H10O7/c7-1-2(8)3(9)4(10)5(11)6(12)13/h1-5,8-11H,(H,12,13)/t2-,3+,4+,5-/m0/s1
INCHIAUX=N/A
PUBMED=N/A
SUBMITUSER=mwang87
TAGS=
LIBRARYQUALITY=3
SPECTRUMID=CCMSLIB00000427007
SCANS=1979
41.0 30.398 
64.0 32.861 
76.0 100.0 
92.0 29.879 
END IONS

BEGIN IONS
PEPMASS=159.139
CHARGE=1+
MSLEVEL=2
SOURCE_INSTRUMENT=Positive-Quattro_QQQ:25eV
FILENAME=hmdb_intermediate.mgf
SEQ=*..*
IONMODE=Positive
ORGANISM=HMDB
NAME=HMDB:HMDB00798-1136 Oenanthic ether M+H
PI=HMDB
DATACOLLECTOR=HMDB
SMILES=CCCCCCC(=O)OCC
INCHI=InChI=1S/C9H18O2/c1-3-5-6-7-8-9(10)11-4-2/h3-8H2,1-2H3
INCHIAUX=N/A
PUBMED=N/A
SUBMITUSER=mwang87
TAGS=
LIBRARYQUALITY=3
SPECTRUMID=CCMSLIB00000427008
SCANS=1980
63.0 27.456 
65.0 27.369 
78.0 100.0 
END IONS

BEGIN IONS
PEPMASS=179.107
CHARGE=1+
MSLEVEL=2
SOURCE_INSTRUMENT=Positive-Quattro_QQQ:25eV
FILENAME=hmdb_intermediate.mgf
SEQ=*..*
IONMODE=Positive
ORGANISM=HMDB
NAME=HMDB:HMDB02043-1966 5-Phenylvaleric acid M+H
PI=HMDB
DATACOLLECTOR=HMDB
SMILES=OC(=O)CCCCC1=CC=CC=C1
INCHI=InChI=1S/C11H14O2/c12-11(13)9-5-4-8-10-6-2-1-3-7-10/h1-3,6-7H,4-5,8-9H2,(H,12,13)
INCHIAUX=N/A
PUBMED=N/A
SUBMITUSER=mwang87
TAGS=
LIBRARYQUALITY=3
SPECTRUMID=CCMSLIB00000427009
SCANS=1981
76.0 100.0 
148.0 48.265 
177.0 43.863 
END IONS

BEGIN IONS
PEPMASS=131.13
CHARGE=1+
MSLEVEL=2
SOURCE_INSTRUMENT=Positive-Quattro_QQQ:25eV
FILENAME=hmdb_intermediate.mgf
SEQ=*..*
IONMODE=Positive
ORGANISM=HMDB
NAME=HMDB:HMDB60259-1578 Agmatine M+H
PI=HMDB
DATACOLLECTOR=HMDB
SMILES=NCCCCNC(N)=N
INCHI=InChI=1S/C5H14N4/c6-3-1-2-4-9-5(7)8/h1-4,6H2,(H4,7,8,9)
INCHIAUX=N/A
PUBMED=N/A
SUBMITUSER=mwang87
TAGS=
LIBRARYQUALITY=3
SPECTRUMID=CCMSLIB00000427010
SCANS=1982
72.0 100.0 
97.0 3.833 
END IONS

BEGIN IONS
PEPMASS=189.124
CHARGE=1+
MSLEVEL=2
SOURCE_INSTRUMENT=Positive-Quattro_QQQ:10eV
FILENAME=hmdb_intermediate.mgf
SEQ=*..*
IONMODE=Positive
ORGANISM=HMDB
NAME=HMDB:HMDB00206-331 N6-Acetyl-L-lysine M+H
PI=HMDB
DATACOLLECTOR=HMDB
SMILES=CC(=O)NCCCC[C@H](N)C(O)=O
INCHI=InChI=1S/C8H16N2O3/c1-6(11)10-5-3-2-4-7(9)8(12)13/h7H,2-5,9H2,1H3,(H,10,11)(H,12,13)/t7-/m0/s1
INCHIAUX=N/A
PUBMED=N/A
SUBMITUSER=mwang87
TAGS=
LIBRARYQUALITY=3
SPECTRUMID=CCMSLIB00000427011
SCANS=1983
84.137 23.199 
126.047 100.0 
143.053 21.504 
188.998 70.339 
END IONS

BEGIN IONS
PEPMASS=179.107
CHARGE=1+
MSLEVEL=2
SOURCE_INSTRUMENT=Positive-Quattro_QQQ:40eV
FILENAME=hmdb_intermediate.mgf
SEQ=*..*
IONMODE=Positive
ORGANISM=HMDB
NAME=HMDB:HMDB02043-1967 5-Phenylvaleric acid M+H
PI=HMDB
DATACOLLECTOR=HMDB
SMILES=OC(=O)CCCCC1=CC=CC=C1
INCHI=InChI=1S/C11H14O2/c12-11(13)9-5-4-8-10-6-2-1-3-7-10/h1-3,6-7H,4-5,8-9H2,(H,12,13)
INCHIAUX=N/A
PUBMED=N/A
SUBMITUSER=mwang87
TAGS=
LIBRARYQUALITY=3
SPECTRUMID=CCMSLIB00000427012
SCANS=1984
54.0 17.411 
62.0 22.242 
72.0 100.0 
76.0 91.17 
90.0 44.504 
114.0 41.193 
115.0 21.616 
148.0 24.584 
177.0 45.254 
END IONS

BEGIN IONS
PEPMASS=377.306
CHARGE=1+
MSLEVEL=2
SOURCE_INSTRUMENT=Positive-Quattro_QQQ:25eV
FILENAME=hmdb_intermediate.mgf
SEQ=*..*
IONMODE=Positive
ORGANISM=HMDB
NAME=HMDB:HMDB00761-1093 Lithocholic acid M+H
PI=HMDB
DATACOLLECTOR=HMDB
SMILES=[H][C@@]12CC[C@H]([C@H](C)CCC(O)=O)[C@@]1(C)CC[C@@]1([H])[C@@]2([H])CCC2C[C@H](O)CC[C@]12C
INCHI=InChI=1S/C24H40O3/c1-15(4-9-22(26)27)19-7-8-20-18-6-5-16-14-17(25)10-12-23(16,2)21(18)11-13-24(19,20)3/h15-21,25H,4-14H2,1-3H3,(H,26,27)/t15-,16?,17-,18+,19-,20+,21+,23+,24-/m1/s1
INCHIAUX=N/A
PUBMED=N/A
SUBMITUSER=mwang87
TAGS=
LIBRARYQUALITY=3
SPECTRUMID=CCMSLIB00000427013
SCANS=1985
90.0 100.0 
END IONS

BEGIN IONS
PEPMASS=157.159
CHARGE=1+
MSLEVEL=2
SOURCE_INSTRUMENT=Positive-Quattro_QQQ:25eV
FILENAME=hmdb_intermediate.mgf
SEQ=*..*
IONMODE=Positive
ORGANISM=HMDB
NAME=HMDB:HMDB03352-2260 Menthol M+H
PI=HMDB
DATACOLLECTOR=HMDB
SMILES=CC(C)[C@@H]1CC[C@@H](C)C[C@H]1O
INCHI=InChI=1S/C10H20O/c1-7(2)9-5-4-8(3)6-10(9)11/h7-11H,4-6H2,1-3H3/t8-,9+,10-/m1/s1
INCHIAUX=N/A
PUBMED=N/A
SUBMITUSER=mwang87
TAGS=
LIBRARYQUALITY=3
SPECTRUMID=CCMSLIB00000427014
SCANS=1986
41.0 47.122 
54.0 79.182 
56.0 52.513 
68.0 100.0 
84.0 37.903 
85.0 58.986 
END IONS

BEGIN IONS
PEPMASS=173.021
CHARGE=1+
MSLEVEL=2
SOURCE_INSTRUMENT=Positive-Quattro_QQQ:25eV
FILENAME=hmdb_intermediate.mgf
SEQ=*..*
IONMODE=Positive
ORGANISM=HMDB
NAME=HMDB:HMDB00126-190 Glycerol 3-phosphate M+H
PI=HMDB
DATACOLLECTOR=HMDB
SMILES=OC[C@@H](O)COP(O)(O)=O
INCHI=InChI=1S/C3H9O6P/c4-1-3(5)2-9-10(6,7)8/h3-5H,1-2H2,(H2,6,7,8)/t3-/m1/s1
INCHIAUX=N/A
PUBMED=N/A
SUBMITUSER=mwang87
TAGS=
LIBRARYQUALITY=3
SPECTRUMID=CCMSLIB00000427015
SCANS=1987
69.0 86.582 
79.0 30.732 
87.0 100.0 
101.0 59.622 
119.0 33.817 
151.0 26.487 
END IONS

BEGIN IONS
PEPMASS=192.066
CHARGE=1+
MSLEVEL=2
SOURCE_INSTRUMENT=Positive-Quattro_QQQ:10eV
FILENAME=hmdb_intermediate.mgf
SEQ=*..*
IONMODE=Positive
ORGANISM=HMDB
NAME=HMDB:HMDB00763-1095 5-Hydroxyindoleacetic acid M+H
PI=HMDB
DATACOLLECTOR=HMDB
SMILES=OC(=O)CC1=CNC2=CC=C(O)C=C12
INCHI=InChI=1S/C10H9NO3/c12-7-1-2-9-8(4-7)6(5-11-9)3-10(13)14/h1-2,4-5,11-12H,3H2,(H,13,14)
INCHIAUX=N/A
PUBMED=N/A
SUBMITUSER=mwang87
TAGS=
LIBRARYQUALITY=3
SPECTRUMID=CCMSLIB00000427016
SCANS=1988
145.996 100.0 
191.948 36.538 
END IONS

BEGIN IONS
PEPMASS=245.077
CHARGE=1+
MSLEVEL=2
SOURCE_INSTRUMENT=Positive-Quattro_QQQ:40eV
FILENAME=hmdb_intermediate.mgf
SEQ=*..*
IONMODE=Positive
ORGANISM=HMDB
NAME=HMDB:HMDB00296-506 Uridine M+H
PI=HMDB
DATACOLLECTOR=HMDB
SMILES=OC[C@H]1O[C@H]([C@H](O)[C@@H]1O)N1C=CC(=O)NC1=O
INCHI=InChI=1S/C9H12N2O6/c12-3-4-6(14)7(15)8(17-4)11-2-1-5(13)10-9(11)16/h1-2,4,6-8,12,14-15H,3H2,(H,10,13,16)/t4-,6-,7-,8-/m1/s1
INCHIAUX=N/A
PUBMED=N/A
SUBMITUSER=mwang87
TAGS=
LIBRARYQUALITY=3
SPECTRUMID=CCMSLIB00000427017
SCANS=1989
43.331 18.671 
45.337 10.443 
57.218 25.949 
70.099 100.0 
85.088 9.968 
95.971 53.165 
112.983 87.342 
END IONS

BEGIN IONS
PEPMASS=273.185
CHARGE=1+
MSLEVEL=2
SOURCE_INSTRUMENT=Positive-Quattro_QQQ:10eV
FILENAME=hmdb_intermediate.mgf
SEQ=*..*
IONMODE=Positive
ORGANISM=HMDB
NAME=HMDB:HMDB00429-632 17a-Estradiol M+H
PI=HMDB
DATACOLLECTOR=HMDB
SMILES=[H][C@@]12CC[C@@H](O)[C@@]1(C)CC[C@]1([H])C3=C(CC[C@@]21[H])C=C(O)C=C3
INCHI=InChI=1S/C18H24O2/c1-18-9-8-14-13-5-3-12(19)10-11(13)2-4-15(14)16(18)6-7-17(18)20/h3,5,10,14-17,19-20H,2,4,6-9H2,1H3/t14-,15-,16+,17-,18+/m1/s1
INCHIAUX=N/A
PUBMED=N/A
SUBMITUSER=mwang87
TAGS=
LIBRARYQUALITY=3
SPECTRUMID=CCMSLIB00000427018
SCANS=1990
272.0 100.0 
END IONS

BEGIN IONS
PEPMASS=295.129
CHARGE=1+
MSLEVEL=2
SOURCE_INSTRUMENT=Positive-Quattro_QQQ:25eV
FILENAME=hmdb_intermediate.mgf
SEQ=*..*
IONMODE=Positive
ORGANISM=HMDB
NAME=HMDB:HMDB01894-1808 Aspartame M+H
PI=HMDB
DATACOLLECTOR=HMDB
SMILES=COC(=O)[C@H](CC1=CC=CC=C1)NC(=O)[C@@H](N)CC(O)=O
INCHI=InChI=1S/C14H18N2O5/c1-21-14(20)11(7-9-5-3-2-4-6-9)16-13(19)10(15)8-12(17)18/h2-6,10-11H,7-8,15H2,1H3,(H,16,19)(H,17,18)/t10-,11-/m0/s1
INCHIAUX=N/A
PUBMED=N/A
SUBMITUSER=mwang87
TAGS=
LIBRARYQUALITY=3
SPECTRUMID=CCMSLIB00000427019
SCANS=1991
69.722 22.074 
91.315 31.899 
103.353 13.577 
120.355 100.0 
130.656 21.543 
171.489 11.406 
174.841 16.592 
199.665 10.016 
END IONS

BEGIN IONS
PEPMASS=181.071
CHARGE=1+
MSLEVEL=2
SOURCE_INSTRUMENT=Positive-Quattro_QQQ:10eV
FILENAME=hmdb_intermediate.mgf
SEQ=*..*
IONMODE=Positive
ORGANISM=HMDB
NAME=HMDB:HMDB03418-2298 D-Tagatose M+H
PI=HMDB
DATACOLLECTOR=HMDB
SMILES=OC[C@@H](O)[C@H](O)[C@H](O)C(=O)CO
INCHI=InChI=1S/C6H12O6/c7-1-3(9)5(11)6(12)4(10)2-8/h3,5-9,11-12H,1-2H2/t3-,5+,6-/m1/s1
INCHIAUX=N/A
PUBMED=N/A
SUBMITUSER=mwang87
TAGS=
LIBRARYQUALITY=3
SPECTRUMID=CCMSLIB00000427020
SCANS=1992
98.75 28.574 
139.59 46.72 
180.68 100.0 
END IONS

BEGIN IONS
PEPMASS=297.185
CHARGE=1+
MSLEVEL=2
SOURCE_INSTRUMENT=Positive-Quattro_QQQ:40eV
FILENAME=hmdb_intermediate.mgf
SEQ=*..*
IONMODE=Positive
ORGANISM=HMDB
NAME=HMDB:HMDB01926-1859 17a-Ethynylestradiol M+H
PI=HMDB
DATACOLLECTOR=HMDB
SMILES=[H][C@@]12CC[C@@](O)(C#C)[C@@]1(C)CC[C@]1([H])C3=CC=C(O)C=C3CC[C@@]21[H]
INCHI=InChI=1S/C20H24O2/c1-3-20(22)11-9-18-17-6-4-13-12-14(21)5-7-15(13)16(17)8-10-19(18,20)2/h1,5,7,12,16-18,21-22H,4,6,8-11H2,2H3/t16-,17-,18+,19+,20+/m1/s1
INCHIAUX=N/A
PUBMED=N/A
SUBMITUSER=mwang87
TAGS=
LIBRARYQUALITY=3
SPECTRUMID=CCMSLIB00000427021
SCANS=1993
79.128 81.132 
95.955 18.396 
106.757 100.0 
117.349 19.104 
133.39 19.575 
140.633 36.557 
145.598 46.226 
156.339 15.566 
164.653 12.5 
177.697 42.217 
193.811 18.632 
196.371 43.632 
206.677 39.151 
220.722 34.434 
END IONS

BEGIN IONS
PEPMASS=191.103
CHARGE=1+
MSLEVEL=2
SOURCE_INSTRUMENT=Positive-Quattro_QQQ:40eV
FILENAME=hmdb_intermediate.mgf
SEQ=*..*
IONMODE=Positive
ORGANISM=HMDB
NAME=HMDB:HMDB01370-1540 Diaminopimelic acid M+H
PI=HMDB
DATACOLLECTOR=HMDB
SMILES=N[C@@H](CCC[C@H](N)C(O)=O)C(O)=O
INCHI=InChI=1S/C7H14N2O4/c8-4(6(10)11)2-1-3-5(9)7(12)13/h4-5H,1-3,8-9H2,(H,10,11)(H,12,13)/t4-,5-/m0/s1
INCHIAUX=N/A
PUBMED=N/A
SUBMITUSER=mwang87
TAGS=
LIBRARYQUALITY=3
SPECTRUMID=CCMSLIB00000427022
SCANS=1994
67.0 10.735 
82.0 100.0 
128.0 4.999 
END IONS

BEGIN IONS
PEPMASS=73.029
CHARGE=1+
MSLEVEL=2
SOURCE_INSTRUMENT=Positive-Quattro_QQQ:40eV
FILENAME=hmdb_intermediate.mgf
SEQ=*..*
IONMODE=Positive
ORGANISM=HMDB
NAME=HMDB:HMDB01167-1444 Pyruvaldehyde M+H
PI=HMDB
DATACOLLECTOR=HMDB
SMILES=CC(=O)C=O
INCHI=InChI=1S/C3H4O2/c1-3(5)2-4/h2H,1H3
INCHIAUX=N/A
PUBMED=N/A
SUBMITUSER=mwang87
TAGS=
LIBRARYQUALITY=3
SPECTRUMID=CCMSLIB00000427023
SCANS=1995
41.0 33.909 
45.0 79.186 
55.0 14.77 
73.0 100.0 
END IONS

BEGIN IONS
PEPMASS=313.311
CHARGE=1+
MSLEVEL=2
SOURCE_INSTRUMENT=Positive-Quattro_QQQ:25eV
FILENAME=hmdb_intermediate.mgf
SEQ=*..*
IONMODE=Positive
ORGANISM=HMDB
NAME=HMDB:HMDB00801-1139 Phytanic acid M+H
PI=HMDB
DATACOLLECTOR=HMDB
SMILES=CC(C)CCCC(C)CCCC(C)CCCC(C)CC(O)=O
INCHI=InChI=1S/C20H40O2/c1-16(2)9-6-10-17(3)11-7-12-18(4)13-8-14-19(5)15-20(21)22/h16-19H,6-15H2,1-5H3,(H,21,22)
INCHIAUX=N/A
PUBMED=N/A
SUBMITUSER=mwang87
TAGS=
LIBRARYQUALITY=3
SPECTRUMID=CCMSLIB00000427024
SCANS=1996
71.1 100.0 
83.0 38.232 
84.97 43.195 
95.27 51.692 
END IONS

BEGIN IONS
PEPMASS=159.066
CHARGE=1+
MSLEVEL=2
SOURCE_INSTRUMENT=Negative-Quattro_QQQ:10eV
FILENAME=hmdb_intermediate.mgf
SEQ=*..*
IONMODE=Negative
ORGANISM=HMDB
NAME=HMDB:HMDB00555-776 3-Methyladipic acid M-H
PI=HMDB
DATACOLLECTOR=HMDB
SMILES=C[C@@H](CCC(O)=O)CC(O)=O
INCHI=InChI=1S/C7H12O4/c1-5(4-7(10)11)2-3-6(8)9/h5H,2-4H2,1H3,(H,8,9)(H,10,11)/t5-/m0/s1
INCHIAUX=N/A
PUBMED=N/A
SUBMITUSER=mwang87
TAGS=
LIBRARYQUALITY=3
SPECTRUMID=CCMSLIB00000427025
SCANS=1997
97.311 57.874 
115.236 50.394 
141.152 12.008 
159.133 100.0 
END IONS

BEGIN IONS
PEPMASS=227.201
CHARGE=1+
MSLEVEL=2
SOURCE_INSTRUMENT=Negative-Quattro_QQQ:25eV
FILENAME=hmdb_intermediate.mgf
SEQ=*..*
IONMODE=Negative
ORGANISM=HMDB
NAME=HMDB:HMDB00806-1151 Myristic acid M-H
PI=HMDB
DATACOLLECTOR=HMDB
SMILES=CCCCCCCCCCCCCC(O)=O
INCHI=InChI=1S/C14H28O2/c1-2-3-4-5-6-7-8-9-10-11-12-13-14(15)16/h2-13H2,1H3,(H,15,16)
INCHIAUX=N/A
PUBMED=N/A
SUBMITUSER=mwang87
TAGS=
LIBRARYQUALITY=3
SPECTRUMID=CCMSLIB00000427026
SCANS=1998
45.335 7.974 
69.093 6.595 
80.107 5.043 
209.064 9.914 
227.078 100.0 
END IONS

BEGIN IONS
PEPMASS=191.092
CHARGE=1+
MSLEVEL=2
SOURCE_INSTRUMENT=Positive-Quattro_QQQ:10eV
FILENAME=hmdb_intermediate.mgf
SEQ=*..*
IONMODE=Positive
ORGANISM=HMDB
NAME=HMDB:HMDB00325-537 3-Hydroxysuberic acid M+H
PI=HMDB
DATACOLLECTOR=HMDB
SMILES=OC(CCCCC(O)=O)CC(O)=O
INCHI=InChI=1S/C8H14O5/c9-6(5-8(12)13)3-1-2-4-7(10)11/h6,9H,1-5H2,(H,10,11)(H,12,13)
INCHIAUX=N/A
PUBMED=N/A
SUBMITUSER=mwang87
TAGS=
LIBRARYQUALITY=3
SPECTRUMID=CCMSLIB00000427027
SCANS=1999
109.0 12.37 
137.0 100.0 
155.0 77.729 
173.0 20.802 
191.0 17.68 
END IONS

BEGIN IONS
PEPMASS=147.066
CHARGE=1+
MSLEVEL=2
SOURCE_INSTRUMENT=Positive-Quattro_QQQ:10eV
FILENAME=hmdb_intermediate.mgf
SEQ=*..*
IONMODE=Positive
ORGANISM=HMDB
NAME=HMDB:HMDB00422-624 2-Methylglutaric acid M+H
PI=HMDB
DATACOLLECTOR=HMDB
SMILES=CC(CCC(O)=O)C(O)=O
INCHI=InChI=1S/C6H10O4/c1-4(6(9)10)2-3-5(7)8/h4H,2-3H2,1H3,(H,7,8)(H,9,10)
INCHIAUX=N/A
PUBMED=N/A
SUBMITUSER=mwang87
TAGS=
LIBRARYQUALITY=3
SPECTRUMID=CCMSLIB00000427028
SCANS=2000
83.0 24.173 
85.0 50.984 
101.0 90.587 
105.0 67.313 
115.0 100.0 
129.0 47.436 
147.0 85.728 
END IONS

BEGIN IONS
PEPMASS=508.988
CHARGE=1+
MSLEVEL=2
SOURCE_INSTRUMENT=Positive-Quattro_QQQ:40eV
FILENAME=hmdb_intermediate.mgf
SEQ=*..*
IONMODE=Positive
ORGANISM=HMDB
NAME=HMDB:HMDB00189-300 Inosine triphosphate M+H
PI=HMDB
DATACOLLECTOR=HMDB
SMILES=O[C@@H]1[C@@H](COP(O)(=O)OP(O)(=O)OP(O)(O)=O)O[C@H]([C@@H]1O)N1C=NC2=C1N=CN=C2O
INCHI=InChI=1S/C10H15N4O14P3/c15-6-4(1-25-30(21,22)28-31(23,24)27-29(18,19)20)26-10(7(6)16)14-3-13-5-8(14)11-2-12-9(5)17/h2-4,6-7,10,15-16H,1H2,(H,21,22)(H,23,24)(H,11,12,17)(H2,18,19,20)/t4-,6-,7-,10-/m1/s1
INCHIAUX=N/A
PUBMED=N/A
SUBMITUSER=mwang87
TAGS=
LIBRARYQUALITY=3
SPECTRUMID=CCMSLIB00000427029
SCANS=2001
97.0 44.784 
137.0 100.0 
END IONS

BEGIN IONS
PEPMASS=163.108
CHARGE=1+
MSLEVEL=2
SOURCE_INSTRUMENT=Positive-Quattro_QQQ:10eV
FILENAME=hmdb_intermediate.mgf
SEQ=*..*
IONMODE=Positive
ORGANISM=HMDB
NAME=HMDB:HMDB00450-656 5-Hydroxylysine M+H
PI=HMDB
DATACOLLECTOR=HMDB
SMILES=NC[C@H](O)CC[C@H](N)C(O)=O
INCHI=InChI=1S/C6H14N2O3/c7-3-4(9)1-2-5(8)6(10)11/h4-5,9H,1-3,7-8H2,(H,10,11)/t4-,5+/m1/s1
INCHIAUX=N/A
PUBMED=N/A
SUBMITUSER=mwang87
TAGS=
LIBRARYQUALITY=3
SPECTRUMID=CCMSLIB00000427030
SCANS=2002
82.0 27.54 
100.0 20.245 
128.0 100.0 
145.0 33.652 
163.0 34.836 
END IONS

BEGIN IONS
PEPMASS=173.081
CHARGE=1+
MSLEVEL=2
SOURCE_INSTRUMENT=Negative-Quattro_QQQ:40eV
FILENAME=hmdb_intermediate.mgf
SEQ=*..*
IONMODE=Negative
ORGANISM=HMDB
NAME=HMDB:HMDB00893-1258 Suberic acid M-H
PI=HMDB
DATACOLLECTOR=HMDB
SMILES=OC(=O)CCCCCCC(O)=O
INCHI=InChI=1S/C8H14O4/c9-7(10)5-3-1-2-4-6-8(11)12/h1-6H2,(H,9,10)(H,11,12)
INCHIAUX=N/A
PUBMED=N/A
SUBMITUSER=mwang87
TAGS=
LIBRARYQUALITY=3
SPECTRUMID=CCMSLIB00000427031
SCANS=2003
41.354 24.879 
54.285 46.117 
57.226 87.864 
67.178 41.748 
81.08 100.0 
111.017 33.495 
172.994 50.971 
END IONS

BEGIN IONS
PEPMASS=61.0402
CHARGE=1+
MSLEVEL=2
SOURCE_INSTRUMENT=Positive-Quattro_QQQ:40eV
FILENAME=hmdb_intermediate.mgf
SEQ=*..*
IONMODE=Positive
ORGANISM=HMDB
NAME=HMDB:HMDB00294-500 Urea M+H
PI=HMDB
DATACOLLECTOR=HMDB
SMILES=NC(N)=O
INCHI=InChI=1S/CH4N2O/c2-1(3)4/h(H4,2,3,4)
INCHIAUX=N/A
PUBMED=N/A
SUBMITUSER=mwang87
TAGS=
LIBRARYQUALITY=3
SPECTRUMID=CCMSLIB00000427032
SCANS=2004
43.0 19.73 
56.0 32.72 
67.0 10.503 
84.0 100.0 
129.0 2.71 
189.0 3.182 
END IONS

BEGIN IONS
PEPMASS=60.0813
CHARGE=1+
MSLEVEL=2
SOURCE_INSTRUMENT=Positive-Quattro_QQQ:40eV
FILENAME=hmdb_intermediate.mgf
SEQ=*..*
IONMODE=Positive
ORGANISM=HMDB
NAME=HMDB:HMDB00906-1294 Trimethylamine M+H
PI=HMDB
DATACOLLECTOR=HMDB
SMILES=CN(C)C
INCHI=InChI=1S/C3H9N/c1-4(2)3/h1-3H3
INCHIAUX=N/A
PUBMED=N/A
SUBMITUSER=mwang87
TAGS=
LIBRARYQUALITY=3
SPECTRUMID=CCMSLIB00000427033
SCANS=2005
43.0 100.0 
59.0 37.755 
END IONS

BEGIN IONS
PEPMASS=297.185
CHARGE=1+
MSLEVEL=2
SOURCE_INSTRUMENT=Positive-Quattro_QQQ:10eV
FILENAME=hmdb_intermediate.mgf
SEQ=*..*
IONMODE=Positive
ORGANISM=HMDB
NAME=HMDB:HMDB01926-1857 17a-Ethynylestradiol M+H
PI=HMDB
DATACOLLECTOR=HMDB
SMILES=[H][C@@]12CC[C@@](O)(C#C)[C@@]1(C)CC[C@]1([H])C3=CC=C(O)C=C3CC[C@@]21[H]
INCHI=InChI=1S/C20H24O2/c1-3-20(22)11-9-18-17-6-4-13-12-14(21)5-7-15(13)16(17)8-10-19(18,20)2/h1,5,7,12,16-18,21-22H,4,6,8-11H2,2H3/t16-,17-,18+,19+,20+/m1/s1
INCHIAUX=N/A
PUBMED=N/A
SUBMITUSER=mwang87
TAGS=
LIBRARYQUALITY=3
SPECTRUMID=CCMSLIB00000427034
SCANS=2006
63.55 11.157 
92.544 15.289 
107.101 18.182 
123.359 11.57 
135.731 17.769 
172.311 22.107 
189.236 19.628 
218.185 21.281 
237.274 37.603 
253.32 39.05 
260.886 15.702 
264.939 14.256 
296.978 100.0 
END IONS

BEGIN IONS
PEPMASS=153.076
CHARGE=1+
MSLEVEL=2
SOURCE_INSTRUMENT=Positive-Quattro_QQQ:25eV
FILENAME=hmdb_intermediate.mgf
SEQ=*..*
IONMODE=Positive
ORGANISM=HMDB
NAME=HMDB:HMDB02917-2161 D-Xylitol M+H
PI=HMDB
DATACOLLECTOR=HMDB
SMILES=OC[C@H](O)C(O)[C@H](O)CO
INCHI=InChI=1S/C5H12O5/c6-1-3(8)5(10)4(9)2-7/h3-10H,1-2H2/t3-,4+,5?
INCHIAUX=N/A
PUBMED=N/A
SUBMITUSER=mwang87
TAGS=
LIBRARYQUALITY=3
SPECTRUMID=CCMSLIB00000427035
SCANS=2007
61.0 51.997 
69.0 100.0 
END IONS

BEGIN IONS
PEPMASS=623.577
CHARGE=1+
MSLEVEL=2
SOURCE_INSTRUMENT=Positive-Quattro_QQQ:25eV
FILENAME=hmdb_intermediate.mgf
SEQ=*..*
IONMODE=Positive
ORGANISM=HMDB
NAME=HMDB:HMDB00658-898 CE(16:1(9Z)) M+H
PI=HMDB
DATACOLLECTOR=HMDB
SMILES=CCCCCC\C=C/CCCCCCCC(=O)OC1CC[C@@]2(C)C(=CCC3C4CC[C@H]([C@H](C)CCCC(C)C)[C@@]4(C)CCC23)C1
INCHI=InChI=1S/C43H74O2/c1-7-8-9-10-11-12-13-14-15-16-17-18-19-23-41(44)45-36-28-30-42(5)35(32-36)24-25-37-39-27-26-38(34(4)22-20-21-33(2)3)43(39,6)31-29-40(37)42/h12-13,24,33-34,36-40H,7-11,14-23,25-32H2,1-6H3/b13-12-/t34-,36?,37?,38-,39?,40?,42+,43-/m1/s1
INCHIAUX=N/A
PUBMED=N/A
SUBMITUSER=mwang87
TAGS=
LIBRARYQUALITY=3
SPECTRUMID=CCMSLIB00000427036
SCANS=2008
107.0 25.277 
366.0 26.85 
623.0 100.0 
END IONS

BEGIN IONS
PEPMASS=146.093
CHARGE=1+
MSLEVEL=2
SOURCE_INSTRUMENT=Positive-Quattro_QQQ:40eV
FILENAME=hmdb_intermediate.mgf
SEQ=*..*
IONMODE=Positive
ORGANISM=HMDB
NAME=HMDB:HMDB03464-2321 4-Guanidinobutanoic acid M+H
PI=HMDB
DATACOLLECTOR=HMDB
SMILES=NC(N)=NCCCC(O)=O
INCHI=InChI=1S/C5H11N3O2/c6-5(7)8-3-1-2-4(9)10/h1-3H2,(H,9,10)(H4,6,7,8)
INCHIAUX=N/A
PUBMED=N/A
SUBMITUSER=mwang87
TAGS=
LIBRARYQUALITY=3
SPECTRUMID=CCMSLIB00000427037
SCANS=2009
9.0 100.0 
73.0 8.914 
86.0 87.304 
146.0 8.1 
END IONS

BEGIN IONS
PEPMASS=174.088
CHARGE=1+
MSLEVEL=2
SOURCE_INSTRUMENT=Positive-Quattro_QQQ:25eV
FILENAME=hmdb_intermediate.mgf
SEQ=*..*
IONMODE=Positive
ORGANISM=HMDB
NAME=HMDB:HMDB04225-2374 2-Oxoarginine M+H
PI=HMDB
DATACOLLECTOR=HMDB
SMILES=NC(N)=NCCCC(=O)C(O)=O
INCHI=InChI=1S/C6H11N3O3/c7-6(8)9-3-1-2-4(10)5(11)12/h1-3H2,(H,11,12)(H4,7,8,9)
INCHIAUX=N/A
PUBMED=N/A
SUBMITUSER=mwang87
TAGS=
LIBRARYQUALITY=3
SPECTRUMID=CCMSLIB00000427038
SCANS=2010
40.96 33.526 
66.1 31.198 
78.51 87.738 
92.13 71.06 
105.33 48.058 
131.83 100.0 
END IONS

BEGIN IONS
PEPMASS=377.306
CHARGE=1+
MSLEVEL=2
SOURCE_INSTRUMENT=Positive-Quattro_QQQ:10eV
FILENAME=hmdb_intermediate.mgf
SEQ=*..*
IONMODE=Positive
ORGANISM=HMDB
NAME=HMDB:HMDB00761-1092 Lithocholic acid M+H
PI=HMDB
DATACOLLECTOR=HMDB
SMILES=[H][C@@]12CC[C@H]([C@H](C)CCC(O)=O)[C@@]1(C)CC[C@@]1([H])[C@@]2([H])CCC2C[C@H](O)CC[C@]12C
INCHI=InChI=1S/C24H40O3/c1-15(4-9-22(26)27)19-7-8-20-18-6-5-16-14-17(25)10-12-23(16,2)21(18)11-13-24(19,20)3/h15-21,25H,4-14H2,1-3H3,(H,26,27)/t15-,16?,17-,18+,19-,20+,21+,23+,24-/m1/s1
INCHIAUX=N/A
PUBMED=N/A
SUBMITUSER=mwang87
TAGS=
LIBRARYQUALITY=3
SPECTRUMID=CCMSLIB00000427039
SCANS=2011
376.0 100.0 
END IONS

BEGIN IONS
PEPMASS=269.063
CHARGE=1+
MSLEVEL=2
SOURCE_INSTRUMENT=Positive-Quattro_QQQ:25eV
FILENAME=hmdb_intermediate.mgf
SEQ=*..*
IONMODE=Positive
ORGANISM=HMDB
NAME=HMDB:HMDB00575-804 DL-Homocystine M+H
PI=HMDB
DATACOLLECTOR=HMDB
SMILES=NC(CCSSCCC(N)C(O)=O)C(O)=O
INCHI=InChI=1S/C8H16N2O4S2/c9-5(7(11)12)1-3-15-16-4-2-6(10)8(13)14/h5-6H,1-4,9-10H2,(H,11,12)(H,13,14)
INCHIAUX=N/A
PUBMED=N/A
SUBMITUSER=mwang87
TAGS=
LIBRARYQUALITY=3
SPECTRUMID=CCMSLIB00000427040
SCANS=2012
56.0 8.0 
87.0 100.0 
118.0 8.857 
133.0 36.547 
135.0 19.929 
END IONS

BEGIN IONS
PEPMASS=197.066
CHARGE=1+
MSLEVEL=2
SOURCE_INSTRUMENT=Positive-Quattro_QQQ:10eV
FILENAME=hmdb_intermediate.mgf
SEQ=*..*
IONMODE=Positive
ORGANISM=HMDB
NAME=HMDB:HMDB03290-2230 Gulonic acid M+H
PI=HMDB
DATACOLLECTOR=HMDB
SMILES=OC[C@@H](O)[C@H](O)[C@@H](O)[C@@H](O)C(O)=O
INCHI=InChI=1S/C6H12O7/c7-1-2(8)3(9)4(10)5(11)6(12)13/h2-5,7-11H,1H2,(H,12,13)/t2-,3+,4-,5-/m1/s1
INCHIAUX=N/A
PUBMED=N/A
SUBMITUSER=mwang87
TAGS=
LIBRARYQUALITY=3
SPECTRUMID=CCMSLIB00000427041
SCANS=2013
147.0 22.625 
161.0 25.492 
179.0 36.103 
197.0 100.0 
END IONS

BEGIN IONS
PEPMASS=142.098
CHARGE=1+
MSLEVEL=2
SOURCE_INSTRUMENT=Positive-Quattro_QQQ:25eV
FILENAME=hmdb_intermediate.mgf
SEQ=*..*
IONMODE=Positive
ORGANISM=HMDB
NAME=HMDB:HMDB03431-2308 L-Histidinol M+H
PI=HMDB
DATACOLLECTOR=HMDB
SMILES=N[C@H](CO)CC1=CN=CN1
INCHI=InChI=1S/C6H11N3O/c7-5(3-10)1-6-2-8-4-9-6/h2,4-5,10H,1,3,7H2,(H,8,9)/t5-/m0/s1
INCHIAUX=N/A
PUBMED=N/A
SUBMITUSER=mwang87
TAGS=
LIBRARYQUALITY=3
SPECTRUMID=CCMSLIB00000427042
SCANS=2014
68.0 5.557 
81.0 100.0 
95.0 17.563 
END IONS

BEGIN IONS
PEPMASS=162.092
CHARGE=1+
MSLEVEL=2
SOURCE_INSTRUMENT=Positive-Quattro_QQQ:25eV
FILENAME=hmdb_intermediate.mgf
SEQ=*..*
IONMODE=Positive
ORGANISM=HMDB
NAME=HMDB:HMDB03447-2314 Tryptophanol M+H
PI=HMDB
DATACOLLECTOR=HMDB
SMILES=OCCC1=CNC2=CC=CC=C12
INCHI=InChI=1S/C10H11NO/c12-6-5-8-7-11-10-4-2-1-3-9(8)10/h1-4,7,11-12H,5-6H2
INCHIAUX=N/A
PUBMED=N/A
SUBMITUSER=mwang87
TAGS=
LIBRARYQUALITY=3
SPECTRUMID=CCMSLIB00000427043
SCANS=2015
77.0 8.182 
91.0 19.645 
103.0 7.634 
117.0 69.726 
127.0 38.765 
143.0 100.0 
END IONS

BEGIN IONS
PEPMASS=72.9926
CHARGE=1+
MSLEVEL=2
SOURCE_INSTRUMENT=Negative-Quattro_QQQ:40eV
FILENAME=hmdb_intermediate.mgf
SEQ=*..*
IONMODE=Negative
ORGANISM=HMDB
NAME=HMDB:HMDB00119-173 Glyoxylic acid M-H
PI=HMDB
DATACOLLECTOR=HMDB
SMILES=OC(=O)C=O
INCHI=InChI=1S/C2H2O3/c3-1-2(4)5/h1H,(H,4,5)
INCHIAUX=N/A
PUBMED=N/A
SUBMITUSER=mwang87
TAGS=
LIBRARYQUALITY=3
SPECTRUMID=CCMSLIB00000427044
SCANS=2016
44.292 5.112 
45.252 9.732 
72.907 100.0 
END IONS

BEGIN IONS
PEPMASS=195.077
CHARGE=1+
MSLEVEL=2
SOURCE_INSTRUMENT=Positive-Quattro_QQQ:10eV
FILENAME=hmdb_intermediate.mgf
SEQ=*..*
IONMODE=Positive
ORGANISM=HMDB
NAME=HMDB:HMDB01867-1750 4-Aminohippuric acid M+H
PI=HMDB
DATACOLLECTOR=HMDB
SMILES=NC1=CC=C(C=C1)C(=O)NCC(O)=O
INCHI=InChI=1S/C9H10N2O3/c10-7-3-1-6(2-4-7)9(14)11-5-8(12)13/h1-4H,5,10H2,(H,11,14)(H,12,13)
INCHIAUX=N/A
PUBMED=N/A
SUBMITUSER=mwang87
TAGS=
LIBRARYQUALITY=3
SPECTRUMID=CCMSLIB00000427045
SCANS=2017
57.921 17.222 
84.146 17.826 
88.788 20.736 
96.191 31.166 
112.88 25.951 
120.535 14.258 
124.676 30.343 
138.731 80.899 
153.413 73.16 
166.715 17.003 
177.759 19.638 
194.451 31.769 
194.953 100.0 
END IONS

BEGIN IONS
PEPMASS=174.92
CHARGE=1+
MSLEVEL=2
SOURCE_INSTRUMENT=Positive-Quattro_QQQ:25eV
FILENAME=hmdb_intermediate.mgf
SEQ=*..*
IONMODE=Positive
ORGANISM=HMDB
NAME=HMDB:HMDB00250-428 Pyrophosphate M+H
PI=HMDB
DATACOLLECTOR=HMDB
SMILES=[O-]P([O-])(=O)OP([O-])([O-])=O
INCHI=InChI=1S/H4O7P2/c1-8(2,3)7-9(4,5)6/h(H2,1,2,3)(H2,4,5,6)/p-4
INCHIAUX=N/A
PUBMED=N/A
SUBMITUSER=mwang87
TAGS=
LIBRARYQUALITY=3
SPECTRUMID=CCMSLIB00000427046
SCANS=2018
81.0 25.463 
85.0 3.692 
99.0 100.0 
136.0 3.492 
179.0 1.872 
END IONS

BEGIN IONS
PEPMASS=1347.58
CHARGE=1+
MSLEVEL=2
SOURCE_INSTRUMENT=Positive-Quattro_QQQ:25eV
FILENAME=hmdb_intermediate.mgf
SEQ=*..*
IONMODE=Positive
ORGANISM=HMDB
NAME=HMDB:HMDB02308-2053 Hydroxycobalamin M+H
PI=HMDB
DATACOLLECTOR=HMDB
SMILES=[Co++].O.OC[C@H]1O[C@@]([H])([C@H](O)[C@]1([H])OP(=O)([O-])O[C@H](C)CNC(=O)CC[C@]1(C)[C@@H](CC(=O)N)[C@@]2([H])[N-]\C1=C(C)/C1=N/C(=C\C3=N\C(=C(C)/C4=N[C@]2(C)[C@@](C)(CC(=O)N)[C@@H]4CCC(=O)N)\[C@@](C)(CC(=O)N)[C@@H]3CCC(=O)N)/C(C)(C)[C@@H]1CCC(=O)N)N1C=NC2=C1C=C(C)C(C)=C2
INCHI=InChI=1S/C62H90N13O14P.Co.H2O/c1-29-20-39-40(21-30(29)2)75(28-70-39)57-52(84)53(41(27-76)87-57)89-90(85,86)88-31(3)26-69-49(83)18-19-59(8)37(22-46(66)80)56-62(11)61(10,25-48(68)82)36(14-17-45(65)79)51(74-62)33(5)55-60(9,24-47(67)81)34(12-15-43(63)77)38(71-55)23-42-58(6,7)35(13-16-44(64)78)50(72-42)32(4)54(59)73-56;;/h20-21,23,28,31,34-37,41,52-53,56-57,76,84H,12-19,22,24-27H2,1-11H3,(H15,63,64,65,66,67,68,69,71,72,73,74,77,78,79,80,81,82,83,85,86);;1H2/q;+2;/p-2/t31-,34-,35-,36-,37+,41-,52-,53-,56-,57+,59-,60+,61+,62+;;/m1../s1
INCHIAUX=N/A
PUBMED=N/A
SUBMITUSER=mwang87
TAGS=
LIBRARYQUALITY=3
SPECTRUMID=CCMSLIB00000427047
SCANS=2019
553.0 20.161 
792.0 26.333 
859.0 21.56 
873.0 23.517 
878.0 28.473 
913.0 24.305 
971.0 27.621 
989.0 100.0 
1008.0 20.883 
1084.0 18.611 
1085.0 44.415 
1124.0 19.263 
1143.0 19.476 
1177.0 18.317 
1189.0 17.333 
1202.0 64.509 
END IONS

BEGIN IONS
PEPMASS=302.306
CHARGE=1+
MSLEVEL=2
SOURCE_INSTRUMENT=Positive-Quattro_QQQ:40eV
FILENAME=hmdb_intermediate.mgf
SEQ=*..*
IONMODE=Positive
ORGANISM=HMDB
NAME=HMDB:HMDB00269-471 Sphinganine M+H
PI=HMDB
DATACOLLECTOR=HMDB
SMILES=CCCCCCCCCCCCCCC[C@@H](O)[C@@H](N)CO
INCHI=InChI=1S/C18H39NO2/c1-2-3-4-5-6-7-8-9-10-11-12-13-14-15-18(21)17(19)16-20/h17-18,20-21H,2-16,19H2,1H3/t17-,18+/m0/s1
INCHIAUX=N/A
PUBMED=N/A
SUBMITUSER=mwang87
TAGS=
LIBRARYQUALITY=3
SPECTRUMID=CCMSLIB00000427048
SCANS=2020
55.538 100.0 
68.691 28.217 
80.834 38.863 
95.253 15.905 
END IONS

BEGIN IONS
PEPMASS=87.0446
CHARGE=1+
MSLEVEL=2
SOURCE_INSTRUMENT=Negative-Quattro_QQQ:40eV
FILENAME=hmdb_intermediate.mgf
SEQ=*..*
IONMODE=Negative
ORGANISM=HMDB
NAME=HMDB:HMDB00039-68 Butyric acid M-H
PI=HMDB
DATACOLLECTOR=HMDB
SMILES=CCCC(O)=O
INCHI=InChI=1S/C4H8O2/c1-2-3-4(5)6/h2-3H2,1H3,(H,5,6)
INCHIAUX=N/A
PUBMED=N/A
SUBMITUSER=mwang87
TAGS=
LIBRARYQUALITY=3
SPECTRUMID=CCMSLIB00000427049
SCANS=2021
58.236 11.753 
84.236 10.394 
87.123 100.0 
END IONS

BEGIN IONS
PEPMASS=147.029
CHARGE=1+
MSLEVEL=2
SOURCE_INSTRUMENT=Negative-Quattro_QQQ:40eV
FILENAME=hmdb_intermediate.mgf
SEQ=*..*
IONMODE=Negative
ORGANISM=HMDB
NAME=HMDB:HMDB00426-631 Citramalic acid M-H
PI=HMDB
DATACOLLECTOR=HMDB
SMILES=CC(O)(CC(O)=O)C(O)=O
INCHI=InChI=1S/C5H8O5/c1-5(10,4(8)9)2-3(6)7/h10H,2H2,1H3,(H,6,7)(H,8,9)
INCHIAUX=N/A
PUBMED=N/A
SUBMITUSER=mwang87
TAGS=
LIBRARYQUALITY=3
SPECTRUMID=CCMSLIB00000427050
SCANS=2022
41.606 100.0 
45.509 16.667 
57.436 63.021 
87.222 48.958 
147.101 18.229 
END IONS

BEGIN IONS
PEPMASS=115.076
CHARGE=1+
MSLEVEL=2
SOURCE_INSTRUMENT=Positive-Quattro_QQQ:10eV
FILENAME=hmdb_intermediate.mgf
SEQ=*..*
IONMODE=Positive
ORGANISM=HMDB
NAME=HMDB:HMDB03843-2346 Gamma-Caprolactone M+H
PI=HMDB
DATACOLLECTOR=HMDB
SMILES=CCC1CCC(=O)O1
INCHI=InChI=1S/C6H10O2/c1-2-5-3-4-6(7)8-5/h5H,2-4H2,1H3
INCHIAUX=N/A
PUBMED=N/A
SUBMITUSER=mwang87
TAGS=
LIBRARYQUALITY=3
SPECTRUMID=CCMSLIB00000427051
SCANS=2023
42.24 57.797 
57.25 12.599 
70.73 20.78 
84.44 8.069 
84.82 55.874 
98.73 24.572 
113.75 100.0 
114.5 13.071 
END IONS

BEGIN IONS
PEPMASS=184.097
CHARGE=1+
MSLEVEL=2
SOURCE_INSTRUMENT=Positive-Quattro_QQQ:40eV
FILENAME=hmdb_intermediate.mgf
SEQ=*..*
IONMODE=Positive
ORGANISM=HMDB
NAME=HMDB:HMDB00819-1166 Normetanephrine M+H
PI=HMDB
DATACOLLECTOR=HMDB
SMILES=COC1=CC(=CC=C1O)C(O)CN
INCHI=InChI=1S/C9H13NO3/c1-13-9-4-6(8(12)5-10)2-3-7(9)11/h2-4,8,11-12H,5,10H2,1H3
INCHIAUX=N/A
PUBMED=N/A
SUBMITUSER=mwang87
TAGS=
LIBRARYQUALITY=3
SPECTRUMID=CCMSLIB00000427052
SCANS=2024
65.197 17.197 
77.158 100.0 
91.07 20.541 
106.014 28.981 
121.926 7.524 
133.965 16.242 
END IONS

BEGIN IONS
PEPMASS=229.144
CHARGE=1+
MSLEVEL=2
SOURCE_INSTRUMENT=Negative-Quattro_QQQ:40eV
FILENAME=hmdb_intermediate.mgf
SEQ=*..*
IONMODE=Negative
ORGANISM=HMDB
NAME=HMDB:HMDB00623-848 Dodecanedioic acid M-H
PI=HMDB
DATACOLLECTOR=HMDB
SMILES=OC(=O)CCCCCCCCCCC(O)=O
INCHI=InChI=1S/C12H22O4/c13-11(14)9-7-5-3-1-2-4-6-8-10-12(15)16/h1-10H2,(H,13,14)(H,15,16)
INCHIAUX=N/A
PUBMED=N/A
SUBMITUSER=mwang87
TAGS=
LIBRARYQUALITY=3
SPECTRUMID=CCMSLIB00000427053
SCANS=2025
41.62 21.875 
54.469 71.875 
57.469 47.813 
69.323 12.5 
80.274 31.25 
167.148 11.563 
211.274 100.0 
229.291 66.875 
END IONS

BEGIN IONS
PEPMASS=112.937
CHARGE=1+
MSLEVEL=2
SOURCE_INSTRUMENT=Positive-Quattro_QQQ:10eV
FILENAME=hmdb_intermediate.mgf
SEQ=*..*
IONMODE=Positive
ORGANISM=HMDB
NAME=HMDB:HMDB00257-445 Thiosulfate M+H
PI=HMDB
DATACOLLECTOR=HMDB
SMILES=[O-]S([S-])(=O)=O
INCHI=InChI=1S/H2O3S2/c1-5(2,3)4/h(H2,1,2,3,4)/p-2
INCHIAUX=N/A
PUBMED=N/A
SUBMITUSER=mwang87
TAGS=
LIBRARYQUALITY=3
SPECTRUMID=CCMSLIB00000427054
SCANS=2026
54.305 16.029 
58.075 23.665 
72.15 100.0 
83.334 57.736 
84.716 16.129 
96.152 60.513 
113.118 75.218 
END IONS

BEGIN IONS
PEPMASS=190.072
CHARGE=1+
MSLEVEL=2
SOURCE_INSTRUMENT=Positive-Quattro_QQQ:25eV
FILENAME=hmdb_intermediate.mgf
SEQ=*..*
IONMODE=Positive
ORGANISM=HMDB
NAME=HMDB:HMDB01138-1431 N-Acetylglutamic acid M+H
PI=HMDB
DATACOLLECTOR=HMDB
SMILES=CC(=O)NC(CCC(O)=O)C(O)=O
INCHI=InChI=1S/C7H11NO5/c1-4(9)8-5(7(12)13)2-3-6(10)11/h5H,2-3H2,1H3,(H,8,9)(H,10,11)(H,12,13)
INCHIAUX=N/A
PUBMED=N/A
SUBMITUSER=mwang87
TAGS=
LIBRARYQUALITY=3
SPECTRUMID=CCMSLIB00000427055
SCANS=2027
84.128 100.0 
84.757 61.229 
102.371 28.043 
130.052 41.687 
148.674 20.991 
END IONS

BEGIN IONS
PEPMASS=181.073
CHARGE=1+
MSLEVEL=2
SOURCE_INSTRUMENT=Positive-Quattro_QQQ:10eV
FILENAME=hmdb_intermediate.mgf
SEQ=*..*
IONMODE=Positive
ORGANISM=HMDB
NAME=HMDB:HMDB02825-2143 Theobromine M+H
PI=HMDB
DATACOLLECTOR=HMDB
SMILES=CN1C=NC2=C1C(=O)NC(=O)N2C
INCHI=InChI=1S/C7H8N4O2/c1-10-3-8-5-4(10)6(12)9-7(13)11(5)2/h3H,1-2H3,(H,9,12,13)
INCHIAUX=N/A
PUBMED=N/A
SUBMITUSER=mwang87
TAGS=
LIBRARYQUALITY=3
SPECTRUMID=CCMSLIB00000427056
SCANS=2028
180.838 100.0 
END IONS

BEGIN IONS
PEPMASS=140.995
CHARGE=1+
MSLEVEL=2
SOURCE_INSTRUMENT=Positive-Quattro_QQQ:25eV
FILENAME=hmdb_intermediate.mgf
SEQ=*..*
IONMODE=Positive
ORGANISM=HMDB
NAME=HMDB:HMDB04110-2365 Phosphonoacetate M+H
PI=HMDB
DATACOLLECTOR=HMDB
SMILES=OC(=O)CP(O)(O)=O
INCHI=InChI=1S/C2H5O5P/c3-2(4)1-8(5,6)7/h1H2,(H,3,4)(H2,5,6,7)
INCHIAUX=N/A
PUBMED=N/A
SUBMITUSER=mwang87
TAGS=
LIBRARYQUALITY=3
SPECTRUMID=CCMSLIB00000427057
SCANS=2029
43.0 18.618 
47.0 5.788 
65.0 38.694 
81.0 90.976 
95.0 17.585 
105.0 100.0 
123.0 21.011 
END IONS

BEGIN IONS
PEPMASS=103.04
CHARGE=1+
MSLEVEL=2
SOURCE_INSTRUMENT=Negative-Quattro_QQQ:25eV
FILENAME=hmdb_intermediate.mgf
SEQ=*..*
IONMODE=Negative
ORGANISM=HMDB
NAME=HMDB:HMDB00023-43 (S)-3-Hydroxyisobutyric acid M-H
PI=HMDB
DATACOLLECTOR=HMDB
SMILES=C[C@@H](CO)C(O)=O
INCHI=InChI=1S/C4H8O3/c1-3(2-5)4(6)7/h3,5H,2H2,1H3,(H,6,7)/t3-/m0/s1
INCHIAUX=N/A
PUBMED=N/A
SUBMITUSER=mwang87
TAGS=
LIBRARYQUALITY=3
SPECTRUMID=CCMSLIB00000427058
SCANS=2030
41.625 31.944 
45.52 49.167 
57.469 100.0 
103.1 31.389 
END IONS

BEGIN IONS
PEPMASS=403.358
CHARGE=1+
MSLEVEL=2
SOURCE_INSTRUMENT=Positive-Quattro_QQQ:40eV
FILENAME=hmdb_intermediate.mgf
SEQ=*..*
IONMODE=Positive
ORGANISM=HMDB
NAME=HMDB:HMDB02902-2159 Delta-Tocopherol M+H
PI=HMDB
DATACOLLECTOR=HMDB
SMILES=CC(C)CCC[C@@H](C)CCC[C@@H](C)CCC[C@]1(C)CCC2=C(O1)C(C)=CC(O)=C2
INCHI=InChI=1S/C27H46O2/c1-20(2)10-7-11-21(3)12-8-13-22(4)14-9-16-27(6)17-15-24-19-25(28)18-23(5)26(24)29-27/h18-22,28H,7-17H2,1-6H3/t21-,22-,27-/m1/s1
INCHIAUX=N/A
PUBMED=N/A
SUBMITUSER=mwang87
TAGS=
LIBRARYQUALITY=3
SPECTRUMID=CCMSLIB00000427059
SCANS=2031
80.0 7.092 
109.0 4.952 
136.0 100.0 
END IONS

BEGIN IONS
PEPMASS=178.05
CHARGE=1+
MSLEVEL=2
SOURCE_INSTRUMENT=Negative-Quattro_QQQ:25eV
FILENAME=hmdb_intermediate.mgf
SEQ=*..*
IONMODE=Negative
ORGANISM=HMDB
NAME=HMDB:HMDB00714-997 Hippuric acid M-H
PI=HMDB
DATACOLLECTOR=HMDB
SMILES=OC(=O)CNC(=O)C1=CC=CC=C1
INCHI=InChI=1S/C9H9NO3/c11-8(12)6-10-9(13)7-4-2-1-3-5-7/h1-5H,6H2,(H,10,13)(H,11,12)
INCHIAUX=N/A
PUBMED=N/A
SUBMITUSER=mwang87
TAGS=
LIBRARYQUALITY=3
SPECTRUMID=CCMSLIB00000427060
SCANS=2032
56.203 7.465 
77.092 100.0 
133.919 4.688 
178.067 2.908 
END IONS

BEGIN IONS
PEPMASS=136.043
CHARGE=1+
MSLEVEL=2
SOURCE_INSTRUMENT=Positive-Quattro_QQQ:40eV
FILENAME=hmdb_intermediate.mgf
SEQ=*..*
IONMODE=Positive
ORGANISM=HMDB
NAME=HMDB:HMDB02108-2009 Methylcysteine M+H
PI=HMDB
DATACOLLECTOR=HMDB
SMILES=CSC[C@H](N)C(O)=O
INCHI=InChI=1S/C4H9NO2S/c1-8-2-3(5)4(6)7/h3H,2,5H2,1H3,(H,6,7)/t3-/m0/s1
INCHIAUX=N/A
PUBMED=N/A
SUBMITUSER=mwang87
TAGS=
LIBRARYQUALITY=3
SPECTRUMID=CCMSLIB00000427061
SCANS=2033
61.0 72.697 
74.0 100.0 
75.0 96.655 
90.0 36.48 
119.0 30.42 
136.0 11.672 
END IONS

BEGIN IONS
PEPMASS=257.175
CHARGE=1+
MSLEVEL=2
SOURCE_INSTRUMENT=Negative-Quattro_QQQ:40eV
FILENAME=hmdb_intermediate.mgf
SEQ=*..*
IONMODE=Negative
ORGANISM=HMDB
NAME=HMDB:HMDB00872-1231 Tetradecanedioic acid M-H
PI=HMDB
DATACOLLECTOR=HMDB
SMILES=OC(=O)CCCCCCCCCCCCC(O)=O
INCHI=InChI=1S/C14H26O4/c15-13(16)11-9-7-5-3-1-2-4-6-8-10-12-14(17)18/h1-12H2,(H,15,16)(H,17,18)
INCHIAUX=N/A
PUBMED=N/A
SUBMITUSER=mwang87
TAGS=
LIBRARYQUALITY=3
SPECTRUMID=CCMSLIB00000427062
SCANS=2034
41.374 12.95 
54.25 43.165 
57.245 51.799 
69.155 11.691 
80.123 24.46 
194.994 13.489 
239.087 100.0 
257.142 60.432 
END IONS

BEGIN IONS
PEPMASS=289.18
CHARGE=1+
MSLEVEL=2
SOURCE_INSTRUMENT=Positive-Quattro_QQQ:40eV
FILENAME=hmdb_intermediate.mgf
SEQ=*..*
IONMODE=Positive
ORGANISM=HMDB
NAME=HMDB:HMDB00153-238 Estriol M+H
PI=HMDB
DATACOLLECTOR=HMDB
SMILES=[H][C@@]12C[C@@H](O)[C@H](O)[C@@]1(C)CC[C@]1([H])C3=C(CC[C@@]21[H])C=C(O)C=C3
INCHI=InChI=1S/C18H24O3/c1-18-7-6-13-12-5-3-11(19)8-10(12)2-4-14(13)15(18)9-16(20)17(18)21/h3,5,8,13-17,19-21H,2,4,6-7,9H2,1H3/t13-,14-,15+,16-,17+,18+/m1/s1
INCHIAUX=N/A
PUBMED=N/A
SUBMITUSER=mwang87
TAGS=
LIBRARYQUALITY=3
SPECTRUMID=CCMSLIB00000427063
SCANS=2035
55.481 6.481 
67.39 10.417 
77.329 23.148 
91.268 15.741 
95.291 6.019 
107.199 100.0 
117.158 3.762 
133.132 10.532 
144.131 3.762 
145.13 5.729 
157.098 5.845 
END IONS

BEGIN IONS
PEPMASS=32.05
CHARGE=1+
MSLEVEL=2
SOURCE_INSTRUMENT=Positive-Quattro_QQQ:25eV
FILENAME=hmdb_intermediate.mgf
SEQ=*..*
IONMODE=Positive
ORGANISM=HMDB
NAME=HMDB:HMDB00164-261 Methylamine M+H
PI=HMDB
DATACOLLECTOR=HMDB
SMILES=CN
INCHI=InChI=1S/CH5N/c1-2/h2H2,1H3
INCHIAUX=N/A
PUBMED=N/A
SUBMITUSER=mwang87
TAGS=
LIBRARYQUALITY=3
SPECTRUMID=CCMSLIB00000427064
SCANS=2036
32.0 100.0 
END IONS

BEGIN IONS
PEPMASS=194.082
CHARGE=1+
MSLEVEL=2
SOURCE_INSTRUMENT=Positive-Quattro_QQQ:25eV
FILENAME=hmdb_intermediate.mgf
SEQ=*..*
IONMODE=Positive
ORGANISM=HMDB
NAME=HMDB:HMDB00859-1212 Methylhippuric acid M+H
PI=HMDB
DATACOLLECTOR=HMDB
SMILES=COC(=O)CNC(=O)C1=CC=CC=C1
INCHI=InChI=1S/C10H11NO3/c1-14-9(12)7-11-10(13)8-5-3-2-4-6-8/h2-6H,7H2,1H3,(H,11,13)
INCHIAUX=N/A
PUBMED=N/A
SUBMITUSER=mwang87
TAGS=
LIBRARYQUALITY=3
SPECTRUMID=CCMSLIB00000427065
SCANS=2037
77.439 69.246 
104.379 48.053 
105.13 100.0 
END IONS

BEGIN IONS
PEPMASS=117.055
CHARGE=1+
MSLEVEL=2
SOURCE_INSTRUMENT=Negative-Quattro_QQQ:40eV
FILENAME=hmdb_intermediate.mgf
SEQ=*..*
IONMODE=Negative
ORGANISM=HMDB
NAME=HMDB:HMDB00407-620 2-Hydroxy-3-methylbutyric acid M-H
PI=HMDB
DATACOLLECTOR=HMDB
SMILES=CC(C)C(O)C(O)=O
INCHI=InChI=1S/C5H10O3/c1-3(2)4(6)5(7)8/h3-4,6H,1-2H3,(H,7,8)
INCHIAUX=N/A
PUBMED=N/A
SUBMITUSER=mwang87
TAGS=
LIBRARYQUALITY=3
SPECTRUMID=CCMSLIB00000427066
SCANS=2038
45.474 100.0 
71.356 37.143 
117.262 53.929 
END IONS

BEGIN IONS
PEPMASS=166.054
CHARGE=1+
MSLEVEL=2
SOURCE_INSTRUMENT=Positive-Quattro_QQQ:10eV
FILENAME=hmdb_intermediate.mgf
SEQ=*..*
IONMODE=Positive
ORGANISM=HMDB
NAME=HMDB:HMDB02005-1941 Methionine sulfoxide M+H
PI=HMDB
DATACOLLECTOR=HMDB
SMILES=CS(=O)CCC(N)C(O)=O
INCHI=InChI=1S/C5H11NO3S/c1-10(9)3-2-4(6)5(7)8/h4H,2-3,6H2,1H3,(H,7,8)
INCHIAUX=N/A
PUBMED=N/A
SUBMITUSER=mwang87
TAGS=
LIBRARYQUALITY=3
SPECTRUMID=CCMSLIB00000427067
SCANS=2039
74.0 100.0 
75.0 23.284 
102.0 9.744 
149.0 14.43 
166.0 38.551 
END IONS

BEGIN IONS
PEPMASS=251.07
CHARGE=1+
MSLEVEL=2
SOURCE_INSTRUMENT=Positive-Quattro_QQQ:40eV
FILENAME=hmdb_intermediate.mgf
SEQ=*..*
IONMODE=Positive
ORGANISM=HMDB
NAME=HMDB:HMDB01049-1402 Gamma-Glutamylcysteine M+H
PI=HMDB
DATACOLLECTOR=HMDB
SMILES=N[C@@H](CCC(=O)N[C@@H](CS)C(O)=O)C(O)=O
INCHI=InChI=1S/C8H14N2O5S/c9-4(7(12)13)1-2-6(11)10-5(3-16)8(14)15/h4-5,16H,1-3,9H2,(H,10,11)(H,12,13)(H,14,15)/t4-,5-/m0/s1
INCHIAUX=N/A
PUBMED=N/A
SUBMITUSER=mwang87
TAGS=
LIBRARYQUALITY=3
SPECTRUMID=CCMSLIB00000427068
SCANS=2040
83.97 66.02 
121.82 24.512 
129.84 24.679 
250.72 100.0 
END IONS

BEGIN IONS
PEPMASS=365.233
CHARGE=1+
MSLEVEL=2
SOURCE_INSTRUMENT=Positive-Quattro_QQQ:10eV
FILENAME=hmdb_intermediate.mgf
SEQ=*..*
IONMODE=Positive
ORGANISM=HMDB
NAME=HMDB:HMDB00903-1283 Tetrahydrocortisone M+H
PI=HMDB
DATACOLLECTOR=HMDB
SMILES=[H][C@@]12CC[C@](O)(C(=O)CO)[C@@]1(C)CC(=O)[C@@]1([H])[C@@]2([H])CC[C@@]2([H])C[C@@H](O)CC[C@]12C
INCHI=InChI=1S/C21H32O5/c1-19-7-5-13(23)9-12(19)3-4-14-15-6-8-21(26,17(25)11-22)20(15,2)10-16(24)18(14)19/h12-15,18,22-23,26H,3-11H2,1-2H3/t12-,13-,14-,15-,18+,19-,20-,21-/m0/s1
INCHIAUX=N/A
PUBMED=N/A
SUBMITUSER=mwang87
TAGS=
LIBRARYQUALITY=3
SPECTRUMID=CCMSLIB00000427069
SCANS=2041
149.188 2.824 
225.081 1.459 
243.155 2.4 
253.173 1.657 
269.204 5.309 
283.191 1.77 
293.203 2.485 
299.225 5.61 
311.238 12.952 
317.244 6.739 
329.25 53.614 
335.249 3.539 
347.271 100.0 
365.286 38.102 
END IONS

BEGIN IONS
PEPMASS=246.171
CHARGE=1+
MSLEVEL=2
SOURCE_INSTRUMENT=Positive-Quattro_QQQ:10eV
FILENAME=hmdb_intermediate.mgf
SEQ=*..*
IONMODE=Positive
ORGANISM=HMDB
NAME=HMDB:HMDB00688-954 Isovalerylcarnitine M+H
PI=HMDB
DATACOLLECTOR=HMDB
SMILES=CC(C)CC(=O)OC(CC([O-])=O)C[N+](C)(C)C
INCHI=InChI=1S/C12H23NO4/c1-9(2)6-12(16)17-10(7-11(14)15)8-13(3,4)5/h9-10H,6-8H2,1-5H3
INCHIAUX=N/A
PUBMED=N/A
SUBMITUSER=mwang87
TAGS=
LIBRARYQUALITY=3
SPECTRUMID=CCMSLIB00000427070
SCANS=2042
60.265 17.451 
85.12 92.941 
187.054 40.0 
246.122 100.0 
END IONS

BEGIN IONS
PEPMASS=233.129
CHARGE=1+
MSLEVEL=2
SOURCE_INSTRUMENT=Positive-Quattro_QQQ:40eV
FILENAME=hmdb_intermediate.mgf
SEQ=*..*
IONMODE=Positive
ORGANISM=HMDB
NAME=HMDB:HMDB01389-1549 Melatonin M+H
PI=HMDB
DATACOLLECTOR=HMDB
SMILES=COC1=CC2=C(NC=C2CCNC(C)=O)C=C1
INCHI=InChI=1S/C13H16N2O2/c1-9(16)14-6-5-10-8-15-13-4-3-11(17-2)7-12(10)13/h3-4,7-8,15H,5-6H2,1-2H3,(H,14,16)
INCHIAUX=N/A
PUBMED=N/A
SUBMITUSER=mwang87
TAGS=
LIBRARYQUALITY=3
SPECTRUMID=CCMSLIB00000427071
SCANS=2043
90.0 7.152 
104.0 9.32 
114.0 13.341 
116.0 8.453 
129.0 100.0 
142.0 38.619 
158.0 42.139 
173.0 9.036 
END IONS

BEGIN IONS
PEPMASS=238.094
CHARGE=1+
MSLEVEL=2
SOURCE_INSTRUMENT=Positive-Quattro_QQQ:40eV
FILENAME=hmdb_intermediate.mgf
SEQ=*..*
IONMODE=Positive
ORGANISM=HMDB
NAME=HMDB:HMDB00468-682 Biopterin M+H
PI=HMDB
DATACOLLECTOR=HMDB
SMILES=C[C@H](O)[C@H](O)C1=NC2=C(NC(N)=NC2=O)N=C1
INCHI=InChI=1S/C9H11N5O3/c1-3(15)6(16)4-2-11-7-5(12-4)8(17)14-9(10)13-7/h2-3,6,15-16H,1H3,(H3,10,11,13,14,17)/t3-,6-/m0/s1
INCHIAUX=N/A
PUBMED=N/A
SUBMITUSER=mwang87
TAGS=
LIBRARYQUALITY=3
SPECTRUMID=CCMSLIB00000427072
SCANS=2044
43.277 41.346 
53.238 31.731 
68.273 40.865 
80.069 100.0 
94.231 56.25 
95.34 37.5 
105.114 80.288 
121.971 69.712 
131.925 46.154 
135.361 15.385 
146.948 54.808 
163.735 20.913 
176.658 34.615 
192.338 35.096 
END IONS

BEGIN IONS
PEPMASS=516.299
CHARGE=1+
MSLEVEL=2
SOURCE_INSTRUMENT=Positive-Quattro_QQQ:40eV
FILENAME=hmdb_intermediate.mgf
SEQ=*..*
IONMODE=Positive
ORGANISM=HMDB
NAME=HMDB:HMDB00036-62 Taurocholic acid M+H
PI=HMDB
DATACOLLECTOR=HMDB
SMILES=[H][C@@]12C[C@H](O)CCC1(C)C1C[C@H](O)C3(C)C(CCC3C1[C@H](O)C2)C(C)CCC(=O)NCCS(O)(=O)=O
INCHI=InChI=1S/C26H45NO7S/c1-15(4-7-23(31)27-10-11-35(32,33)34)18-5-6-19-24-20(14-22(30)26(18,19)3)25(2)9-8-17(28)12-16(25)13-21(24)29/h15-22,24,28-30H,4-14H2,1-3H3,(H,27,31)(H,32,33,34)/t15?,16-,17+,18?,19?,20?,21+,22-,24?,25?,26?/m0/s1
INCHIAUX=N/A
PUBMED=N/A
SUBMITUSER=mwang87
TAGS=
LIBRARYQUALITY=3
SPECTRUMID=CCMSLIB00000427073
SCANS=2045
54.9 21.578 
80.9 28.142 
92.97 12.755 
94.93 18.576 
104.83 27.517 
118.81 11.603 
125.58 100.0 
144.46 17.044 
144.7 24.382 
158.78 28.177 
168.88 10.466 
END IONS

BEGIN IONS
PEPMASS=198.003
CHARGE=1+
MSLEVEL=2
SOURCE_INSTRUMENT=Positive-Quattro_QQQ:40eV
FILENAME=hmdb_intermediate.mgf
SEQ=*..*
IONMODE=Positive
ORGANISM=HMDB
NAME=HMDB:HMDB03966-2354 Selenomethionine M+H
PI=HMDB
DATACOLLECTOR=HMDB
SMILES=C[Se]CCC(N)C(O)=O
INCHI=InChI=1S/C5H11NO2Se/c1-9-3-2-4(6)5(7)8/h4H,2-3,6H2,1H3,(H,7,8)
INCHIAUX=N/A
PUBMED=N/A
SUBMITUSER=mwang87
TAGS=
LIBRARYQUALITY=3
SPECTRUMID=CCMSLIB00000427074
SCANS=2046
28.0 14.833 
46.0 3.85 
56.0 100.0 
74.0 14.623 
83.0 18.095 
94.0 9.49 
95.0 6.689 
109.0 52.252 
END IONS

BEGIN IONS
PEPMASS=121.051
CHARGE=1+
MSLEVEL=2
SOURCE_INSTRUMENT=Positive-Quattro_QQQ:40eV
FILENAME=hmdb_intermediate.mgf
SEQ=*..*
IONMODE=Positive
ORGANISM=HMDB
NAME=HMDB:HMDB01366-1533 Purine M+H
PI=HMDB
DATACOLLECTOR=HMDB
SMILES=N1C=NC2=C1C=NC=N2
INCHI=InChI=1S/C5H4N4/c1-4-5(8-2-6-1)9-3-7-4/h1-3H,(H,6,7,8,9)
INCHIAUX=N/A
PUBMED=N/A
SUBMITUSER=mwang87
TAGS=
LIBRARYQUALITY=3
SPECTRUMID=CCMSLIB00000427075
SCANS=2047
52.23 17.32 
67.103 100.0 
93.976 33.824 
120.71 40.523 
END IONS

BEGIN IONS
PEPMASS=243.16
CHARGE=1+
MSLEVEL=2
SOURCE_INSTRUMENT=Negative-Quattro_QQQ:40eV
FILENAME=hmdb_intermediate.mgf
SEQ=*..*
IONMODE=Negative
ORGANISM=HMDB
NAME=HMDB:HMDB02327-2060 1,11-Undecanedicarboxylic acid M-H
PI=HMDB
DATACOLLECTOR=HMDB
SMILES=OC(=O)CCCCCCCCCCCC(O)=O
INCHI=InChI=1S/C13H24O4/c14-12(15)10-8-6-4-2-1-3-5-7-9-11-13(16)17/h1-11H2,(H,14,15)(H,16,17)
INCHIAUX=N/A
PUBMED=N/A
SUBMITUSER=mwang87
TAGS=
LIBRARYQUALITY=3
SPECTRUMID=CCMSLIB00000427076
SCANS=2048
53.0 100.0 
56.0 74.433 
79.0 41.088 
224.0 60.039 
225.0 36.007 
243.0 45.194 
END IONS

BEGIN IONS
PEPMASS=32.05
CHARGE=1+
MSLEVEL=2
SOURCE_INSTRUMENT=Positive-Quattro_QQQ:25eV
FILENAME=hmdb_intermediate.mgf
SEQ=*..*
IONMODE=Positive
ORGANISM=HMDB
NAME=HMDB:HMDB60291-261 Methylammonium M+H
PI=HMDB
DATACOLLECTOR=HMDB
SMILES=CN
INCHI=InChI=1S/CH5N/c1-2/h2H2,1H3
INCHIAUX=N/A
PUBMED=N/A
SUBMITUSER=mwang87
TAGS=
LIBRARYQUALITY=3
SPECTRUMID=CCMSLIB00000427077
SCANS=2049
32.0 100.0 
END IONS

BEGIN IONS
PEPMASS=241.253
CHARGE=1+
MSLEVEL=2
SOURCE_INSTRUMENT=Negative-Quattro_QQQ:10eV
FILENAME=hmdb_intermediate.mgf
SEQ=*..*
IONMODE=Negative
ORGANISM=HMDB
NAME=HMDB:HMDB03424-2304 1-Hexadecanol M-H
PI=HMDB
DATACOLLECTOR=HMDB
SMILES=CCCCCCCCCCCCCCCCO
INCHI=InChI=1S/C16H34O/c1-2-3-4-5-6-7-8-9-10-11-12-13-14-15-16-17/h17H,2-16H2,1H3
INCHIAUX=N/A
PUBMED=N/A
SUBMITUSER=mwang87
TAGS=
LIBRARYQUALITY=3
SPECTRUMID=CCMSLIB00000427078
SCANS=2050
154.0 100.0 
155.0 15.591 
241.0 25.46 
END IONS

BEGIN IONS
PEPMASS=73.0653
CHARGE=1+
MSLEVEL=2
SOURCE_INSTRUMENT=Positive-Quattro_QQQ:25eV
FILENAME=hmdb_intermediate.mgf
SEQ=*..*
IONMODE=Positive
ORGANISM=HMDB
NAME=HMDB:HMDB00246-419 Tetrahydrofuran M+H
PI=HMDB
DATACOLLECTOR=HMDB
SMILES=C1CCOC1
INCHI=InChI=1S/C4H8O/c1-2-4-5-3-1/h1-4H2
INCHIAUX=N/A
PUBMED=N/A
SUBMITUSER=mwang87
TAGS=
LIBRARYQUALITY=3
SPECTRUMID=CCMSLIB00000427079
SCANS=2051
31.0 35.561 
43.0 84.667 
45.0 83.895 
55.0 100.0 
73.0 74.039 
END IONS

BEGIN IONS
PEPMASS=77.0603
CHARGE=1+
MSLEVEL=2
SOURCE_INSTRUMENT=Positive-Quattro_QQQ:10eV
FILENAME=hmdb_intermediate.mgf
SEQ=*..*
IONMODE=Positive
ORGANISM=HMDB
NAME=HMDB:HMDB01881-1780 Propylene glycol M+H
PI=HMDB
DATACOLLECTOR=HMDB
SMILES=CC(O)CO
INCHI=InChI=1S/C3H8O2/c1-3(5)2-4/h3-5H,2H2,1H3
INCHIAUX=N/A
PUBMED=N/A
SUBMITUSER=mwang87
TAGS=
LIBRARYQUALITY=3
SPECTRUMID=CCMSLIB00000427080
SCANS=2052
19.759 75.106 
31.875 73.668 
41.519 24.754 
59.074 100.0 
76.384 74.441 
END IONS

BEGIN IONS
PEPMASS=60.98
CHARGE=1+
MSLEVEL=2
SOURCE_INSTRUMENT=Negative-Quattro_QQQ:40eV
FILENAME=hmdb_intermediate.mgf
SEQ=*..*
IONMODE=Negative
ORGANISM=HMDB
NAME=HMDB:HMDB02878-2154 Nitrate M-H
PI=HMDB
DATACOLLECTOR=HMDB
SMILES=[O-][N+]([O-])=O
INCHI=InChI=1S/NO3/c2-1(3)4/q-1
INCHIAUX=N/A
PUBMED=N/A
SUBMITUSER=mwang87
TAGS=
LIBRARYQUALITY=3
SPECTRUMID=CCMSLIB00000427081
SCANS=2053
16.0 16.446 
45.0 27.127 
61.0 100.0 
END IONS

BEGIN IONS
PEPMASS=165.076
CHARGE=1+
MSLEVEL=2
SOURCE_INSTRUMENT=Positive-Quattro_QQQ:10eV
FILENAME=hmdb_intermediate.mgf
SEQ=*..*
IONMODE=Positive
ORGANISM=HMDB
NAME=HMDB:HMDB00849-1199 Rhamnose M+H
PI=HMDB
DATACOLLECTOR=HMDB
SMILES=C[C@@H]1OC(O)[C@H](O)[C@H](O)[C@H]1O
INCHI=InChI=1S/C6H12O5/c1-2-3(7)4(8)5(9)6(10)11-2/h2-10H,1H3/t2-,3-,4+,5+,6?/m0/s1
INCHIAUX=N/A
PUBMED=N/A
SUBMITUSER=mwang87
TAGS=
LIBRARYQUALITY=3
SPECTRUMID=CCMSLIB00000427082
SCANS=2054
89.0 100.0 
101.0 11.184 
133.0 33.212 
147.0 3.162 
165.0 4.007 
END IONS

BEGIN IONS
PEPMASS=197.066
CHARGE=1+
MSLEVEL=2
SOURCE_INSTRUMENT=Positive-Quattro_QQQ:40eV
FILENAME=hmdb_intermediate.mgf
SEQ=*..*
IONMODE=Positive
ORGANISM=HMDB
NAME=HMDB:HMDB03290-2232 Gulonic acid M+H
PI=HMDB
DATACOLLECTOR=HMDB
SMILES=OC[C@@H](O)[C@H](O)[C@@H](O)[C@@H](O)C(O)=O
INCHI=InChI=1S/C6H12O7/c7-1-2(8)3(9)4(10)5(11)6(12)13/h2-5,7-11H,1H2,(H,12,13)/t2-,3+,4-,5-/m1/s1
INCHIAUX=N/A
PUBMED=N/A
SUBMITUSER=mwang87
TAGS=
LIBRARYQUALITY=3
SPECTRUMID=CCMSLIB00000427083
SCANS=2055
61.0 60.9517709035 
77.0 100.0 
100.0 49.9740466277 
END IONS

BEGIN IONS
PEPMASS=221.06
CHARGE=1+
MSLEVEL=2
SOURCE_INSTRUMENT=Negative-Quattro_QQQ:25eV
FILENAME=hmdb_intermediate.mgf
SEQ=*..*
IONMODE=Negative
ORGANISM=HMDB
NAME=HMDB:HMDB03075-2192 Flavone M-H
PI=HMDB
DATACOLLECTOR=HMDB
SMILES=O=C1C=C(OC2=CC=CC=C12)C1=CC=CC=C1
INCHI=InChI=1S/C15H10O2/c16-13-10-15(11-6-2-1-3-7-11)17-14-9-5-4-8-12(13)14/h1-10H
INCHIAUX=N/A
PUBMED=N/A
SUBMITUSER=mwang87
TAGS=
LIBRARYQUALITY=3
SPECTRUMID=CCMSLIB00000427084
SCANS=2056
100.0 100.0 
END IONS

BEGIN IONS
PEPMASS=167.071
CHARGE=1+
MSLEVEL=2
SOURCE_INSTRUMENT=Positive-Quattro_QQQ:10eV
FILENAME=hmdb_intermediate.mgf
SEQ=*..*
IONMODE=Positive
ORGANISM=HMDB
NAME=HMDB:HMDB00748-1065 L-3-Phenyllactic acid M+H
PI=HMDB
DATACOLLECTOR=HMDB
SMILES=O[C@H](CC1=CC=CC=C1)C(O)=O
INCHI=InChI=1S/C9H10O3/c10-8(9(11)12)6-7-4-2-1-3-5-7/h1-5,8,10H,6H2,(H,11,12)/t8-/m1/s1
INCHIAUX=N/A
PUBMED=N/A
SUBMITUSER=mwang87
TAGS=
LIBRARYQUALITY=3
SPECTRUMID=CCMSLIB00000427085
SCANS=2057
103.434 16.227 
107.098 13.946 
124.405 53.715 
124.784 100.0 
167.486 20.304 
END IONS

BEGIN IONS
PEPMASS=151.076
CHARGE=1+
MSLEVEL=2
SOURCE_INSTRUMENT=Positive-Quattro_QQQ:40eV
FILENAME=hmdb_intermediate.mgf
SEQ=*..*
IONMODE=Positive
ORGANISM=HMDB
NAME=HMDB:HMDB00764-1100 Hydrocinnamic acid M+H
PI=HMDB
DATACOLLECTOR=HMDB
SMILES=OC(=O)CCC1=CC=CC=C1
INCHI=InChI=1S/C9H10O2/c10-9(11)7-6-8-4-2-1-3-5-8/h1-5H,6-7H2,(H,10,11)
INCHIAUX=N/A
PUBMED=N/A
SUBMITUSER=mwang87
TAGS=
LIBRARYQUALITY=3
SPECTRUMID=CCMSLIB00000427086
SCANS=2058
90.0 100.0 
END IONS

BEGIN IONS
PEPMASS=299.295
CHARGE=1+
MSLEVEL=2
SOURCE_INSTRUMENT=Positive-Quattro_QQQ:40eV
FILENAME=hmdb_intermediate.mgf
SEQ=*..*
IONMODE=Positive
ORGANISM=HMDB
NAME=HMDB:HMDB00795-1134 Pristanic acid M+H
PI=HMDB
DATACOLLECTOR=HMDB
SMILES=CC(C)CCCC(C)CCCC(C)CCCC(C)C(O)=O
INCHI=InChI=1S/C19H38O2/c1-15(2)9-6-10-16(3)11-7-12-17(4)13-8-14-18(5)19(20)21/h15-18H,6-14H2,1-5H3,(H,20,21)
INCHIAUX=N/A
PUBMED=N/A
SUBMITUSER=mwang87
TAGS=
LIBRARYQUALITY=3
SPECTRUMID=CCMSLIB00000427087
SCANS=2059
58.332 33.157 
68.886 40.027 
80.669 7.793 
91.346 39.498 
104.111 6.737 
109.388 11.227 
123.872 6.471 
130.5 5.945 
137.005 9.908 
152.471 14.397 
157.258 9.115 
172.971 100.0 
180.459 9.641 
190.279 8.322 
198.627 43.198 
220.356 5.945 
226.985 7.793 
243.56 9.115 
251.908 6.208 
257.31 5.945 
274.131 6.737 
283.708 8.586 
290.339 10.434 
303.6 7.53 
310.231 8.586 
317.107 6.471 
326.808 8.849 
343.631 7.264 
345.105 9.908 
END IONS

BEGIN IONS
PEPMASS=167.034
CHARGE=1+
MSLEVEL=2
SOURCE_INSTRUMENT=Positive-Quattro_QQQ:10eV
FILENAME=hmdb_intermediate.mgf
SEQ=*..*
IONMODE=Positive
ORGANISM=HMDB
NAME=HMDB:HMDB02107-2004 Phthalic acid M+H
PI=HMDB
DATACOLLECTOR=HMDB
SMILES=OC(=O)C1=CC=CC=C1C(O)=O
INCHI=InChI=1S/C8H6O4/c9-7(10)5-3-1-2-4-6(5)8(11)12/h1-4H,(H,9,10)(H,11,12)
INCHIAUX=N/A
PUBMED=N/A
SUBMITUSER=mwang87
TAGS=
LIBRARYQUALITY=3
SPECTRUMID=CCMSLIB00000427088
SCANS=2060
135.0 1.639 
149.0 100.0 
167.0 1.357 
END IONS

BEGIN IONS
PEPMASS=161.108
CHARGE=1+
MSLEVEL=2
SOURCE_INSTRUMENT=Positive-Quattro_QQQ:10eV
FILENAME=hmdb_intermediate.mgf
SEQ=*..*
IONMODE=Positive
ORGANISM=HMDB
NAME=HMDB:HMDB60064-516 Tryptamine M+H
PI=HMDB
DATACOLLECTOR=HMDB
SMILES=NCCC1=CNC2=CC=CC=C12
INCHI=InChI=1S/C10H12N2/c11-6-5-8-7-12-10-4-2-1-3-9(8)10/h1-4,7,12H,5-6,11H2
INCHIAUX=N/A
PUBMED=N/A
SUBMITUSER=mwang87
TAGS=
LIBRARYQUALITY=3
SPECTRUMID=CCMSLIB00000427089
SCANS=2061
91.105 3.594 
117.049 42.5 
127.075 19.0 
161.001 100.0 
END IONS

BEGIN IONS
PEPMASS=151.04
CHARGE=1+
MSLEVEL=2
SOURCE_INSTRUMENT=Positive-Quattro_QQQ:10eV
FILENAME=hmdb_intermediate.mgf
SEQ=*..*
IONMODE=Positive
ORGANISM=HMDB
NAME=HMDB:HMDB01587-1660 Phenylglyoxylic acid M+H
PI=HMDB
DATACOLLECTOR=HMDB
SMILES=OC(=O)C(=O)C1=CC=CC=C1
INCHI=InChI=1S/C8H6O3/c9-7(8(10)11)6-4-2-1-3-5-6/h1-5H,(H,10,11)
INCHIAUX=N/A
PUBMED=N/A
SUBMITUSER=mwang87
TAGS=
LIBRARYQUALITY=3
SPECTRUMID=CCMSLIB00000427090
SCANS=2062
87.0 16.666 
104.0 12.536 
105.0 94.83 
119.0 10.275 
151.0 100.0 
END IONS

BEGIN IONS
PEPMASS=113.035
CHARGE=1+
MSLEVEL=2
SOURCE_INSTRUMENT=Positive-Quattro_QQQ:40eV
FILENAME=hmdb_intermediate.mgf
SEQ=*..*
IONMODE=Positive
ORGANISM=HMDB
NAME=HMDB:HMDB00300-512 Uracil M+H
PI=HMDB
DATACOLLECTOR=HMDB
SMILES=O=C1NC=CC(=O)N1
INCHI=InChI=1S/C4H4N2O2/c7-3-1-2-5-4(8)6-3/h1-2H,(H2,5,6,7,8)
INCHIAUX=N/A
PUBMED=N/A
SUBMITUSER=mwang87
TAGS=
LIBRARYQUALITY=3
SPECTRUMID=CCMSLIB00000427091
SCANS=2063
40.291 100.0 
53.198 12.707 
69.976 39.669 
96.029 20.248 
112.952 35.331 
END IONS

BEGIN IONS
PEPMASS=195.066
CHARGE=1+
MSLEVEL=2
SOURCE_INSTRUMENT=Negative-Quattro_QQQ:10eV
FILENAME=hmdb_intermediate.mgf
SEQ=*..*
IONMODE=Negative
ORGANISM=HMDB
NAME=HMDB:HMDB00434-635 Homoveratric acid M-H
PI=HMDB
DATACOLLECTOR=HMDB
SMILES=COC1=CC=C(CC(O)=O)C=C1OC
INCHI=InChI=1S/C10H12O4/c1-13-8-4-3-7(6-10(11)12)5-9(8)14-2/h3-5H,6H2,1-2H3,(H,11,12)
INCHIAUX=N/A
PUBMED=N/A
SUBMITUSER=mwang87
TAGS=
LIBRARYQUALITY=3
SPECTRUMID=CCMSLIB00000427092
SCANS=2064
121.205 3.976 
136.203 100.0 
151.204 36.667 
END IONS

BEGIN IONS
PEPMASS=131.071
CHARGE=1+
MSLEVEL=2
SOURCE_INSTRUMENT=Positive-Quattro_QQQ:25eV
FILENAME=hmdb_intermediate.mgf
SEQ=*..*
IONMODE=Positive
ORGANISM=HMDB
NAME=HMDB:HMDB00408-622 2-Methyl-3-ketovaleric acid M+H
PI=HMDB
DATACOLLECTOR=HMDB
SMILES=CCC(=O)C(C)C(O)=O
INCHI=InChI=1S/C6H10O3/c1-3-5(7)4(2)6(8)9/h4H,3H2,1-2H3,(H,8,9)
INCHIAUX=N/A
PUBMED=N/A
SUBMITUSER=mwang87
TAGS=
LIBRARYQUALITY=3
SPECTRUMID=CCMSLIB00000427093
SCANS=2065
84.57 77.334 
131.13 100.0 
END IONS

BEGIN IONS
PEPMASS=142.098
CHARGE=1+
MSLEVEL=2
SOURCE_INSTRUMENT=Positive-Quattro_QQQ:10eV
FILENAME=hmdb_intermediate.mgf
SEQ=*..*
IONMODE=Positive
ORGANISM=HMDB
NAME=HMDB:HMDB03431-2307 L-Histidinol M+H
PI=HMDB
DATACOLLECTOR=HMDB
SMILES=N[C@H](CO)CC1=CN=CN1
INCHI=InChI=1S/C6H11N3O/c7-5(3-10)1-6-2-8-4-9-6/h2,4-5,10H,1,3,7H2,(H,8,9)/t5-/m0/s1
INCHIAUX=N/A
PUBMED=N/A
SUBMITUSER=mwang87
TAGS=
LIBRARYQUALITY=3
SPECTRUMID=CCMSLIB00000427094
SCANS=2066
81.0 16.82 
95.0 4.484 
124.0 72.259 
142.0 100.0 
END IONS

BEGIN IONS
PEPMASS=120.066
CHARGE=1+
MSLEVEL=2
SOURCE_INSTRUMENT=Positive-Quattro_QQQ:40eV
FILENAME=hmdb_intermediate.mgf
SEQ=*..*
IONMODE=Positive
ORGANISM=HMDB
NAME=HMDB:HMDB00719-1010 L-Homoserine M+H
PI=HMDB
DATACOLLECTOR=HMDB
SMILES=N[C@@H](CCO)C(O)=O
INCHI=InChI=1S/C4H9NO3/c5-3(1-2-6)4(7)8/h3,6H,1-2,5H2,(H,7,8)/t3-/m0/s1
INCHIAUX=N/A
PUBMED=N/A
SUBMITUSER=mwang87
TAGS=
LIBRARYQUALITY=3
SPECTRUMID=CCMSLIB00000427095
SCANS=2067
44.267 65.476 
56.089 100.0 
73.891 41.071 
120.021 19.048 
END IONS

BEGIN IONS
PEPMASS=182.082
CHARGE=1+
MSLEVEL=2
SOURCE_INSTRUMENT=Positive-Quattro_QQQ:25eV
FILENAME=hmdb_intermediate.mgf
SEQ=*..*
IONMODE=Positive
ORGANISM=HMDB
NAME=HMDB:HMDB00158-246 L-Tyrosine M+H
PI=HMDB
DATACOLLECTOR=HMDB
SMILES=N[C@@H](CC1=CC=C(O)C=C1)C(O)=O
INCHI=InChI=1S/C9H11NO3/c10-8(9(12)13)5-6-1-3-7(11)4-2-6/h1-4,8,11H,5,10H2,(H,12,13)/t8-/m0/s1
INCHIAUX=N/A
PUBMED=N/A
SUBMITUSER=mwang87
TAGS=
LIBRARYQUALITY=3
SPECTRUMID=CCMSLIB00000427096
SCANS=2068
77.047 11.782 
91.02 100.0 
95.001 31.178 
106.968 6.537 
118.858 29.454 
135.893 20.977 
END IONS

BEGIN IONS
PEPMASS=151.04
CHARGE=1+
MSLEVEL=2
SOURCE_INSTRUMENT=Negative-Quattro_QQQ:40eV
FILENAME=hmdb_intermediate.mgf
SEQ=*..*
IONMODE=Negative
ORGANISM=HMDB
NAME=HMDB:HMDB00669-920 Ortho-Hydroxyphenylacetic acid M-H
PI=HMDB
DATACOLLECTOR=HMDB
SMILES=OC(=O)CC1=CC=CC=C1O
INCHI=InChI=1S/C8H8O3/c9-7-4-2-1-3-6(7)5-8(10)11/h1-4,9H,5H2,(H,10,11)
INCHIAUX=N/A
PUBMED=N/A
SUBMITUSER=mwang87
TAGS=
LIBRARYQUALITY=3
SPECTRUMID=CCMSLIB00000427097
SCANS=2069
64.468 5.317 
79.376 4.757 
92.316 11.287 
106.957 100.0 
151.333 2.868 
END IONS

BEGIN IONS
PEPMASS=389.378
CHARGE=1+
MSLEVEL=2
SOURCE_INSTRUMENT=Positive-Quattro_QQQ:40eV
FILENAME=hmdb_intermediate.mgf
SEQ=*..*
IONMODE=Positive
ORGANISM=HMDB
NAME=HMDB:HMDB00908-1297 5alpha-Cholestanol M+H
PI=HMDB
DATACOLLECTOR=HMDB
SMILES=[H][C@@]1(CC[C@@]2([H])[C@]3([H])CC[C@@]4([H])C[C@@H](O)CC[C@]4(C)[C@@]3([H])CC[C@]12C)[C@H](C)CCCC(C)C
INCHI=InChI=1S/C27H48O/c1-18(2)7-6-8-19(3)23-11-12-24-22-10-9-20-17-21(28)13-15-26(20,4)25(22)14-16-27(23,24)5/h18-25,28H,6-17H2,1-5H3/t19-,20+,21+,22+,23-,24+,25+,26+,27-/m1/s1
INCHIAUX=N/A
PUBMED=N/A
SUBMITUSER=mwang87
TAGS=
LIBRARYQUALITY=3
SPECTRUMID=CCMSLIB00000427098
SCANS=2070
43.0 80.92 
46.0 71.34 
57.0 74.946 
69.0 96.613 
83.0 100.0 
91.0 62.924 
95.0 82.594 
105.0 71.806 
145.0 67.588 
END IONS

BEGIN IONS
PEPMASS=169.05
CHARGE=1+
MSLEVEL=2
SOURCE_INSTRUMENT=Positive-Quattro_QQQ:40eV
FILENAME=hmdb_intermediate.mgf
SEQ=*..*
IONMODE=Positive
ORGANISM=HMDB
NAME=HMDB:HMDB01336-1521 3,4-Dihydroxybenzeneacetic acid M+H
PI=HMDB
DATACOLLECTOR=HMDB
SMILES=OC(=O)CC1=CC=C(O)C(O)=C1
INCHI=InChI=1S/C8H8O4/c9-6-2-1-5(3-7(6)10)4-8(11)12/h1-3,9-10H,4H2,(H,11,12)
INCHIAUX=N/A
PUBMED=N/A
SUBMITUSER=mwang87
TAGS=
LIBRARYQUALITY=3
SPECTRUMID=CCMSLIB00000427099
SCANS=2071
51.0 51.964 
67.0 4.935 
77.0 100.0 
105.0 7.948 
123.0 62.913 
END IONS

BEGIN IONS
PEPMASS=153.076
CHARGE=1+
MSLEVEL=2
SOURCE_INSTRUMENT=Positive-Quattro_QQQ:40eV
FILENAME=hmdb_intermediate.mgf
SEQ=*..*
IONMODE=Positive
ORGANISM=HMDB
NAME=HMDB:HMDB00508-727 Ribitol M+H
PI=HMDB
DATACOLLECTOR=HMDB
SMILES=OC[C@H](O)[C@H](O)[C@H](O)CO
INCHI=InChI=1S/C5H12O5/c6-1-3(8)5(10)4(9)2-7/h3-10H,1-2H2/t3-,4+,5-
INCHIAUX=N/A
PUBMED=N/A
SUBMITUSER=mwang87
TAGS=
LIBRARYQUALITY=3
SPECTRUMID=CCMSLIB00000427100
SCANS=2072
43.326 100.0 
45.301 35.473 
57.214 39.527 
69.152 33.446 
99.125 6.672 
153.093 6.25 
END IONS

BEGIN IONS
PEPMASS=183.052
CHARGE=1+
MSLEVEL=2
SOURCE_INSTRUMENT=Positive-Quattro_QQQ:10eV
FILENAME=hmdb_intermediate.mgf
SEQ=*..*
IONMODE=Positive
ORGANISM=HMDB
NAME=HMDB:HMDB01973-1917 9-Methyluric acid M+H
PI=HMDB
DATACOLLECTOR=HMDB
SMILES=CN1C(=O)NC2=C1NC(=O)NC2=O
INCHI=InChI=1S/C6H6N4O3/c1-10-3-2(7-6(10)13)4(11)9-5(12)8-3/h1H3,(H,7,13)(H2,8,9,11,12)
INCHIAUX=N/A
PUBMED=N/A
SUBMITUSER=mwang87
TAGS=
LIBRARYQUALITY=3
SPECTRUMID=CCMSLIB00000427101
SCANS=2073
127.0 8.427 
140.0 3.369 
151.0 8.437 
155.0 7.906 
168.0 5.359 
183.0 100.0 
END IONS

BEGIN IONS
PEPMASS=167.071
CHARGE=1+
MSLEVEL=2
SOURCE_INSTRUMENT=Positive-Quattro_QQQ:40eV
FILENAME=hmdb_intermediate.mgf
SEQ=*..*
IONMODE=Positive
ORGANISM=HMDB
NAME=HMDB:HMDB02229-2042 3-Phenoxypropionic acid M+H
PI=HMDB
DATACOLLECTOR=HMDB
SMILES=OC(=O)CCOC1=CC=CC=C1
INCHI=InChI=1S/C9H10O3/c10-9(11)6-7-12-8-4-2-1-3-5-8/h1-5H,6-7H2,(H,10,11)
INCHIAUX=N/A
PUBMED=N/A
SUBMITUSER=mwang87
TAGS=
LIBRARYQUALITY=3
SPECTRUMID=CCMSLIB00000427102
SCANS=2074
73.0 56.972 
77.0 100.0 
89.0 18.193 
117.0 18.74 
END IONS

BEGIN IONS
PEPMASS=81.0453
CHARGE=1+
MSLEVEL=2
SOURCE_INSTRUMENT=Positive-Quattro_QQQ:10eV
FILENAME=hmdb_intermediate.mgf
SEQ=*..*
IONMODE=Positive
ORGANISM=HMDB
NAME=HMDB:HMDB03361-2265 Pyrimidine M+H
PI=HMDB
DATACOLLECTOR=HMDB
SMILES=C1=CN=CN=C1
INCHI=InChI=1S/C4H4N2/c1-2-5-4-6-3-1/h1-4H
INCHIAUX=N/A
PUBMED=N/A
SUBMITUSER=mwang87
TAGS=
LIBRARYQUALITY=3
SPECTRUMID=CCMSLIB00000427103
SCANS=2075
54.05 4.865 
80.91 100.0 
END IONS

BEGIN IONS
PEPMASS=76.0762
CHARGE=1+
MSLEVEL=2
SOURCE_INSTRUMENT=Positive-Quattro_QQQ:10eV
FILENAME=hmdb_intermediate.mgf
SEQ=*..*
IONMODE=Positive
ORGANISM=HMDB
NAME=HMDB:HMDB00925-1312 Trimethylamine N-oxide M+H
PI=HMDB
DATACOLLECTOR=HMDB
SMILES=C[N+](C)(C)[O-]
INCHI=InChI=1S/C3H9NO/c1-4(2,3)5/h1-3H3
INCHIAUX=N/A
PUBMED=N/A
SUBMITUSER=mwang87
TAGS=
LIBRARYQUALITY=3
SPECTRUMID=CCMSLIB00000427104
SCANS=2076
59.035 83.448 
76.126 100.0 
END IONS

BEGIN IONS
PEPMASS=338.212
CHARGE=1+
MSLEVEL=2
SOURCE_INSTRUMENT=Positive-Quattro_QQQ:25eV
FILENAME=hmdb_intermediate.mgf
SEQ=*..*
IONMODE=Positive
ORGANISM=HMDB
NAME=HMDB:HMDB02835-2147 Danazol M+H
PI=HMDB
DATACOLLECTOR=HMDB
SMILES=[H][C@@]12CC[C@@](O)(C#C)[C@@]1(C)CC[C@@]1([H])[C@@]2([H])CCC2=CC3=C(C[C@]12C)C=NO3
INCHI=InChI=1S/C22H27NO2/c1-4-22(24)10-8-18-16-6-5-15-11-19-14(13-23-25-19)12-20(15,2)17(16)7-9-21(18,22)3/h1,11,13,16-18,24H,5-10,12H2,2-3H3/t16-,17+,18+,20+,21+,22+/m1/s1
INCHIAUX=N/A
PUBMED=N/A
SUBMITUSER=mwang87
TAGS=
LIBRARYQUALITY=3
SPECTRUMID=CCMSLIB00000427105
SCANS=2077
69.94 100.0 
83.92 26.807 
90.97 23.072 
105.03 20.729 
121.29 42.129 
130.89 15.922 
142.52 15.213 
147.8 27.097 
169.3 12.501 
310.01 12.016 
338.05 59.334 
END IONS

BEGIN IONS
PEPMASS=147.126
CHARGE=1+
MSLEVEL=2
SOURCE_INSTRUMENT=Positive-Quattro_QQQ:10eV
FILENAME=hmdb_intermediate.mgf
SEQ=*..*
IONMODE=Positive
ORGANISM=HMDB
NAME=HMDB:HMDB00895-1262 Acetylcholine  M+H
PI=HMDB
DATACOLLECTOR=HMDB
SMILES=CC(=O)OCC[N+](C)(C)C
INCHI=InChI=1S/C7H16NO2/c1-7(9)10-6-5-8(2,3)4/h5-6H2,1-4H3/q+1
INCHIAUX=N/A
PUBMED=N/A
SUBMITUSER=mwang87
TAGS=
LIBRARYQUALITY=3
SPECTRUMID=CCMSLIB00000427106
SCANS=2078
61.0 7.653 
87.0 86.063 
147.0 100.0 
END IONS

BEGIN IONS
PEPMASS=181.071
CHARGE=1+
MSLEVEL=2
SOURCE_INSTRUMENT=Positive-Quattro_QQQ:40eV
FILENAME=hmdb_intermediate.mgf
SEQ=*..*
IONMODE=Positive
ORGANISM=HMDB
NAME=HMDB:HMDB01266-1500 L-Sorbose M+H
PI=HMDB
DATACOLLECTOR=HMDB
SMILES=OC[C@@]1(O)OC[C@H](O)[C@@H](O)[C@@H]1O
INCHI=InChI=1S/C6H12O6/c7-2-6(11)5(10)4(9)3(8)1-12-6/h3-5,7-11H,1-2H2/t3-,4+,5-,6+/m0/s1
INCHIAUX=N/A
PUBMED=N/A
SUBMITUSER=mwang87
TAGS=
LIBRARYQUALITY=3
SPECTRUMID=CCMSLIB00000427107
SCANS=2079
41.0 22.702 
45.0 51.071 
61.0 47.08 
73.0 100.0 
75.0 33.8 
85.0 86.202 
103.0 20.176 
117.0 54.127 
149.0 19.515 
END IONS

BEGIN IONS
PEPMASS=259.022
CHARGE=1+
MSLEVEL=2
SOURCE_INSTRUMENT=Negative-Quattro_QQQ:25eV
FILENAME=hmdb_intermediate.mgf
SEQ=*..*
IONMODE=Negative
ORGANISM=HMDB
NAME=HMDB:HMDB01586-1658 Glucose 1-phosphate M-H
PI=HMDB
DATACOLLECTOR=HMDB
SMILES=OC[C@H]1OC(OP(O)(O)=O)[C@H](O)[C@@H](O)[C@@H]1O
INCHI=InChI=1S/C6H13O9P/c7-1-2-3(8)4(9)5(10)6(14-2)15-16(11,12)13/h2-10H,1H2,(H2,11,12,13)/t2-,3-,4+,5-,6?/m1/s1
INCHIAUX=N/A
PUBMED=N/A
SUBMITUSER=mwang87
TAGS=
LIBRARYQUALITY=3
SPECTRUMID=CCMSLIB00000427108
SCANS=2080
56.672 82.376 
67.794 100.0 
102.275 75.337 
117.724 78.882 
145.534 82.376 
159.501 96.505 
168.648 89.466 
202.641 82.376 
245.786 100.0 
273.604 89.466 
295.859 89.466 
END IONS

BEGIN IONS
PEPMASS=158.082
CHARGE=1+
MSLEVEL=2
SOURCE_INSTRUMENT=Positive-Quattro_QQQ:40eV
FILENAME=hmdb_intermediate.mgf
SEQ=*..*
IONMODE=Positive
ORGANISM=HMDB
NAME=HMDB:HMDB00959-1365 Tiglylglycine M+H
PI=HMDB
DATACOLLECTOR=HMDB
SMILES=C\C=C(/C)C(=O)NCC(O)=O
INCHI=InChI=1S/C7H11NO3/c1-3-5(2)7(11)8-4-6(9)10/h3H,4H2,1-2H3,(H,8,11)(H,9,10)/b5-3+
INCHIAUX=N/A
PUBMED=N/A
SUBMITUSER=mwang87
TAGS=
LIBRARYQUALITY=3
SPECTRUMID=CCMSLIB00000427109
SCANS=2081
63.0 100.0 
65.0 26.392 
79.0 88.416 
END IONS

BEGIN IONS
PEPMASS=199.17
CHARGE=1+
MSLEVEL=2
SOURCE_INSTRUMENT=Positive-Quattro_QQQ:40eV
FILENAME=hmdb_intermediate.mgf
SEQ=*..*
IONMODE=Positive
ORGANISM=HMDB
NAME=HMDB:HMDB00529-751 5-Dodecenoic acid M+H
PI=HMDB
DATACOLLECTOR=HMDB
SMILES=CCCCCC\C=C/CCCC(O)=O
INCHI=InChI=1S/C12H22O2/c1-2-3-4-5-6-7-8-9-10-11-12(13)14/h7-8H,2-6,9-11H2,1H3,(H,13,14)/b8-7-
INCHIAUX=N/A
PUBMED=N/A
SUBMITUSER=mwang87
TAGS=
LIBRARYQUALITY=3
SPECTRUMID=CCMSLIB00000427110
SCANS=2082
41.0 99.405 
54.0 100.0 
55.0 96.238 
68.0 38.47 
78.0 25.335 
90.0 33.573 
114.0 27.118 
128.0 20.013 
142.0 19.743 
END IONS

BEGIN IONS
PEPMASS=89.0239
CHARGE=1+
MSLEVEL=2
SOURCE_INSTRUMENT=Negative-Quattro_QQQ:40eV
FILENAME=hmdb_intermediate.mgf
SEQ=*..*
IONMODE=Negative
ORGANISM=HMDB
NAME=HMDB:HMDB01311-1515 D-Lactic acid M-H
PI=HMDB
DATACOLLECTOR=HMDB
SMILES=C[C@@H](O)C(O)=O
INCHI=InChI=1S/C3H6O3/c1-2(4)3(5)6/h2,4H,1H3,(H,5,6)/t2-/m1/s1
INCHIAUX=N/A
PUBMED=N/A
SUBMITUSER=mwang87
TAGS=
LIBRARYQUALITY=3
SPECTRUMID=CCMSLIB00000427111
SCANS=2083
17.0 85.272 
43.0 60.732 
45.0 73.685 
89.0 100.0 
END IONS

BEGIN IONS
PEPMASS=167.071
CHARGE=1+
MSLEVEL=2
SOURCE_INSTRUMENT=Positive-Quattro_QQQ:40eV
FILENAME=hmdb_intermediate.mgf
SEQ=*..*
IONMODE=Positive
ORGANISM=HMDB
NAME=HMDB:HMDB00748-1067 L-3-Phenyllactic acid M+H
PI=HMDB
DATACOLLECTOR=HMDB
SMILES=O[C@H](CC1=CC=CC=C1)C(O)=O
INCHI=InChI=1S/C9H10O3/c10-8(9(11)12)6-7-4-2-1-3-5-7/h1-5,8,10H,6H2,(H,11,12)/t8-/m1/s1
INCHIAUX=N/A
PUBMED=N/A
SUBMITUSER=mwang87
TAGS=
LIBRARYQUALITY=3
SPECTRUMID=CCMSLIB00000427112
SCANS=2084
53.537 51.098 
58.084 100.0 
70.716 76.027 
83.475 88.775 
84.612 50.149 
99.771 32.832 
108.361 24.842 
118.341 10.762 
164.706 18.563 
183.658 10.762 
217.394 11.142 
END IONS

BEGIN IONS
PEPMASS=174.113
CHARGE=1+
MSLEVEL=2
SOURCE_INSTRUMENT=Positive-Quattro_QQQ:40eV
FILENAME=hmdb_intermediate.mgf
SEQ=*..*
IONMODE=Positive
ORGANISM=HMDB
NAME=HMDB:HMDB00701-980 Hexanoylglycine M+H
PI=HMDB
DATACOLLECTOR=HMDB
SMILES=CCCCCC(=O)NCC(O)=O
INCHI=InChI=1S/C8H15NO3/c1-2-3-4-5-7(10)9-6-8(11)12/h2-6H2,1H3,(H,9,10)(H,11,12)
INCHIAUX=N/A
PUBMED=N/A
SUBMITUSER=mwang87
TAGS=
LIBRARYQUALITY=3
SPECTRUMID=CCMSLIB00000427113
SCANS=2085
43.656 100.0 
55.545 5.318 
71.442 8.771 
76.368 4.869 
END IONS

BEGIN IONS
PEPMASS=281.248
CHARGE=1+
MSLEVEL=2
SOURCE_INSTRUMENT=Positive-Quattro_QQQ:40eV
FILENAME=hmdb_intermediate.mgf
SEQ=*..*
IONMODE=Positive
ORGANISM=HMDB
NAME=HMDB:HMDB00673-932 Linoleic acid M+H
PI=HMDB
DATACOLLECTOR=HMDB
SMILES=CCCCC\C=C/C\C=C/CCCCCCCC(O)=O
INCHI=InChI=1S/C18H32O2/c1-2-3-4-5-6-7-8-9-10-11-12-13-14-15-16-17-18(19)20/h6-7,9-10H,2-5,8,11-17H2,1H3,(H,19,20)/b7-6-,10-9-
INCHIAUX=N/A
PUBMED=N/A
SUBMITUSER=mwang87
TAGS=
LIBRARYQUALITY=3
SPECTRUMID=CCMSLIB00000427114
SCANS=2086
202.0 100.0 
END IONS

BEGIN IONS
PEPMASS=199.17
CHARGE=1+
MSLEVEL=2
SOURCE_INSTRUMENT=Positive-Quattro_QQQ:10eV
FILENAME=hmdb_intermediate.mgf
SEQ=*..*
IONMODE=Positive
ORGANISM=HMDB
NAME=HMDB:HMDB00529-749 5-Dodecenoic acid M+H
PI=HMDB
DATACOLLECTOR=HMDB
SMILES=CCCCCC\C=C/CCCC(O)=O
INCHI=InChI=1S/C12H22O2/c1-2-3-4-5-6-7-8-9-10-11-12(13)14/h7-8H,2-6,9-11H2,1H3,(H,13,14)/b8-7-
INCHIAUX=N/A
PUBMED=N/A
SUBMITUSER=mwang87
TAGS=
LIBRARYQUALITY=3
SPECTRUMID=CCMSLIB00000427115
SCANS=2087
138.0 25.033 
171.0 12.781 
181.0 12.938 
199.0 100.0 
END IONS

BEGIN IONS
PEPMASS=105.066
CHARGE=1+
MSLEVEL=2
SOURCE_INSTRUMENT=Positive-Quattro_QQQ:40eV
FILENAME=hmdb_intermediate.mgf
SEQ=*..*
IONMODE=Positive
ORGANISM=HMDB
NAME=HMDB:HMDB02006-1946 2,3-Diaminopropionic acid M+H
PI=HMDB
DATACOLLECTOR=HMDB
SMILES=NC[C@H](N)C(O)=O
INCHI=InChI=1S/C3H8N2O2/c4-1-2(5)3(6)7/h2H,1,4-5H2,(H,6,7)/t2-/m0/s1
INCHIAUX=N/A
PUBMED=N/A
SUBMITUSER=mwang87
TAGS=
LIBRARYQUALITY=3
SPECTRUMID=CCMSLIB00000427116
SCANS=2088
70.0 84.788 
76.0 37.946 
88.0 73.094 
104.0 56.435 
105.0 100.0 
END IONS

BEGIN IONS
PEPMASS=138.055
CHARGE=1+
MSLEVEL=2
SOURCE_INSTRUMENT=Positive-Quattro_QQQ:25eV
FILENAME=hmdb_intermediate.mgf
SEQ=*..*
IONMODE=Positive
ORGANISM=HMDB
NAME=HMDB:HMDB01891-1799 m-Aminobenzoic acid M+H
PI=HMDB
DATACOLLECTOR=HMDB
SMILES=NC1=CC=CC(=C1)C(O)=O
INCHI=InChI=1S/C7H7NO2/c8-6-3-1-2-5(4-6)7(9)10/h1-4H,8H2,(H,9,10)
INCHIAUX=N/A
PUBMED=N/A
SUBMITUSER=mwang87
TAGS=
LIBRARYQUALITY=3
SPECTRUMID=CCMSLIB00000427117
SCANS=2089
65.172 100.0 
77.117 59.88 
92.163 24.102 
102.992 3.78 
120.739 14.222 
137.714 11.527 
END IONS

BEGIN IONS
PEPMASS=91.0031
CHARGE=1+
MSLEVEL=2
SOURCE_INSTRUMENT=Positive-Quattro_QQQ:10eV
FILENAME=hmdb_intermediate.mgf
SEQ=*..*
IONMODE=Positive
ORGANISM=HMDB
NAME=HMDB:HMDB02329-2061 Oxalic acid M+H
PI=HMDB
DATACOLLECTOR=HMDB
SMILES=OC(=O)C(O)=O
INCHI=InChI=1S/C2H2O4/c3-1(4)2(5)6/h(H,3,4)(H,5,6)
INCHIAUX=N/A
PUBMED=N/A
SUBMITUSER=mwang87
TAGS=
LIBRARYQUALITY=3
SPECTRUMID=CCMSLIB00000427118
SCANS=2090
55.0 14.2995171846 
73.1 100.0 
91.1 23.8647338834 
END IONS

BEGIN IONS
PEPMASS=164.057
CHARGE=1+
MSLEVEL=2
SOURCE_INSTRUMENT=Positive-Quattro_QQQ:40eV
FILENAME=hmdb_intermediate.mgf
SEQ=*..*
IONMODE=Positive
ORGANISM=HMDB
NAME=HMDB:HMDB00802-1143 Pterin M+H
PI=HMDB
DATACOLLECTOR=HMDB
SMILES=NC1=NC2=NC=CN=C2C(=O)N1
INCHI=InChI=1S/C6H5N5O/c7-6-10-4-3(5(12)11-6)8-1-2-9-4/h1-2H,(H3,7,9,10,11,12)
INCHIAUX=N/A
PUBMED=N/A
SUBMITUSER=mwang87
TAGS=
LIBRARYQUALITY=3
SPECTRUMID=CCMSLIB00000427119
SCANS=2091
42.372 27.0 
52.295 16.5 
68.229 100.0 
79.12 14.688 
92.057 89.0 
96.062 11.0 
118.986 33.25 
164.046 12.188 
END IONS

BEGIN IONS
PEPMASS=301.18
CHARGE=1+
MSLEVEL=2
SOURCE_INSTRUMENT=Positive-Quattro_QQQ:10eV
FILENAME=hmdb_intermediate.mgf
SEQ=*..*
IONMODE=Positive
ORGANISM=HMDB
NAME=HMDB:HMDB00010-13 2-Methoxyestrone M+H
PI=HMDB
DATACOLLECTOR=HMDB
SMILES=[H][C@@]12CCC(=O)[C@@]1(C)CC[C@]1([H])C3=C(CC[C@@]21[H])C=C(O)C(OC)=C3
INCHI=InChI=1S/C19H24O3/c1-19-8-7-12-13(15(19)5-6-18(19)21)4-3-11-9-16(20)17(22-2)10-14(11)12/h9-10,12-13,15,20H,3-8H2,1-2H3/t12-,13+,15-,19-/m0/s1
INCHIAUX=N/A
PUBMED=N/A
SUBMITUSER=mwang87
TAGS=
LIBRARYQUALITY=3
SPECTRUMID=CCMSLIB00000427120
SCANS=2092
137.0 3.637 
163.0 4.848 
187.0 8.995 
227.0 3.212 
283.0 17.658 
301.0 100.0 
END IONS

BEGIN IONS
PEPMASS=110.028
CHARGE=1+
MSLEVEL=2
SOURCE_INSTRUMENT=Positive-Quattro_QQQ:40eV
FILENAME=hmdb_intermediate.mgf
SEQ=*..*
IONMODE=Positive
ORGANISM=HMDB
NAME=HMDB:HMDB00965-1371 Hypotaurine M+H
PI=HMDB
DATACOLLECTOR=HMDB
SMILES=NCCS(O)=O
INCHI=InChI=1S/C2H7NO2S/c3-1-2-6(4)5/h1-3H2,(H,4,5)
INCHIAUX=N/A
PUBMED=N/A
SUBMITUSER=mwang87
TAGS=
LIBRARYQUALITY=3
SPECTRUMID=CCMSLIB00000427121
SCANS=2093
63.0 4.678 
65.0 100.0 
92.0 4.268 
110.0 17.011 
END IONS

BEGIN IONS
PEPMASS=146.166
CHARGE=1+
MSLEVEL=2
SOURCE_INSTRUMENT=Positive-Quattro_QQQ:40eV
FILENAME=hmdb_intermediate.mgf
SEQ=*..*
IONMODE=Positive
ORGANISM=HMDB
NAME=HMDB:HMDB01257-1492 Spermidine M+H
PI=HMDB
DATACOLLECTOR=HMDB
SMILES=NCCCCNCCCN
INCHI=InChI=1S/C7H19N3/c8-4-1-2-6-10-7-3-5-9/h10H,1-9H2
INCHIAUX=N/A
PUBMED=N/A
SUBMITUSER=mwang87
TAGS=
LIBRARYQUALITY=3
SPECTRUMID=CCMSLIB00000427122
SCANS=2094
72.0 100.0 
84.0 42.134 
END IONS

BEGIN IONS
PEPMASS=149.045
CHARGE=1+
MSLEVEL=2
SOURCE_INSTRUMENT=Positive-Quattro_QQQ:10eV
FILENAME=hmdb_intermediate.mgf
SEQ=*..*
IONMODE=Positive
ORGANISM=HMDB
NAME=HMDB:HMDB01900-1816 Ribonolactone M+H
PI=HMDB
DATACOLLECTOR=HMDB
SMILES=OC[C@H]1OC(=O)[C@H](O)[C@@H]1O
INCHI=InChI=1S/C5H8O5/c6-1-2-3(7)4(8)5(9)10-2/h2-4,6-8H,1H2/t2-,3-,4-/m1/s1
INCHIAUX=N/A
PUBMED=N/A
SUBMITUSER=mwang87
TAGS=
LIBRARYQUALITY=3
SPECTRUMID=CCMSLIB00000427123
SCANS=2095
103.079 18.471 
131.288 100.0 
END IONS

BEGIN IONS
PEPMASS=193.035
CHARGE=1+
MSLEVEL=2
SOURCE_INSTRUMENT=Positive-Quattro_QQQ:10eV
FILENAME=hmdb_intermediate.mgf
SEQ=*..*
IONMODE=Positive
ORGANISM=HMDB
NAME=HMDB:HMDB00193-310 Isocitric acid M+H
PI=HMDB
DATACOLLECTOR=HMDB
SMILES=OC(C(CC(O)=O)C(O)=O)C(O)=O
INCHI=InChI=1S/C6H8O7/c7-3(8)1-2(5(10)11)4(9)6(12)13/h2,4,9H,1H2,(H,7,8)(H,10,11)(H,12,13)
INCHIAUX=N/A
PUBMED=N/A
SUBMITUSER=mwang87
TAGS=
LIBRARYQUALITY=3
SPECTRUMID=CCMSLIB00000427124
SCANS=2096
55.296 27.124 
70.433 12.501 
82.922 13.299 
92.384 15.856 
98.691 18.173 
108.027 28.722 
122.535 23.607 
134.268 17.375 
136.286 21.929 
152.435 100.0 
156.22 12.899 
164.674 33.277 
175.272 24.807 
192.937 90.57 
201.138 49.258 
230.539 24.086 
END IONS

BEGIN IONS
PEPMASS=186.017
CHARGE=1+
MSLEVEL=2
SOURCE_INSTRUMENT=Positive-Quattro_QQQ:40eV
FILENAME=hmdb_intermediate.mgf
SEQ=*..*
IONMODE=Positive
ORGANISM=HMDB
NAME=HMDB:HMDB01721-1680 DL-O-Phosphoserine M+H
PI=HMDB
DATACOLLECTOR=HMDB
SMILES=NC(COP(O)(O)=O)C(O)=O
INCHI=InChI=1S/C3H8NO6P/c4-2(3(5)6)1-10-11(7,8)9/h2H,1,4H2,(H,5,6)(H2,7,8,9)
INCHIAUX=N/A
PUBMED=N/A
SUBMITUSER=mwang87
TAGS=
LIBRARYQUALITY=3
SPECTRUMID=CCMSLIB00000427125
SCANS=2097
42.662 100.0 
44.89 2.111 
60.473 2.865 
70.355 37.5 
81.251 11.31 
88.258 23.363 
99.173 7.292 
END IONS

BEGIN IONS
PEPMASS=391.285
CHARGE=1+
MSLEVEL=2
SOURCE_INSTRUMENT=Negative-Quattro_QQQ:10eV
FILENAME=hmdb_intermediate.mgf
SEQ=*..*
IONMODE=Negative
ORGANISM=HMDB
NAME=HMDB:HMDB00733-1035 Hyodeoxycholic acid M-H
PI=HMDB
DATACOLLECTOR=HMDB
SMILES=[H][C@@]12CC[C@H]([C@H](C)CCC(O)=O)[C@@]1(C)CC[C@@]1([H])[C@@]2([H])C[C@H](O)C2C[C@H](O)CC[C@]12C
INCHI=InChI=1S/C24H40O4/c1-14(4-7-22(27)28)17-5-6-18-16-13-21(26)20-12-15(25)8-10-24(20,3)19(16)9-11-23(17,18)2/h14-21,25-26H,4-13H2,1-3H3,(H,27,28)/t14-,15-,16+,17-,18+,19+,20?,21+,23-,24-/m1/s1
INCHIAUX=N/A
PUBMED=N/A
SUBMITUSER=mwang87
TAGS=
LIBRARYQUALITY=3
SPECTRUMID=CCMSLIB00000427126
SCANS=2098
152.0 1.697 
254.0 5.055 
255.0 3.545 
391.0 100.0 
END IONS

BEGIN IONS
PEPMASS=73.0653
CHARGE=1+
MSLEVEL=2
SOURCE_INSTRUMENT=Positive-Quattro_QQQ:40eV
FILENAME=hmdb_intermediate.mgf
SEQ=*..*
IONMODE=Positive
ORGANISM=HMDB
NAME=HMDB:HMDB00246-420 Tetrahydrofuran M+H
PI=HMDB
DATACOLLECTOR=HMDB
SMILES=C1CCOC1
INCHI=InChI=1S/C4H8O/c1-2-4-5-3-1/h1-4H2
INCHIAUX=N/A
PUBMED=N/A
SUBMITUSER=mwang87
TAGS=
LIBRARYQUALITY=3
SPECTRUMID=CCMSLIB00000427127
SCANS=2099
31.0 69.095 
43.0 93.099 
45.0 84.412 
55.0 78.032 
73.0 100.0 
END IONS

BEGIN IONS
PEPMASS=118.087
CHARGE=1+
MSLEVEL=2
SOURCE_INSTRUMENT=Positive-Quattro_QQQ:25eV
FILENAME=hmdb_intermediate.mgf
SEQ=*..*
IONMODE=Positive
ORGANISM=HMDB
NAME=HMDB:HMDB00883-1245 L-Valine M+H
PI=HMDB
DATACOLLECTOR=HMDB
SMILES=CC(C)[C@H](N)C(O)=O
INCHI=InChI=1S/C5H11NO2/c1-3(2)4(6)5(7)8/h3-4H,6H2,1-2H3,(H,7,8)/t4-/m0/s1
INCHIAUX=N/A
PUBMED=N/A
SUBMITUSER=mwang87
TAGS=
LIBRARYQUALITY=3
SPECTRUMID=CCMSLIB00000427128
SCANS=2100
55.234 100.0 
72.122 58.621 
117.909 3.269 
END IONS

BEGIN IONS
PEPMASS=115.076
CHARGE=1+
MSLEVEL=2
SOURCE_INSTRUMENT=Negative-Quattro_QQQ:40eV
FILENAME=hmdb_intermediate.mgf
SEQ=*..*
IONMODE=Negative
ORGANISM=HMDB
NAME=HMDB:HMDB00535-757 Caproic acid M-H
PI=HMDB
DATACOLLECTOR=HMDB
SMILES=CCCCCC(O)=O
INCHI=InChI=1S/C6H12O2/c1-2-3-4-5-6(7)8/h2-5H2,1H3,(H,7,8)
INCHIAUX=N/A
PUBMED=N/A
SUBMITUSER=mwang87
TAGS=
LIBRARYQUALITY=3
SPECTRUMID=CCMSLIB00000427129
SCANS=2101
58.192 27.459 
114.092 44.262 
115.106 100.0 
END IONS

BEGIN IONS
PEPMASS=130.05
CHARGE=1+
MSLEVEL=2
SOURCE_INSTRUMENT=Positive-Quattro_QQQ:25eV
FILENAME=hmdb_intermediate.mgf
SEQ=*..*
IONMODE=Positive
ORGANISM=HMDB
NAME=HMDB:HMDB00805-1148 Pyrrolidonecarboxylic acid M+H
PI=HMDB
DATACOLLECTOR=HMDB
SMILES=OC(=O)C1CCC(=O)N1
INCHI=InChI=1S/C5H7NO3/c7-4-2-1-3(6-4)5(8)9/h3H,1-2H2,(H,6,7)(H,8,9)
INCHIAUX=N/A
PUBMED=N/A
SUBMITUSER=mwang87
TAGS=
LIBRARYQUALITY=3
SPECTRUMID=CCMSLIB00000427130
SCANS=2102
41.681 34.593 
56.514 68.314 
84.341 100.0 
END IONS

BEGIN IONS
PEPMASS=223.075
CHARGE=1+
MSLEVEL=2
SOURCE_INSTRUMENT=Positive-Quattro_QQQ:40eV
FILENAME=hmdb_intermediate.mgf
SEQ=*..*
IONMODE=Positive
ORGANISM=HMDB
NAME=HMDB:HMDB00455-667 Allocystathionine M+H
PI=HMDB
DATACOLLECTOR=HMDB
SMILES=N[C@@H](CCSCC(N)C(O)=O)C(O)=O
INCHI=InChI=1S/C7H14N2O4S/c8-4(6(10)11)1-2-14-3-5(9)7(12)13/h4-5H,1-3,8-9H2,(H,10,11)(H,12,13)/t4-,5?/m0/s1
INCHIAUX=N/A
PUBMED=N/A
SUBMITUSER=mwang87
TAGS=
LIBRARYQUALITY=3
SPECTRUMID=CCMSLIB00000427131
SCANS=2103
44.371 3.496 
56.206 9.163 
88.066 100.0 
133.88 3.099 
END IONS

BEGIN IONS
PEPMASS=123.045
CHARGE=1+
MSLEVEL=2
SOURCE_INSTRUMENT=Positive-Quattro_QQQ:40eV
FILENAME=hmdb_intermediate.mgf
SEQ=*..*
IONMODE=Positive
ORGANISM=HMDB
NAME=HMDB:HMDB01870-1758 Benzoic acid M+H
PI=HMDB
DATACOLLECTOR=HMDB
SMILES=OC(=O)C1=CC=CC=C1
INCHI=InChI=1S/C7H6O2/c8-7(9)6-4-2-1-3-5-6/h1-5H,(H,8,9)
INCHIAUX=N/A
PUBMED=N/A
SUBMITUSER=mwang87
TAGS=
LIBRARYQUALITY=3
SPECTRUMID=CCMSLIB00000427132
SCANS=2104
76.997 100.0 
121.05 36.511 
END IONS

BEGIN IONS
PEPMASS=151.04
CHARGE=1+
MSLEVEL=2
SOURCE_INSTRUMENT=Negative-Quattro_QQQ:25eV
FILENAME=hmdb_intermediate.mgf
SEQ=*..*
IONMODE=Negative
ORGANISM=HMDB
NAME=HMDB:HMDB00020-34 p-Hydroxyphenylacetic acid M-H
PI=HMDB
DATACOLLECTOR=HMDB
SMILES=OC(=O)CC1=CC=C(O)C=C1
INCHI=InChI=1S/C8H8O3/c9-7-3-1-6(2-4-7)5-8(10)11/h1-4,9H,5H2,(H,10,11)
INCHIAUX=N/A
PUBMED=N/A
SUBMITUSER=mwang87
TAGS=
LIBRARYQUALITY=3
SPECTRUMID=CCMSLIB00000427133
SCANS=2105
45.597 9.746 
65.465 4.131 
79.392 100.0 
93.314 27.119 
107.16 59.887 
151.255 6.427 
END IONS

BEGIN IONS
PEPMASS=132.081
CHARGE=1+
MSLEVEL=2
SOURCE_INSTRUMENT=Positive-Quattro_QQQ:40eV
FILENAME=hmdb_intermediate.mgf
SEQ=*..*
IONMODE=Positive
ORGANISM=HMDB
NAME=HMDB:HMDB00466-676 3-Methylindole M+H
PI=HMDB
DATACOLLECTOR=HMDB
SMILES=CC1=CNC2=C1C=CC=C2
INCHI=InChI=1S/C9H9N/c1-7-6-10-9-5-3-2-4-8(7)9/h2-6,10H,1H3
INCHIAUX=N/A
PUBMED=N/A
SUBMITUSER=mwang87
TAGS=
LIBRARYQUALITY=3
SPECTRUMID=CCMSLIB00000427134
SCANS=2106
51.184 6.156 
63.936 10.125 
77.064 30.25 
89.107 100.0 
102.947 5.563 
116.779 38.5 
129.879 5.844 
END IONS

BEGIN IONS
PEPMASS=333.243
CHARGE=1+
MSLEVEL=2
SOURCE_INSTRUMENT=Positive-Quattro_QQQ:10eV
FILENAME=hmdb_intermediate.mgf
SEQ=*..*
IONMODE=Positive
ORGANISM=HMDB
NAME=HMDB:HMDB00363-576 17a-Hydroxypregnenolone M+H
PI=HMDB
DATACOLLECTOR=HMDB
SMILES=[H][C@@]12CC[C@](O)(C(C)=O)[C@@]1(C)CC[C@@]1([H])[C@@]2([H])CC=C2C[C@@H](O)CC[C@]12C
INCHI=InChI=1S/C21H32O3/c1-13(22)21(24)11-8-18-16-5-4-14-12-15(23)6-9-19(14,2)17(16)7-10-20(18,21)3/h4,15-18,23-24H,5-12H2,1-3H3/t15-,16+,17-,18-,19-,20-,21-/m0/s1
INCHIAUX=N/A
PUBMED=N/A
SUBMITUSER=mwang87
TAGS=
LIBRARYQUALITY=3
SPECTRUMID=CCMSLIB00000427135
SCANS=2107
132.0 23.857 
254.0 20.255 
271.0 21.137 
296.0 22.18 
314.0 33.026 
315.0 47.315 
332.0 100.0 
END IONS

BEGIN IONS
PEPMASS=222.098
CHARGE=1+
MSLEVEL=2
SOURCE_INSTRUMENT=Positive-Quattro_QQQ:25eV
FILENAME=hmdb_intermediate.mgf
SEQ=*..*
IONMODE=Positive
ORGANISM=HMDB
NAME=HMDB:HMDB01129-1428 N-Acetylmannosamine M+H
PI=HMDB
DATACOLLECTOR=HMDB
SMILES=[H][C@@]1(O)O[C@H](CO)[C@@H](O)[C@H](O)[C@@H]1NC(C)=O
INCHI=InChI=1S/C8H15NO6/c1-3(11)9-5-7(13)6(12)4(2-10)15-8(5)14/h4-8,10,12-14H,2H2,1H3,(H,9,11)/t4-,5+,6-,7-,8-/m1/s1
INCHIAUX=N/A
PUBMED=N/A
SUBMITUSER=mwang87
TAGS=
LIBRARYQUALITY=3
SPECTRUMID=CCMSLIB00000427136
SCANS=2108
61.0 4.219 
69.0 5.7 
84.0 100.0 
96.0 25.351 
109.0 5.35 
126.0 21.442 
138.0 38.903 
END IONS

BEGIN IONS
PEPMASS=370.084
CHARGE=1+
MSLEVEL=2
SOURCE_INSTRUMENT=Positive-Quattro_QQQ:10eV
FILENAME=hmdb_intermediate.mgf
SEQ=*..*
IONMODE=Positive
ORGANISM=HMDB
NAME=HMDB:HMDB05008-2439 Lansoprazole M+H
PI=HMDB
DATACOLLECTOR=HMDB
SMILES=CC1=C(OCC(F)(F)F)C=CN=C1CS(=O)C1=NC2=CC=CC=C2N1
INCHI=InChI=1S/C16H14F3N3O2S/c1-10-13(20-7-6-14(10)24-9-16(17,18)19)8-25(23)15-21-11-4-2-3-5-12(11)22-15/h2-7H,8-9H2,1H3,(H,21,22)
INCHIAUX=N/A
PUBMED=N/A
SUBMITUSER=mwang87
TAGS=
LIBRARYQUALITY=3
SPECTRUMID=CCMSLIB00000427137
SCANS=2109
118.91 8.94 
251.82 100.0 
END IONS

BEGIN IONS
PEPMASS=289.217
CHARGE=1+
MSLEVEL=2
SOURCE_INSTRUMENT=Positive-Quattro_QQQ:25eV
FILENAME=hmdb_intermediate.mgf
SEQ=*..*
IONMODE=Positive
ORGANISM=HMDB
NAME=HMDB:HMDB00077-127 Dehydroepiandrosterone M+H
PI=HMDB
DATACOLLECTOR=HMDB
SMILES=C[C@]12CCC3C(CC=C4C[C@@H](O)CC[C@]34C)C1CCC2=O
INCHI=InChI=1S/C19H28O2/c1-18-9-7-13(20)11-12(18)3-4-14-15-5-6-17(21)19(15,2)10-8-16(14)18/h3,13-16,20H,4-11H2,1-2H3/t13-,14?,15?,16?,18-,19-/m0/s1
INCHIAUX=N/A
PUBMED=N/A
SUBMITUSER=mwang87
TAGS=
LIBRARYQUALITY=3
SPECTRUMID=CCMSLIB00000427138
SCANS=2110
67.182 20.27 
81.124 68.468 
93.1 34.459 
95.098 25.676 
105.076 34.91 
119.035 23.649 
133.034 63.964 
143.004 31.757 
145.011 74.775 
157.004 76.577 
171.019 57.207 
182.958 41.441 
185.043 24.324 
196.998 70.27 
213.045 100.0 
224.946 24.775 
253.068 32.432 
END IONS

BEGIN IONS
PEPMASS=111.008
CHARGE=1+
MSLEVEL=2
SOURCE_INSTRUMENT=Negative-Quattro_QQQ:10eV
FILENAME=hmdb_intermediate.mgf
SEQ=*..*
IONMODE=Negative
ORGANISM=HMDB
NAME=HMDB:HMDB00617-831 2-Furoic acid M-H
PI=HMDB
DATACOLLECTOR=HMDB
SMILES=OC(=O)C1=CC=CO1
INCHI=InChI=1S/C5H4O3/c6-5(7)4-2-1-3-8-4/h1-3H,(H,6,7)
INCHIAUX=N/A
PUBMED=N/A
SUBMITUSER=mwang87
TAGS=
LIBRARYQUALITY=3
SPECTRUMID=CCMSLIB00000427139
SCANS=2111
67.089 100.0 
110.914 10.328 
END IONS

BEGIN IONS
PEPMASS=69.0453
CHARGE=1+
MSLEVEL=2
SOURCE_INSTRUMENT=Positive-Quattro_QQQ:40eV
FILENAME=hmdb_intermediate.mgf
SEQ=*..*
IONMODE=Positive
ORGANISM=HMDB
NAME=HMDB:HMDB01525-1627 Imidazole M+H
PI=HMDB
DATACOLLECTOR=HMDB
SMILES=N1C=CN=C1
INCHI=InChI=1S/C3H4N2/c1-2-5-3-4-1/h1-3H,(H,4,5)
INCHIAUX=N/A
PUBMED=N/A
SUBMITUSER=mwang87
TAGS=
LIBRARYQUALITY=3
SPECTRUMID=CCMSLIB00000427140
SCANS=2112
42.541 85.496 
69.319 100.0 
END IONS

BEGIN IONS
PEPMASS=135.029
CHARGE=1+
MSLEVEL=2
SOURCE_INSTRUMENT=Positive-Quattro_QQQ:40eV
FILENAME=hmdb_intermediate.mgf
SEQ=*..*
IONMODE=Positive
ORGANISM=HMDB
NAME=HMDB:HMDB00156-241 L-Malic acid M+H
PI=HMDB
DATACOLLECTOR=HMDB
SMILES=O[C@@H](CC(O)=O)C(O)=O
INCHI=InChI=1S/C4H6O5/c5-2(4(8)9)1-3(6)7/h2,5H,1H2,(H,6,7)(H,8,9)/t2-/m0/s1
INCHIAUX=N/A
PUBMED=N/A
SUBMITUSER=mwang87
TAGS=
LIBRARYQUALITY=3
SPECTRUMID=CCMSLIB00000427141
SCANS=2113
29.0 38.75 
43.0 100.0 
45.0 69.17 
57.0 40.038 
71.0 77.825 
77.0 64.883 
85.0 35.992 
END IONS

BEGIN IONS
PEPMASS=165.055
CHARGE=1+
MSLEVEL=2
SOURCE_INSTRUMENT=Positive-Quattro_QQQ:25eV
FILENAME=hmdb_intermediate.mgf
SEQ=*..*
IONMODE=Positive
ORGANISM=HMDB
NAME=HMDB:HMDB00205-329 Phenylpyruvic acid M+H
PI=HMDB
DATACOLLECTOR=HMDB
SMILES=OC(=O)C(=O)CC1=CC=CC=C1
INCHI=InChI=1S/C9H8O3/c10-8(9(11)12)6-7-4-2-1-3-5-7/h1-5H,6H2,(H,11,12)
INCHIAUX=N/A
PUBMED=N/A
SUBMITUSER=mwang87
TAGS=
LIBRARYQUALITY=3
SPECTRUMID=CCMSLIB00000427142
SCANS=2114
77.0 100.0 
105.0 27.689 
END IONS

BEGIN IONS
PEPMASS=168.99
CHARGE=1+
MSLEVEL=2
SOURCE_INSTRUMENT=Positive-Quattro_QQQ:10eV
FILENAME=hmdb_intermediate.mgf
SEQ=*..*
IONMODE=Positive
ORGANISM=HMDB
NAME=HMDB:HMDB00263-457 Phosphoenolpyruvic acid M+H
PI=HMDB
DATACOLLECTOR=HMDB
SMILES=OC(=O)C(=C)OP(O)(O)=O
INCHI=InChI=1S/C3H5O6P/c1-2(3(4)5)9-10(6,7)8/h1H2,(H,4,5)(H2,6,7,8)
INCHIAUX=N/A
PUBMED=N/A
SUBMITUSER=mwang87
TAGS=
LIBRARYQUALITY=3
SPECTRUMID=CCMSLIB00000427143
SCANS=2115
43.0 6.809 
98.0 34.67 
123.0 20.222 
137.0 71.519 
151.0 100.0 
169.0 38.595 
END IONS

BEGIN IONS
PEPMASS=111.045
CHARGE=1+
MSLEVEL=2
SOURCE_INSTRUMENT=Positive-Quattro_QQQ:10eV
FILENAME=hmdb_intermediate.mgf
SEQ=*..*
IONMODE=Positive
ORGANISM=HMDB
NAME=HMDB:HMDB02434-2107 Hydroquinone M+H
PI=HMDB
DATACOLLECTOR=HMDB
SMILES=OC1=CC=C(O)C=C1
INCHI=InChI=1S/C6H6O2/c7-5-1-2-6(8)4-3-5/h1-4,7-8H
INCHIAUX=N/A
PUBMED=N/A
SUBMITUSER=mwang87
TAGS=
LIBRARYQUALITY=3
SPECTRUMID=CCMSLIB00000427144
SCANS=2116
43.0 8.493 
54.0 17.685 
55.0 12.982 
68.0 35.915 
82.0 22.783 
92.0 17.243 
110.0 100.0 
END IONS

BEGIN IONS
PEPMASS=59.0497
CHARGE=1+
MSLEVEL=2
SOURCE_INSTRUMENT=Positive-Quattro_QQQ:25eV
FILENAME=hmdb_intermediate.mgf
SEQ=*..*
IONMODE=Positive
ORGANISM=HMDB
NAME=HMDB:HMDB03366-2272 Propanal M+H
PI=HMDB
DATACOLLECTOR=HMDB
SMILES=CCC=O
INCHI=InChI=1S/C3H6O/c1-2-3-4/h3H,2H2,1H3
INCHIAUX=N/A
PUBMED=N/A
SUBMITUSER=mwang87
TAGS=
LIBRARYQUALITY=3
SPECTRUMID=CCMSLIB00000427145
SCANS=2117
15.0 52.419 
31.0 40.816 
42.0 100.0 
58.0 89.949 
END IONS

BEGIN IONS
PEPMASS=103.003
CHARGE=1+
MSLEVEL=2
SOURCE_INSTRUMENT=Negative-Quattro_QQQ:10eV
FILENAME=hmdb_intermediate.mgf
SEQ=*..*
IONMODE=Negative
ORGANISM=HMDB
NAME=HMDB:HMDB00691-958 Malonic acid M-H
PI=HMDB
DATACOLLECTOR=HMDB
SMILES=OC(=O)CC(O)=O
INCHI=InChI=1S/C3H4O4/c4-2(5)1-3(6)7/h1H2,(H,4,5)(H,6,7)
INCHIAUX=N/A
PUBMED=N/A
SUBMITUSER=mwang87
TAGS=
LIBRARYQUALITY=3
SPECTRUMID=CCMSLIB00000427146
SCANS=2118
59.456 100.0 
103.194 16.051 
END IONS

BEGIN IONS
PEPMASS=76.0762
CHARGE=1+
MSLEVEL=2
SOURCE_INSTRUMENT=Positive-Quattro_QQQ:25eV
FILENAME=hmdb_intermediate.mgf
SEQ=*..*
IONMODE=Positive
ORGANISM=HMDB
NAME=HMDB:HMDB00925-1313 Trimethylamine N-oxide M+H
PI=HMDB
DATACOLLECTOR=HMDB
SMILES=C[N+](C)(C)[O-]
INCHI=InChI=1S/C3H9NO/c1-4(2,3)5/h1-3H3
INCHIAUX=N/A
PUBMED=N/A
SUBMITUSER=mwang87
TAGS=
LIBRARYQUALITY=3
SPECTRUMID=CCMSLIB00000427147
SCANS=2119
43.381 5.641 
58.215 100.0 
75.9 11.41 
END IONS

BEGIN IONS
PEPMASS=426.053
CHARGE=1+
MSLEVEL=2
SOURCE_INSTRUMENT=Positive-Quattro_QQQ:40eV
FILENAME=hmdb_intermediate.mgf
SEQ=*..*
IONMODE=Positive
ORGANISM=HMDB
NAME=HMDB:HMDB01372-1543 Thiamine pyrophosphate M+H
PI=HMDB
DATACOLLECTOR=HMDB
SMILES=CC1=C(CCO[P@](O)(=O)OP(O)(O)=O)SC=[N+]1CC1=CN=C(C)N=C1N
INCHI=InChI=1S/C12H18N4O7P2S/c1-8-11(3-4-22-25(20,21)23-24(17,18)19)26-7-16(8)6-10-5-14-9(2)15-12(10)13/h5,7H,3-4,6H2,1-2H3,(H4-,13,14,15,17,18,19,20,21)/p+1
INCHIAUX=N/A
PUBMED=N/A
SUBMITUSER=mwang87
TAGS=
LIBRARYQUALITY=3
SPECTRUMID=CCMSLIB00000427148
SCANS=2120
80.0 35.774 
122.0 100.0 
126.0 29.812 
224.0 5.512 
END IONS

BEGIN IONS
PEPMASS=307.978
CHARGE=1+
MSLEVEL=2
SOURCE_INSTRUMENT=Positive-Quattro_QQQ:25eV
FILENAME=hmdb_intermediate.mgf
SEQ=*..*
IONMODE=Positive
ORGANISM=HMDB
NAME=HMDB:HMDB00021-37 Iodotyrosine M+H
PI=HMDB
DATACOLLECTOR=HMDB
SMILES=N[C@@H](CC1=CC=C(O)C(I)=C1)C(O)=O
INCHI=InChI=1S/C9H10INO3/c10-6-3-5(1-2-8(6)12)4-7(11)9(13)14/h1-3,7,12H,4,11H2,(H,13,14)/t7-/m0/s1
INCHIAUX=N/A
PUBMED=N/A
SUBMITUSER=mwang87
TAGS=
LIBRARYQUALITY=3
SPECTRUMID=CCMSLIB00000427149
SCANS=2121
94.043 22.297 
107.978 5.18 
118.01 9.009 
134.921 100.0 
163.818 19.595 
248.818 38.964 
261.86 73.874 
272.825 5.462 
290.836 9.065 
END IONS

BEGIN IONS
PEPMASS=183.052
CHARGE=1+
MSLEVEL=2
SOURCE_INSTRUMENT=Positive-Quattro_QQQ:25eV
FILENAME=hmdb_intermediate.mgf
SEQ=*..*
IONMODE=Positive
ORGANISM=HMDB
NAME=HMDB:HMDB03099-2195 1-Methyluric acid M+H
PI=HMDB
DATACOLLECTOR=HMDB
SMILES=CN1C(=O)NC2=C(NC(=O)N2)C1=O
INCHI=InChI=1S/C6H6N4O3/c1-10-4(11)2-3(9-6(10)13)8-5(12)7-2/h1H3,(H,9,13)(H2,7,8,12)
INCHIAUX=N/A
PUBMED=N/A
SUBMITUSER=mwang87
TAGS=
LIBRARYQUALITY=3
SPECTRUMID=CCMSLIB00000427150
SCANS=2122
104.0 40.15 
107.0 36.678 
134.0 100.0 
135.0 43.059 
END IONS

BEGIN IONS
PEPMASS=152.071
CHARGE=1+
MSLEVEL=2
SOURCE_INSTRUMENT=Positive-Quattro_QQQ:10eV
FILENAME=hmdb_intermediate.mgf
SEQ=*..*
IONMODE=Positive
ORGANISM=HMDB
NAME=HMDB:HMDB02210-2031 2-Phenylglycine M+H
PI=HMDB
DATACOLLECTOR=HMDB
SMILES=NC(C(O)=O)C1=CC=CC=C1
INCHI=InChI=1S/C8H9NO2/c9-7(8(10)11)6-4-2-1-3-5-6/h1-5,7H,9H2,(H,10,11)
INCHIAUX=N/A
PUBMED=N/A
SUBMITUSER=mwang87
TAGS=
LIBRARYQUALITY=3
SPECTRUMID=CCMSLIB00000427151
SCANS=2123
78.0 8.543 
106.0 14.22 
134.0 100.0 
151.0 7.882 
END IONS

BEGIN IONS
PEPMASS=73.0653
CHARGE=1+
MSLEVEL=2
SOURCE_INSTRUMENT=Positive-Quattro_QQQ:10eV
FILENAME=hmdb_intermediate.mgf
SEQ=*..*
IONMODE=Positive
ORGANISM=HMDB
NAME=HMDB:HMDB00246-418 Tetrahydrofuran M+H
PI=HMDB
DATACOLLECTOR=HMDB
SMILES=C1CCOC1
INCHI=InChI=1S/C4H8O/c1-2-4-5-3-1/h1-4H2
INCHIAUX=N/A
PUBMED=N/A
SUBMITUSER=mwang87
TAGS=
LIBRARYQUALITY=3
SPECTRUMID=CCMSLIB00000427152
SCANS=2124
45.0 17.244 
55.0 100.0 
73.0 96.398 
END IONS

BEGIN IONS
PEPMASS=162.077
CHARGE=1+
MSLEVEL=2
SOURCE_INSTRUMENT=Positive-Quattro_QQQ:40eV
FILENAME=hmdb_intermediate.mgf
SEQ=*..*
IONMODE=Positive
ORGANISM=HMDB
NAME=HMDB:HMDB00510-733 Aminoadipic acid M+H
PI=HMDB
DATACOLLECTOR=HMDB
SMILES=NC(CCCC(O)=O)C(O)=O
INCHI=InChI=1S/C6H11NO4/c7-4(6(10)11)2-1-3-5(8)9/h4H,1-3,7H2,(H,8,9)(H,10,11)
INCHIAUX=N/A
PUBMED=N/A
SUBMITUSER=mwang87
TAGS=
LIBRARYQUALITY=3
SPECTRUMID=CCMSLIB00000427153
SCANS=2125
43.252 5.699 
55.161 100.0 
70.115 19.669 
97.934 13.419 
115.959 3.102 
162.038 2.849 
END IONS

BEGIN IONS
PEPMASS=74.0606
CHARGE=1+
MSLEVEL=2
SOURCE_INSTRUMENT=Positive-Quattro_QQQ:25eV
FILENAME=hmdb_intermediate.mgf
SEQ=*..*
IONMODE=Positive
ORGANISM=HMDB
NAME=HMDB:HMDB01888-1790 N,N-Dimethylformamide M+H
PI=HMDB
DATACOLLECTOR=HMDB
SMILES=CN(C)C=O
INCHI=InChI=1S/C3H7NO/c1-4(2)3-5/h3H,1-2H3
INCHIAUX=N/A
PUBMED=N/A
SUBMITUSER=mwang87
TAGS=
LIBRARYQUALITY=3
SPECTRUMID=CCMSLIB00000427154
SCANS=2126
31.36 74.631 
42.1 100.0 
46.13 42.724 
58.09 16.738 
73.79 13.16 
END IONS

BEGIN IONS
PEPMASS=197.066
CHARGE=1+
MSLEVEL=2
SOURCE_INSTRUMENT=Positive-Quattro_QQQ:40eV
FILENAME=hmdb_intermediate.mgf
SEQ=*..*
IONMODE=Positive
ORGANISM=HMDB
NAME=HMDB:HMDB00625-851 Gluconic acid M+H
PI=HMDB
DATACOLLECTOR=HMDB
SMILES=OC[C@@H](O)[C@@H](O)[C@H](O)[C@@H](O)C(O)=O
INCHI=InChI=1S/C6H12O7/c7-1-2(8)3(9)4(10)5(11)6(12)13/h2-5,7-11H,1H2,(H,12,13)/t2-,3-,4+,5-/m1/s1
INCHIAUX=N/A
PUBMED=N/A
SUBMITUSER=mwang87
TAGS=
LIBRARYQUALITY=3
SPECTRUMID=CCMSLIB00000427155
SCANS=2127
55.889 39.94 
68.794 91.21 
75.811 43.08 
87.087 24.455 
98.364 58.776 
112.648 32.827 
115.029 100.0 
125.054 70.496 
141.093 51.452 
146.356 31.99 
END IONS

BEGIN IONS
PEPMASS=154.073
CHARGE=1+
MSLEVEL=2
SOURCE_INSTRUMENT=Positive-Quattro_QQQ:10eV
FILENAME=hmdb_intermediate.mgf
SEQ=*..*
IONMODE=Positive
ORGANISM=HMDB
NAME=HMDB:HMDB04816-2412 FAPy-adenine M+H
PI=HMDB
DATACOLLECTOR=HMDB
SMILES=NC1=NC=NC(N)=C1NC=O
INCHI=InChI=1S/C5H7N5O/c6-4-3(10-2-11)5(7)9-1-8-4/h1-2H,(H,10,11)(H4,6,7,8,9)
INCHIAUX=N/A
PUBMED=N/A
SUBMITUSER=mwang87
TAGS=
LIBRARYQUALITY=3
SPECTRUMID=CCMSLIB00000427156
SCANS=2128
126.0 34.775 
136.0 10.779 
154.0 100.0 
END IONS

BEGIN IONS
PEPMASS=122.097
CHARGE=1+
MSLEVEL=2
SOURCE_INSTRUMENT=Positive-Quattro_QQQ:40eV
FILENAME=hmdb_intermediate.mgf
SEQ=*..*
IONMODE=Positive
ORGANISM=HMDB
NAME=HMDB:HMDB01020-1392 N,N-Dimethylaniline M+H
PI=HMDB
DATACOLLECTOR=HMDB
SMILES=CN(C)C1=CC=CC=C1
INCHI=InChI=1S/C8H11N/c1-9(2)8-6-4-3-5-7-8/h3-7H,1-2H3
INCHIAUX=N/A
PUBMED=N/A
SUBMITUSER=mwang87
TAGS=
LIBRARYQUALITY=3
SPECTRUMID=CCMSLIB00000427157
SCANS=2129
51.0 12.838 
65.0 8.166 
77.0 100.0 
106.0 42.97 
END IONS

BEGIN IONS
PEPMASS=159.175
CHARGE=1+
MSLEVEL=2
SOURCE_INSTRUMENT=Positive-Quattro_QQQ:40eV
FILENAME=hmdb_intermediate.mgf
SEQ=*..*
IONMODE=Positive
ORGANISM=HMDB
NAME=HMDB:HMDB11624-2492 Decyl alcohol  M+H
PI=HMDB
DATACOLLECTOR=HMDB
SMILES=CCCCCCCCCCO
INCHI=InChI=1S/C10H22O/c1-2-3-4-5-6-7-8-9-10-11/h11H,2-10H2,1H3
INCHIAUX=N/A
PUBMED=N/A
SUBMITUSER=mwang87
TAGS=
LIBRARYQUALITY=3
SPECTRUMID=CCMSLIB00000427158
SCANS=2130
58.09 51.094 
117.54 100.0 
158.72 83.871 
END IONS

BEGIN IONS
PEPMASS=229.144
CHARGE=1+
MSLEVEL=2
SOURCE_INSTRUMENT=Negative-Quattro_QQQ:10eV
FILENAME=hmdb_intermediate.mgf
SEQ=*..*
IONMODE=Negative
ORGANISM=HMDB
NAME=HMDB:HMDB00623-846 Dodecanedioic acid M-H
PI=HMDB
DATACOLLECTOR=HMDB
SMILES=OC(=O)CCCCCCCCCCC(O)=O
INCHI=InChI=1S/C12H22O4/c13-11(14)9-7-5-3-1-2-4-6-8-10-12(15)16/h1-10H2,(H,13,14)(H,15,16)
INCHIAUX=N/A
PUBMED=N/A
SUBMITUSER=mwang87
TAGS=
LIBRARYQUALITY=3
SPECTRUMID=CCMSLIB00000427159
SCANS=2131
167.234 4.15 
211.18 17.188 
229.182 100.0 
END IONS

BEGIN IONS
PEPMASS=367.358
CHARGE=1+
MSLEVEL=2
SOURCE_INSTRUMENT=Positive-Quattro_QQQ:25eV
FILENAME=hmdb_intermediate.mgf
SEQ=*..*
IONMODE=Positive
ORGANISM=HMDB
NAME=HMDB:HMDB02368-2087 Nervonic acid M+H
PI=HMDB
DATACOLLECTOR=HMDB
SMILES=CCCCCCCC\C=C/CCCCCCCCCCCCCC(O)=O
INCHI=InChI=1S/C24H46O2/c1-2-3-4-5-6-7-8-9-10-11-12-13-14-15-16-17-18-19-20-21-22-23-24(25)26/h9-10H,2-8,11-23H2,1H3,(H,25,26)/b10-9-
INCHIAUX=N/A
PUBMED=N/A
SUBMITUSER=mwang87
TAGS=
LIBRARYQUALITY=3
SPECTRUMID=CCMSLIB00000427160
SCANS=2132
54.0 12.297 
57.0 66.815 
70.0 100.0 
80.0 40.553 
94.0 18.776 
96.0 33.083 
110.0 18.981 
120.0 18.072 
134.0 18.178 
135.0 13.565 
148.0 18.993 
162.0 6.133 
177.0 7.555 
END IONS

BEGIN IONS
PEPMASS=197.066
CHARGE=1+
MSLEVEL=2
SOURCE_INSTRUMENT=Positive-Quattro_QQQ:10eV
FILENAME=hmdb_intermediate.mgf
SEQ=*..*
IONMODE=Positive
ORGANISM=HMDB
NAME=HMDB:HMDB00625-849 Gluconic acid M+H
PI=HMDB
DATACOLLECTOR=HMDB
SMILES=OC[C@@H](O)[C@@H](O)[C@H](O)[C@@H](O)C(O)=O
INCHI=InChI=1S/C6H12O7/c7-1-2(8)3(9)4(10)5(11)6(12)13/h2-5,7-11H,1H2,(H,12,13)/t2-,3-,4+,5-/m1/s1
INCHIAUX=N/A
PUBMED=N/A
SUBMITUSER=mwang87
TAGS=
LIBRARYQUALITY=3
SPECTRUMID=CCMSLIB00000427161
SCANS=2133
57.017 24.875 
71.3 18.304 
82.451 15.55 
96.359 21.445 
113.651 41.154 
115.405 19.512 
127.56 20.333 
136.958 42.458 
153.248 19.173 
155.504 48.403 
178.938 100.0 
197.611 45.503 
END IONS

BEGIN IONS
PEPMASS=121.051
CHARGE=1+
MSLEVEL=2
SOURCE_INSTRUMENT=Positive-Quattro_QQQ:10eV
FILENAME=hmdb_intermediate.mgf
SEQ=*..*
IONMODE=Positive
ORGANISM=HMDB
NAME=HMDB:HMDB01366-1531 Purine M+H
PI=HMDB
DATACOLLECTOR=HMDB
SMILES=N1C=NC2=C1C=NC=N2
INCHI=InChI=1S/C5H4N4/c1-4-5(8-2-6-1)9-3-7-4/h1-3H,(H,6,7,8,9)
INCHIAUX=N/A
PUBMED=N/A
SUBMITUSER=mwang87
TAGS=
LIBRARYQUALITY=3
SPECTRUMID=CCMSLIB00000427162
SCANS=2134
120.999 100.0 
END IONS

BEGIN IONS
PEPMASS=732.615
CHARGE=1+
MSLEVEL=2
SOURCE_INSTRUMENT=Positive-Quattro_QQQ:25eV
FILENAME=hmdb_intermediate.mgf
SEQ=*..*
IONMODE=Positive
ORGANISM=HMDB
NAME=HMDB:HMDB01348-1529 SM(d18:1/18:0) M+H
PI=HMDB
DATACOLLECTOR=HMDB
SMILES=CCCCCCCCCCCCCCCCCC(=O)N[C@@]([H])(COP(O)(=O)OCC[N+](C)(C)C)[C@]([H])(O)\C=C\CCCCCCCCCCCCC
INCHI=InChI=1S/C41H83N2O6P/c1-6-8-10-12-14-16-18-20-21-23-25-27-29-31-33-35-41(45)42-39(38-49-50(46,47)48-37-36-43(3,4)5)40(44)34-32-30-28-26-24-22-19-17-15-13-11-9-7-2/h32,34,39-40,44H,6-31,33,35-38H2,1-5H3,(H-,42,45,46,47)/p+1/b34-32+/t39-,40+/m0/s1
INCHIAUX=N/A
PUBMED=N/A
SUBMITUSER=mwang87
TAGS=
LIBRARYQUALITY=3
SPECTRUMID=CCMSLIB00000427163
SCANS=2135
184.0 100.0 
185.0 12.228 
END IONS

BEGIN IONS
PEPMASS=195.05
CHARGE=1+
MSLEVEL=2
SOURCE_INSTRUMENT=Positive-Quattro_QQQ:10eV
FILENAME=hmdb_intermediate.mgf
SEQ=*..*
IONMODE=Positive
ORGANISM=HMDB
NAME=HMDB:HMDB02545-2116 Galacturonic acid M+H
PI=HMDB
DATACOLLECTOR=HMDB
SMILES=O[C@@H](C=O)[C@@H](O)[C@@H](O)[C@H](O)C(O)=O
INCHI=InChI=1S/C6H10O7/c7-1-2(8)3(9)4(10)5(11)6(12)13/h1-5,8-11H,(H,12,13)/t2-,3+,4+,5-/m0/s1
INCHIAUX=N/A
PUBMED=N/A
SUBMITUSER=mwang87
TAGS=
LIBRARYQUALITY=3
SPECTRUMID=CCMSLIB00000427164
SCANS=2136
85.0 15.046 
99.0 9.581 
119.0 19.036 
131.0 38.033 
145.0 5.353 
163.0 100.0 
167.0 3.431 
195.0 23.218 
END IONS

BEGIN IONS
PEPMASS=116.071
CHARGE=1+
MSLEVEL=2
SOURCE_INSTRUMENT=Positive-Quattro_QQQ:10eV
FILENAME=hmdb_intermediate.mgf
SEQ=*..*
IONMODE=Positive
ORGANISM=HMDB
NAME=HMDB:HMDB00162-254 L-Proline M+H
PI=HMDB
DATACOLLECTOR=HMDB
SMILES=OC(=O)[C@@H]1CCCN1
INCHI=InChI=1S/C5H9NO2/c7-5(8)4-2-1-3-6-4/h4,6H,1-3H2,(H,7,8)/t4-/m0/s1
INCHIAUX=N/A
PUBMED=N/A
SUBMITUSER=mwang87
TAGS=
LIBRARYQUALITY=3
SPECTRUMID=CCMSLIB00000427165
SCANS=2137
70.132 100.0 
115.996 73.725 
END IONS

BEGIN IONS
PEPMASS=131.118
CHARGE=1+
MSLEVEL=2
SOURCE_INSTRUMENT=Positive-Quattro_QQQ:40eV
FILENAME=hmdb_intermediate.mgf
SEQ=*..*
IONMODE=Positive
ORGANISM=HMDB
NAME=HMDB:HMDB02064-1977 N-Acetylputrescine M+H
PI=HMDB
DATACOLLECTOR=HMDB
SMILES=CC(=O)NCCCCN
INCHI=InChI=1S/C6H14N2O/c1-6(9)8-5-3-2-4-7/h2-5,7H2,1H3,(H,8,9)
INCHIAUX=N/A
PUBMED=N/A
SUBMITUSER=mwang87
TAGS=
LIBRARYQUALITY=3
SPECTRUMID=CCMSLIB00000427166
SCANS=2138
72.0 100.0 
114.0 4.095 
131.0 5.066 
END IONS

BEGIN IONS
PEPMASS=159.066
CHARGE=1+
MSLEVEL=2
SOURCE_INSTRUMENT=Negative-Quattro_QQQ:25eV
FILENAME=hmdb_intermediate.mgf
SEQ=*..*
IONMODE=Negative
ORGANISM=HMDB
NAME=HMDB:HMDB00555-777 3-Methyladipic acid M-H
PI=HMDB
DATACOLLECTOR=HMDB
SMILES=C[C@@H](CCC(O)=O)CC(O)=O
INCHI=InChI=1S/C7H12O4/c1-5(4-7(10)11)2-3-6(8)9/h5H,2-4H2,1H3,(H,8,9)(H,10,11)/t5-/m0/s1
INCHIAUX=N/A
PUBMED=N/A
SUBMITUSER=mwang87
TAGS=
LIBRARYQUALITY=3
SPECTRUMID=CCMSLIB00000427167
SCANS=2139
53.573 5.0 
54.547 6.371 
67.466 11.935 
81.144 58.71 
95.292 100.0 
115.189 33.548 
159.063 9.919 
END IONS

BEGIN IONS
PEPMASS=313.311
CHARGE=1+
MSLEVEL=2
SOURCE_INSTRUMENT=Positive-Quattro_QQQ:10eV
FILENAME=hmdb_intermediate.mgf
SEQ=*..*
IONMODE=Positive
ORGANISM=HMDB
NAME=HMDB:HMDB00801-1138 Phytanic acid M+H
PI=HMDB
DATACOLLECTOR=HMDB
SMILES=CC(C)CCCC(C)CCCC(C)CCCC(C)CC(O)=O
INCHI=InChI=1S/C20H40O2/c1-16(2)9-6-10-17(3)11-7-12-18(4)13-8-14-19(5)15-20(21)22/h16-19H,6-15H2,1-5H3,(H,21,22)
INCHIAUX=N/A
PUBMED=N/A
SUBMITUSER=mwang87
TAGS=
LIBRARYQUALITY=3
SPECTRUMID=CCMSLIB00000427168
SCANS=2140
312.87 100.0 
END IONS

BEGIN IONS
PEPMASS=159.139
CHARGE=1+
MSLEVEL=2
SOURCE_INSTRUMENT=Positive-Quattro_QQQ:40eV
FILENAME=hmdb_intermediate.mgf
SEQ=*..*
IONMODE=Positive
ORGANISM=HMDB
NAME=HMDB:HMDB00798-1137 Oenanthic ether M+H
PI=HMDB
DATACOLLECTOR=HMDB
SMILES=CCCCCCC(=O)OCC
INCHI=InChI=1S/C9H18O2/c1-3-5-6-7-8-9(10)11-4-2/h3-8H2,1-2H3
INCHIAUX=N/A
PUBMED=N/A
SUBMITUSER=mwang87
TAGS=
LIBRARYQUALITY=3
SPECTRUMID=CCMSLIB00000427169
SCANS=2141
48.0 34.725 
64.0 100.0 
65.0 74.418 
78.0 81.307 
END IONS

BEGIN IONS
PEPMASS=115.076
CHARGE=1+
MSLEVEL=2
SOURCE_INSTRUMENT=Negative-Quattro_QQQ:10eV
FILENAME=hmdb_intermediate.mgf
SEQ=*..*
IONMODE=Negative
ORGANISM=HMDB
NAME=HMDB:HMDB00535-755 Caproic acid M-H
PI=HMDB
DATACOLLECTOR=HMDB
SMILES=CCCCCC(O)=O
INCHI=InChI=1S/C6H12O2/c1-2-3-4-5-6(7)8/h2-5H2,1H3,(H,7,8)
INCHIAUX=N/A
PUBMED=N/A
SUBMITUSER=mwang87
TAGS=
LIBRARYQUALITY=3
SPECTRUMID=CCMSLIB00000427170
SCANS=2142
115.028 100.0 
END IONS

BEGIN IONS
PEPMASS=60.98
CHARGE=1+
MSLEVEL=2
SOURCE_INSTRUMENT=Negative-Quattro_QQQ:10eV
FILENAME=hmdb_intermediate.mgf
SEQ=*..*
IONMODE=Negative
ORGANISM=HMDB
NAME=HMDB:HMDB02878-2152 Nitrate M-H
PI=HMDB
DATACOLLECTOR=HMDB
SMILES=[O-][N+]([O-])=O
INCHI=InChI=1S/NO3/c2-1(3)4/q-1
INCHIAUX=N/A
PUBMED=N/A
SUBMITUSER=mwang87
TAGS=
LIBRARYQUALITY=3
SPECTRUMID=CCMSLIB00000427171
SCANS=2143
61.0 100.0 
END IONS

BEGIN IONS
PEPMASS=175.12
CHARGE=1+
MSLEVEL=2
SOURCE_INSTRUMENT=Positive-Quattro_QQQ:10eV
FILENAME=hmdb_intermediate.mgf
SEQ=*..*
IONMODE=Positive
ORGANISM=HMDB
NAME=HMDB:HMDB00517-740 L-Arginine M+H
PI=HMDB
DATACOLLECTOR=HMDB
SMILES=N[C@@H](CCCN=C(N)N)C(O)=O
INCHI=InChI=1S/C6H14N4O2/c7-4(5(11)12)2-1-3-10-6(8)9/h4H,1-3,7H2,(H,11,12)(H4,8,9,10)/t4-/m0/s1
INCHIAUX=N/A
PUBMED=N/A
SUBMITUSER=mwang87
TAGS=
LIBRARYQUALITY=3
SPECTRUMID=CCMSLIB00000427172
SCANS=2144
60.176 43.137 
70.127 28.235 
112.045 3.725 
115.964 33.725 
129.985 10.98 
157.687 19.706 
174.943 100.0 
END IONS

BEGIN IONS
PEPMASS=168.066
CHARGE=1+
MSLEVEL=2
SOURCE_INSTRUMENT=Positive-Quattro_QQQ:25eV
FILENAME=hmdb_intermediate.mgf
SEQ=*..*
IONMODE=Positive
ORGANISM=HMDB
NAME=HMDB:HMDB01545-1644 Pyridoxal M+H
PI=HMDB
DATACOLLECTOR=HMDB
SMILES=CC1=C(O)C(C=O)=C(CO)C=N1
INCHI=InChI=1S/C8H9NO3/c1-5-8(12)7(4-11)6(3-10)2-9-5/h2,4,10,12H,3H2,1H3
INCHIAUX=N/A
PUBMED=N/A
SUBMITUSER=mwang87
TAGS=
LIBRARYQUALITY=3
SPECTRUMID=CCMSLIB00000427173
SCANS=2145
53.254 13.318 
67.174 59.346 
79.041 10.572 
94.039 100.0 
106.047 18.692 
122.006 28.738 
149.936 77.57 
END IONS

BEGIN IONS
PEPMASS=303.014
CHARGE=1+
MSLEVEL=2
SOURCE_INSTRUMENT=Positive-Quattro_QQQ:25eV
FILENAME=hmdb_intermediate.mgf
SEQ=*..*
IONMODE=Positive
ORGANISM=HMDB
NAME=HMDB:HMDB02899-2156 Ellagic acid M+H
PI=HMDB
DATACOLLECTOR=HMDB
SMILES=OC1=C(O)C2=C3C(=C1)C(=O)OC1=C3C(=CC(O)=C1O)C(=O)O2
INCHI=InChI=1S/C14H6O8/c15-5-1-3-7-8-4(14(20)22-11(7)9(5)17)2-6(16)10(18)12(8)21-13(3)19/h1-2,15-18H
INCHIAUX=N/A
PUBMED=N/A
SUBMITUSER=mwang87
TAGS=
LIBRARYQUALITY=3
SPECTRUMID=CCMSLIB00000427174
SCANS=2146
84.0 6.471 
85.0 6.261 
122.0 17.257 
150.0 30.422 
172.0 9.254 
200.0 19.502 
212.0 8.496 
228.0 34.665 
240.0 14.478 
246.0 23.871 
256.0 89.918 
274.0 53.999 
284.0 62.642 
285.0 20.262 
302.0 100.0 
END IONS

BEGIN IONS
PEPMASS=241.032
CHARGE=1+
MSLEVEL=2
SOURCE_INSTRUMENT=Positive-Quattro_QQQ:40eV
FILENAME=hmdb_intermediate.mgf
SEQ=*..*
IONMODE=Positive
ORGANISM=HMDB
NAME=HMDB:HMDB00192-309 L-Cystine M+H
PI=HMDB
DATACOLLECTOR=HMDB
SMILES=N[C@@H](CSSC[C@H](N)C(O)=O)C(O)=O
INCHI=InChI=1S/C6H12N2O4S2/c7-3(5(9)10)1-13-14-2-4(8)6(11)12/h3-4H,1-2,7-8H2,(H,9,10)(H,11,12)/t3-,4-/m0/s1
INCHIAUX=N/A
PUBMED=N/A
SUBMITUSER=mwang87
TAGS=
LIBRARYQUALITY=3
SPECTRUMID=CCMSLIB00000427175
SCANS=2147
46.256 5.702 
55.217 4.386 
73.983 100.0 
76.028 7.456 
87.02 2.997 
119.888 15.789 
END IONS

BEGIN IONS
PEPMASS=132.081
CHARGE=1+
MSLEVEL=2
SOURCE_INSTRUMENT=Positive-Quattro_QQQ:10eV
FILENAME=hmdb_intermediate.mgf
SEQ=*..*
IONMODE=Positive
ORGANISM=HMDB
NAME=HMDB:HMDB00466-674 3-Methylindole M+H
PI=HMDB
DATACOLLECTOR=HMDB
SMILES=CC1=CNC2=C1C=CC=C2
INCHI=InChI=1S/C9H9N/c1-7-6-10-9-5-3-2-4-8(7)9/h2-6,10H,1H3
INCHIAUX=N/A
PUBMED=N/A
SUBMITUSER=mwang87
TAGS=
LIBRARYQUALITY=3
SPECTRUMID=CCMSLIB00000427176
SCANS=2148
116.966 9.51 
131.94 100.0 
END IONS

BEGIN IONS
PEPMASS=225.088
CHARGE=1+
MSLEVEL=2
SOURCE_INSTRUMENT=Positive-Quattro_QQQ:10eV
FILENAME=hmdb_intermediate.mgf
SEQ=*..*
IONMODE=Positive
ORGANISM=HMDB
NAME=HMDB:HMDB00732-1032 Hydroxykynurenine M+H
PI=HMDB
DATACOLLECTOR=HMDB
SMILES=NC(CC(=O)C1=C(N)C(O)=CC=C1)C(O)=O
INCHI=InChI=1S/C10H12N2O4/c11-6(10(15)16)4-8(14)5-2-1-3-7(13)9(5)12/h1-3,6,13H,4,11-12H2,(H,15,16)
INCHIAUX=N/A
PUBMED=N/A
SUBMITUSER=mwang87
TAGS=
LIBRARYQUALITY=3
SPECTRUMID=CCMSLIB00000427177
SCANS=2149
98.981 1.808 
110.012 23.452 
135.948 2.44 
151.962 8.69 
161.925 18.214 
165.939 13.214 
179.299 5.149 
189.912 8.452 
207.896 100.0 
224.937 14.881 
END IONS

BEGIN IONS
PEPMASS=156.077
CHARGE=1+
MSLEVEL=2
SOURCE_INSTRUMENT=Positive-Quattro_QQQ:40eV
FILENAME=hmdb_intermediate.mgf
SEQ=*..*
IONMODE=Positive
ORGANISM=HMDB
NAME=HMDB:HMDB00177-285 L-Histidine M+H
PI=HMDB
DATACOLLECTOR=HMDB
SMILES=N[C@@H](CC1=CNC=N1)C(O)=O
INCHI=InChI=1S/C6H9N3O2/c7-5(6(10)11)1-4-2-8-3-9-4/h2-3,5H,1,7H2,(H,8,9)(H,10,11)/t5-/m0/s1
INCHIAUX=N/A
PUBMED=N/A
SUBMITUSER=mwang87
TAGS=
LIBRARYQUALITY=3
SPECTRUMID=CCMSLIB00000427178
SCANS=2150
41.32 13.043 
54.228 21.957 
56.008 100.0 
66.115 27.065 
82.24 91.739 
92.988 31.739 
109.834 31.304 
155.786 8.152 
END IONS

BEGIN IONS
PEPMASS=123.045
CHARGE=1+
MSLEVEL=2
SOURCE_INSTRUMENT=Positive-Quattro_QQQ:25eV
FILENAME=hmdb_intermediate.mgf
SEQ=*..*
IONMODE=Positive
ORGANISM=HMDB
NAME=HMDB:HMDB01870-1757 Benzoic acid M+H
PI=HMDB
DATACOLLECTOR=HMDB
SMILES=OC(=O)C1=CC=CC=C1
INCHI=InChI=1S/C7H6O2/c8-7(9)6-4-2-1-3-5-6/h1-5H,(H,8,9)
INCHIAUX=N/A
PUBMED=N/A
SUBMITUSER=mwang87
TAGS=
LIBRARYQUALITY=3
SPECTRUMID=CCMSLIB00000427179
SCANS=2151
77.082 100.0 
121.034 13.872 
END IONS

BEGIN IONS
PEPMASS=164.094
CHARGE=1+
MSLEVEL=2
SOURCE_INSTRUMENT=Positive-Quattro_QQQ:40eV
FILENAME=hmdb_intermediate.mgf
SEQ=*..*
IONMODE=Positive
ORGANISM=HMDB
NAME=HMDB:HMDB00473-691 6-Dimethylaminopurine M+H
PI=HMDB
DATACOLLECTOR=HMDB
SMILES=CN(C)C1=NC=NC2=C1NC=N2
INCHI=InChI=1S/C7H9N5/c1-12(2)7-5-6(9-3-8-5)10-4-11-7/h3-4H,1-2H3,(H,8,9,10,11)
INCHIAUX=N/A
PUBMED=N/A
SUBMITUSER=mwang87
TAGS=
LIBRARYQUALITY=3
SPECTRUMID=CCMSLIB00000427180
SCANS=2152
42.31 7.216 
54.145 5.799 
65.942 38.402 
79.792 19.072 
92.885 100.0 
95.375 5.928 
107.305 13.466 
119.657 75.258 
147.93 5.284 
163.781 16.495 
END IONS

BEGIN IONS
PEPMASS=154.05
CHARGE=1+
MSLEVEL=2
SOURCE_INSTRUMENT=Positive-Quattro_QQQ:40eV
FILENAME=hmdb_intermediate.mgf
SEQ=*..*
IONMODE=Positive
ORGANISM=HMDB
NAME=HMDB:HMDB01476-1597 3-Hydroxyanthranilic acid M+H
PI=HMDB
DATACOLLECTOR=HMDB
SMILES=NC1=C(O)C=CC=C1C(O)=O
INCHI=InChI=1S/C7H7NO3/c8-6-4(7(10)11)2-1-3-5(6)9/h1-3,9H,8H2,(H,10,11)
INCHIAUX=N/A
PUBMED=N/A
SUBMITUSER=mwang87
TAGS=
LIBRARYQUALITY=3
SPECTRUMID=CCMSLIB00000427181
SCANS=2153
63.0 5.863 
80.0 100.0 
91.0 1.632 
108.0 3.488 
136.0 3.3 
END IONS

BEGIN IONS
PEPMASS=310.114
CHARGE=1+
MSLEVEL=2
SOURCE_INSTRUMENT=Positive-Quattro_QQQ:10eV
FILENAME=hmdb_intermediate.mgf
SEQ=*..*
IONMODE=Positive
ORGANISM=HMDB
NAME=HMDB:HMDB00230-385 N-Acetylneuraminic acid M+H
PI=HMDB
DATACOLLECTOR=HMDB
SMILES=CC(=O)N[C@@H]1[C@@H](O)C[C@](O)(O[C@H]1[C@H](O)[C@H](O)CO)C(O)=O
INCHI=InChI=1S/C11H19NO9/c1-4(14)12-7-5(15)2-11(20,10(18)19)21-9(7)8(17)6(16)3-13/h5-9,13,15-17,20H,2-3H2,1H3,(H,12,14)(H,18,19)/t5-,6+,7+,8+,9+,11-/m0/s1
INCHIAUX=N/A
PUBMED=N/A
SUBMITUSER=mwang87
TAGS=
LIBRARYQUALITY=3
SPECTRUMID=CCMSLIB00000427182
SCANS=2154
60.223 1.752 
120.975 1.776 
154.001 3.409 
166.923 11.269 
178.83 4.972 
196.688 6.913 
213.868 2.415 
214.852 4.522 
231.954 7.292 
249.955 4.001 
255.968 5.327 
273.978 100.0 
292.012 32.197 
310.023 15.246 
END IONS

BEGIN IONS
PEPMASS=171.024
CHARGE=1+
MSLEVEL=2
SOURCE_INSTRUMENT=Positive-Quattro_QQQ:10eV
FILENAME=hmdb_intermediate.mgf
SEQ=*..*
IONMODE=Positive
ORGANISM=HMDB
NAME=HMDB:HMDB01460-1586 Diethylthiophosphate M+H
PI=HMDB
DATACOLLECTOR=HMDB
SMILES=CCOP(O)(=S)OCC
INCHI=InChI=1S/C4H11O3PS/c1-3-6-8(5,9)7-4-2/h3-4H2,1-2H3,(H,5,9)
INCHIAUX=N/A
PUBMED=N/A
SUBMITUSER=mwang87
TAGS=
LIBRARYQUALITY=3
SPECTRUMID=CCMSLIB00000427183
SCANS=2155
97.0 2.206 
115.0 100.0 
143.0 62.531 
171.0 15.11 
END IONS

BEGIN IONS
PEPMASS=205.098
CHARGE=1+
MSLEVEL=2
SOURCE_INSTRUMENT=Positive-Quattro_QQQ:40eV
FILENAME=hmdb_intermediate.mgf
SEQ=*..*
IONMODE=Positive
ORGANISM=HMDB
NAME=HMDB:HMDB00929-1323 L-Tryptophan M+H
PI=HMDB
DATACOLLECTOR=HMDB
SMILES=N[C@@H](CC1=CNC2=CC=CC=C12)C(O)=O
INCHI=InChI=1S/C11H12N2O2/c12-9(11(14)15)5-7-6-13-10-4-2-1-3-8(7)10/h1-4,6,9,13H,5,12H2,(H,14,15)/t9-/m0/s1
INCHIAUX=N/A
PUBMED=N/A
SUBMITUSER=mwang87
TAGS=
LIBRARYQUALITY=3
SPECTRUMID=CCMSLIB00000427184
SCANS=2156
74.043 7.309 
77.056 11.653 
90.881 100.0 
102.965 8.157 
117.018 78.39 
129.939 30.085 
142.15 30.932 
145.702 4.714 
END IONS

BEGIN IONS
PEPMASS=167.071
CHARGE=1+
MSLEVEL=2
SOURCE_INSTRUMENT=Positive-Quattro_QQQ:25eV
FILENAME=hmdb_intermediate.mgf
SEQ=*..*
IONMODE=Positive
ORGANISM=HMDB
NAME=HMDB:HMDB02072-1982 4-Methoxyphenylacetic acid M+H
PI=HMDB
DATACOLLECTOR=HMDB
SMILES=COC1=CC=C(CC(O)=O)C=C1
INCHI=InChI=1S/C9H10O3/c1-12-8-4-2-7(3-5-8)6-9(10)11/h2-5H,6H2,1H3,(H,10,11)
INCHIAUX=N/A
PUBMED=N/A
SUBMITUSER=mwang87
TAGS=
LIBRARYQUALITY=3
SPECTRUMID=CCMSLIB00000427185
SCANS=2157
77.0 27.708 
91.0 19.587 
106.0 5.424 
121.0 100.0 
END IONS

BEGIN IONS
PEPMASS=287.113
CHARGE=1+
MSLEVEL=2
SOURCE_INSTRUMENT=Positive-Quattro_QQQ:25eV
FILENAME=hmdb_intermediate.mgf
SEQ=*..*
IONMODE=Positive
ORGANISM=HMDB
NAME=HMDB:HMDB03546-2326 Salicin M+H
PI=HMDB
DATACOLLECTOR=HMDB
SMILES=OC[C@H]1O[C@@H](OC2=C(CO)C=CC=C2)[C@H](O)[C@@H](O)[C@@H]1O
INCHI=InChI=1S/C13H18O7/c14-5-7-3-1-2-4-8(7)19-13-12(18)11(17)10(16)9(6-15)20-13/h1-4,9-18H,5-6H2/t9-,10-,11+,12-,13-/m1/s1
INCHIAUX=N/A
PUBMED=N/A
SUBMITUSER=mwang87
TAGS=
LIBRARYQUALITY=3
SPECTRUMID=CCMSLIB00000427186
SCANS=2158
106.87 100.0 
END IONS

BEGIN IONS
PEPMASS=148.061
CHARGE=1+
MSLEVEL=2
SOURCE_INSTRUMENT=Positive-Quattro_QQQ:25eV
FILENAME=hmdb_intermediate.mgf
SEQ=*..*
IONMODE=Positive
ORGANISM=HMDB
NAME=HMDB:HMDB02393-2099 N-Methyl-D-aspartic acid M+H
PI=HMDB
DATACOLLECTOR=HMDB
SMILES=CN[C@H](CC(O)=O)C(O)=O
INCHI=InChI=1S/C5H9NO4/c1-6-3(5(9)10)2-4(7)8/h3,6H,2H2,1H3,(H,7,8)(H,9,10)/t3-/m1/s1
INCHIAUX=N/A
PUBMED=N/A
SUBMITUSER=mwang87
TAGS=
LIBRARYQUALITY=3
SPECTRUMID=CCMSLIB00000427187
SCANS=2159
42.0 100.0 
60.0 13.488 
70.0 18.19 
84.0 19.051 
88.0 65.469 
102.0 6.566 
END IONS

BEGIN IONS
PEPMASS=315.149
CHARGE=1+
MSLEVEL=2
SOURCE_INSTRUMENT=Positive-Quattro_QQQ:10eV
FILENAME=hmdb_intermediate.mgf
SEQ=*..*
IONMODE=Positive
ORGANISM=HMDB
NAME=HMDB:HMDB01930-1869 Ranitidine M+H
PI=HMDB
DATACOLLECTOR=HMDB
SMILES=CN\C(NCCSCC1=CC=C(CN(C)C)O1)=C/[N+]([O-])=O
INCHI=InChI=1S/C13H22N4O3S/c1-14-13(9-17(18)19)15-6-7-21-10-12-5-4-11(20-12)8-16(2)3/h4-5,9,14-15H,6-8,10H2,1-3H3/b13-9+
INCHIAUX=N/A
PUBMED=N/A
SUBMITUSER=mwang87
TAGS=
LIBRARYQUALITY=3
SPECTRUMID=CCMSLIB00000427188
SCANS=2160
57.229 60.176 
80.152 10.078 
96.813 17.167 
135.024 18.633 
149.557 100.0 
314.472 24.985 
314.974 45.512 
344.179 10.324 
END IONS

BEGIN IONS
PEPMASS=143.046
CHARGE=1+
MSLEVEL=2
SOURCE_INSTRUMENT=Positive-Quattro_QQQ:10eV
FILENAME=hmdb_intermediate.mgf
SEQ=*..*
IONMODE=Positive
ORGANISM=HMDB
NAME=HMDB:HMDB00469-683 5-Hydroxymethyluracil M+H
PI=HMDB
DATACOLLECTOR=HMDB
SMILES=OCC1=CNC(=O)NC1=O
INCHI=InChI=1S/C5H6N2O3/c8-2-3-1-6-5(10)7-4(3)9/h1,8H,2H2,(H2,6,7,9,10)
INCHIAUX=N/A
PUBMED=N/A
SUBMITUSER=mwang87
TAGS=
LIBRARYQUALITY=3
SPECTRUMID=CCMSLIB00000427189
SCANS=2161
82.09 38.306 
124.978 100.0 
142.858 3.579 
END IONS

BEGIN IONS
PEPMASS=103.04
CHARGE=1+
MSLEVEL=2
SOURCE_INSTRUMENT=Negative-Quattro_QQQ:40eV
FILENAME=hmdb_intermediate.mgf
SEQ=*..*
IONMODE=Negative
ORGANISM=HMDB
NAME=HMDB:HMDB00729-1025 Alpha-Hydroxyisobutyric acid M-H
PI=HMDB
DATACOLLECTOR=HMDB
SMILES=CC(C)(O)C(O)=O
INCHI=InChI=1S/C4H8O3/c1-4(2,7)3(5)6/h7H,1-2H3,(H,5,6)
INCHIAUX=N/A
PUBMED=N/A
SUBMITUSER=mwang87
TAGS=
LIBRARYQUALITY=3
SPECTRUMID=CCMSLIB00000427190
SCANS=2162
41.609 52.941 
45.442 100.0 
57.392 88.235 
103.225 92.437 
END IONS

BEGIN IONS
PEPMASS=126.022
CHARGE=1+
MSLEVEL=2
SOURCE_INSTRUMENT=Positive-Quattro_QQQ:10eV
FILENAME=hmdb_intermediate.mgf
SEQ=*..*
IONMODE=Positive
ORGANISM=HMDB
NAME=HMDB:HMDB00251-430 Taurine M+H
PI=HMDB
DATACOLLECTOR=HMDB
SMILES=NCCS(O)(=O)=O
INCHI=InChI=1S/C2H7NO3S/c3-1-2-7(4,5)6/h1-3H2,(H,4,5,6)
INCHIAUX=N/A
PUBMED=N/A
SUBMITUSER=mwang87
TAGS=
LIBRARYQUALITY=3
SPECTRUMID=CCMSLIB00000427191
SCANS=2163
44.313 11.574 
108.0 30.401 
125.939 100.0 
END IONS

BEGIN IONS
PEPMASS=165.076
CHARGE=1+
MSLEVEL=2
SOURCE_INSTRUMENT=Positive-Quattro_QQQ:25eV
FILENAME=hmdb_intermediate.mgf
SEQ=*..*
IONMODE=Positive
ORGANISM=HMDB
NAME=HMDB:HMDB00174-275 L-Fucose M+H
PI=HMDB
DATACOLLECTOR=HMDB
SMILES=C[C@@H]1OC(O)[C@@H](O)[C@H](O)[C@@H]1O
INCHI=InChI=1S/C6H12O5/c1-2-3(7)4(8)5(9)6(10)11-2/h2-10H,1H3/t2-,3+,4+,5-,6?/m0/s1
INCHIAUX=N/A
PUBMED=N/A
SUBMITUSER=mwang87
TAGS=
LIBRARYQUALITY=3
SPECTRUMID=CCMSLIB00000427192
SCANS=2164
43.0 30.119 
57.0 30.146 
69.0 100.0 
83.0 36.771 
101.0 34.337 
END IONS

BEGIN IONS
PEPMASS=181.05
CHARGE=1+
MSLEVEL=2
SOURCE_INSTRUMENT=Positive-Quattro_QQQ:25eV
FILENAME=hmdb_intermediate.mgf
SEQ=*..*
IONMODE=Positive
ORGANISM=HMDB
NAME=HMDB:HMDB01964-1912 Caffeic acid M+H
PI=HMDB
DATACOLLECTOR=HMDB
SMILES=OC(=O)\C=C/C1=CC=C(O)C(O)=C1
INCHI=InChI=1S/C9H8O4/c10-7-3-1-6(5-8(7)11)2-4-9(12)13/h1-5,10-11H,(H,12,13)/b4-2-
INCHIAUX=N/A
PUBMED=N/A
SUBMITUSER=mwang87
TAGS=
LIBRARYQUALITY=3
SPECTRUMID=CCMSLIB00000427193
SCANS=2165
64.0 12.995 
78.0 17.388 
88.0 100.0 
96.0 5.637 
106.0 21.813 
116.0 75.063 
134.0 22.376 
162.0 35.893 
165.0 12.75 
END IONS

BEGIN IONS
PEPMASS=219.113
CHARGE=1+
MSLEVEL=2
SOURCE_INSTRUMENT=Positive-Quattro_QQQ:25eV
FILENAME=hmdb_intermediate.mgf
SEQ=*..*
IONMODE=Positive
ORGANISM=HMDB
NAME=HMDB:HMDB01238-1479 N-Acetylserotonin M+H
PI=HMDB
DATACOLLECTOR=HMDB
SMILES=CC(=O)NCCC1=CNC2=C1C=C(O)C=C2
INCHI=InChI=1S/C12H14N2O2/c1-8(15)13-5-4-9-7-14-12-3-2-10(16)6-11(9)12/h2-3,6-7,14,16H,4-5H2,1H3,(H,13,15)
INCHIAUX=N/A
PUBMED=N/A
SUBMITUSER=mwang87
TAGS=
LIBRARYQUALITY=3
SPECTRUMID=CCMSLIB00000427194
SCANS=2166
67.0 1.922 
105.0 3.908 
115.0 16.646 
132.0 22.149 
142.0 7.279 
160.0 100.0 
END IONS

BEGIN IONS
PEPMASS=377.146
CHARGE=1+
MSLEVEL=2
SOURCE_INSTRUMENT=Positive-Quattro_QQQ:25eV
FILENAME=hmdb_intermediate.mgf
SEQ=*..*
IONMODE=Positive
ORGANISM=HMDB
NAME=HMDB:HMDB00244-413 Riboflavin M+H
PI=HMDB
DATACOLLECTOR=HMDB
SMILES=CC1=C(C)C=C2N(C[C@H](O)[C@H](O)[C@H](O)CO)C3=NC(=O)NC(=O)C3=NC2=C1
INCHI=InChI=1S/C17H20N4O6/c1-7-3-9-10(4-8(7)2)21(5-11(23)14(25)12(24)6-22)15-13(18-9)16(26)20-17(27)19-15/h3-4,11-12,14,22-25H,5-6H2,1-2H3,(H,20,26,27)/t11-,12+,14-/m0/s1
INCHIAUX=N/A
PUBMED=N/A
SUBMITUSER=mwang87
TAGS=
LIBRARYQUALITY=3
SPECTRUMID=CCMSLIB00000427195
SCANS=2167
43.0 7.386 
56.0 7.576 
70.0 12.974 
81.0 4.765 
98.0 9.581 
171.0 18.045 
197.0 18.491 
242.0 100.0 
377.0 5.818 
END IONS

BEGIN IONS
PEPMASS=375.29
CHARGE=1+
MSLEVEL=2
SOURCE_INSTRUMENT=Positive-Quattro_QQQ:40eV
FILENAME=hmdb_intermediate.mgf
SEQ=*..*
IONMODE=Positive
ORGANISM=HMDB
NAME=HMDB:HMDB00308-527 3b-Hydroxy-5-cholenoic acid M+H
PI=HMDB
DATACOLLECTOR=HMDB
SMILES=[H][C@@]12CC[C@H]([C@H](C)CCC(O)=O)[C@@]1(C)CC[C@@]1([H])[C@@]2([H])CC=C2C[C@@H](O)CC[C@]12C
INCHI=InChI=1S/C24H38O3/c1-15(4-9-22(26)27)19-7-8-20-18-6-5-16-14-17(25)10-12-23(16,2)21(18)11-13-24(19,20)3/h5,15,17-21,25H,4,6-14H2,1-3H3,(H,26,27)/t15-,17+,18+,19-,20+,21+,23+,24-/m1/s1
INCHIAUX=N/A
PUBMED=N/A
SUBMITUSER=mwang87
TAGS=
LIBRARYQUALITY=3
SPECTRUMID=CCMSLIB00000427196
SCANS=2168
52.713 6.405 
56.875 8.793 
69.363 6.405 
93.833 8.113 
102.411 7.085 
106.069 11.869 
122.342 9.137 
128.019 6.405 
143.157 9.821 
151.231 8.113 
159.81 8.793 
164.856 95.22 
180.122 10.161 
193.495 7.429 
200.056 100.0 
212.799 9.137 
217.215 8.793 
229.202 9.477 
241.441 11.185 
245.731 7.429 
262.388 7.085 
274.376 9.477 
282.578 8.453 
286.49 7.769 
294.945 7.085 
305.041 12.553 
319.554 7.429 
331.796 7.429 
335.834 7.085 
352.494 8.793 
360.698 8.793 
372.941 8.793 
376.222 7.429 
389.223 7.429 
400.709 8.113 
404.749 9.821 
END IONS

BEGIN IONS
PEPMASS=115.112
CHARGE=1+
MSLEVEL=2
SOURCE_INSTRUMENT=Positive-Quattro_QQQ:10eV
FILENAME=hmdb_intermediate.mgf
SEQ=*..*
IONMODE=Positive
ORGANISM=HMDB
NAME=HMDB:HMDB03671-2340 2-Heptanone M+H
PI=HMDB
DATACOLLECTOR=HMDB
SMILES=CCCCCC(C)=O
INCHI=InChI=1S/C7H14O/c1-3-4-5-6-7(2)8/h3-6H2,1-2H3
INCHIAUX=N/A
PUBMED=N/A
SUBMITUSER=mwang87
TAGS=
LIBRARYQUALITY=3
SPECTRUMID=CCMSLIB00000427197
SCANS=2169
73.95 100.0 
END IONS

BEGIN IONS
PEPMASS=131.118
CHARGE=1+
MSLEVEL=2
SOURCE_INSTRUMENT=Positive-Quattro_QQQ:10eV
FILENAME=hmdb_intermediate.mgf
SEQ=*..*
IONMODE=Positive
ORGANISM=HMDB
NAME=HMDB:HMDB60268-1975 N-Acetylputrescinium M+H
PI=HMDB
DATACOLLECTOR=HMDB
SMILES=CC(O)=NCCCCN
INCHI=InChI=1S/C6H14N2O/c1-6(9)8-5-3-2-4-7/h2-5,7H2,1H3,(H,8,9)
INCHIAUX=N/A
PUBMED=N/A
SUBMITUSER=mwang87
TAGS=
LIBRARYQUALITY=3
SPECTRUMID=CCMSLIB00000427198
SCANS=2170
72.0 59.069 
114.0 100.0 
131.0 43.851 
END IONS

BEGIN IONS
PEPMASS=370.084
CHARGE=1+
MSLEVEL=2
SOURCE_INSTRUMENT=Positive-Quattro_QQQ:25eV
FILENAME=hmdb_intermediate.mgf
SEQ=*..*
IONMODE=Positive
ORGANISM=HMDB
NAME=HMDB:HMDB05008-2440 Lansoprazole M+H
PI=HMDB
DATACOLLECTOR=HMDB
SMILES=CC1=C(OCC(F)(F)F)C=CN=C1CS(=O)C1=NC2=CC=CC=C2N1
INCHI=InChI=1S/C16H14F3N3O2S/c1-10-13(20-7-6-14(10)24-9-16(17,18)19)8-25(23)15-21-11-4-2-3-5-12(11)22-15/h2-7H,8-9H2,1H3,(H,21,22)
INCHIAUX=N/A
PUBMED=N/A
SUBMITUSER=mwang87
TAGS=
LIBRARYQUALITY=3
SPECTRUMID=CCMSLIB00000427199
SCANS=2171
118.91 83.431 
135.89 49.628 
204.52 16.279 
233.86 29.871 
251.82 100.0 
END IONS

BEGIN IONS
PEPMASS=121.051
CHARGE=1+
MSLEVEL=2
SOURCE_INSTRUMENT=Positive-Quattro_QQQ:25eV
FILENAME=hmdb_intermediate.mgf
SEQ=*..*
IONMODE=Positive
ORGANISM=HMDB
NAME=HMDB:HMDB01366-1532 Purine M+H
PI=HMDB
DATACOLLECTOR=HMDB
SMILES=N1C=NC2=C1C=NC=N2
INCHI=InChI=1S/C5H4N4/c1-4-5(8-2-6-1)9-3-7-4/h1-3H,(H,6,7,8,9)
INCHIAUX=N/A
PUBMED=N/A
SUBMITUSER=mwang87
TAGS=
LIBRARYQUALITY=3
SPECTRUMID=CCMSLIB00000427200
SCANS=2172
52.245 13.315 
67.149 58.424 
94.054 100.0 
120.921 69.565 
END IONS

BEGIN IONS
PEPMASS=325.311
CHARGE=1+
MSLEVEL=2
SOURCE_INSTRUMENT=Negative-Quattro_QQQ:40eV
FILENAME=hmdb_intermediate.mgf
SEQ=*..*
IONMODE=Negative
ORGANISM=HMDB
NAME=HMDB:HMDB02345-2069 Heneicosanoic acid M-H
PI=HMDB
DATACOLLECTOR=HMDB
SMILES=CCCCCCCCCCCCCCCCCCCCC(O)=O
INCHI=InChI=1S/C21H42O2/c1-2-3-4-5-6-7-8-9-10-11-12-13-14-15-16-17-18-19-20-21(22)23/h2-20H2,1H3,(H,22,23)
INCHIAUX=N/A
PUBMED=N/A
SUBMITUSER=mwang87
TAGS=
LIBRARYQUALITY=3
SPECTRUMID=CCMSLIB00000427201
SCANS=2173
233.13 100.0 
END IONS

BEGIN IONS
PEPMASS=227.201
CHARGE=1+
MSLEVEL=2
SOURCE_INSTRUMENT=Negative-Quattro_QQQ:10eV
FILENAME=hmdb_intermediate.mgf
SEQ=*..*
IONMODE=Negative
ORGANISM=HMDB
NAME=HMDB:HMDB00806-1150 Myristic acid M-H
PI=HMDB
DATACOLLECTOR=HMDB
SMILES=CCCCCCCCCCCCCC(O)=O
INCHI=InChI=1S/C14H28O2/c1-2-3-4-5-6-7-8-9-10-11-12-13-14(15)16/h2-13H2,1H3,(H,15,16)
INCHIAUX=N/A
PUBMED=N/A
SUBMITUSER=mwang87
TAGS=
LIBRARYQUALITY=3
SPECTRUMID=CCMSLIB00000427202
SCANS=2174
227.101 100.0 
END IONS

BEGIN IONS
PEPMASS=159.052
CHARGE=1+
MSLEVEL=2
SOURCE_INSTRUMENT=Positive-Quattro_QQQ:10eV
FILENAME=hmdb_intermediate.mgf
SEQ=*..*
IONMODE=Positive
ORGANISM=HMDB
NAME=HMDB:HMDB00462-671 Allantoin M+H
PI=HMDB
DATACOLLECTOR=HMDB
SMILES=NC(=O)NC1NC(=O)NC1=O
INCHI=InChI=1S/C4H6N4O3/c5-3(10)6-1-2(9)8-4(11)7-1/h1H,(H3,5,6,10)(H2,7,8,9,11)
INCHIAUX=N/A
PUBMED=N/A
SUBMITUSER=mwang87
TAGS=
LIBRARYQUALITY=3
SPECTRUMID=CCMSLIB00000427203
SCANS=2175
61.165 61.012 
73.098 14.435 
88.069 6.399 
98.982 31.548 
115.968 100.0 
158.893 19.94 
END IONS

BEGIN IONS
PEPMASS=464.082
CHARGE=1+
MSLEVEL=2
SOURCE_INSTRUMENT=Positive-Quattro_QQQ:25eV
FILENAME=hmdb_intermediate.mgf
SEQ=*..*
IONMODE=Positive
ORGANISM=HMDB
NAME=HMDB:HMDB00536-759 Adenylsuccinic acid M+H
PI=HMDB
DATACOLLECTOR=HMDB
SMILES=O[C@@H]1[C@@H](COP(O)(O)=O)O[C@H]([C@@H]1O)N1C=NC2=C1N=CN=C2NC(CC(O)=O)C(O)=O
INCHI=InChI=1S/C14H18N5O11P/c20-7(21)1-5(14(24)25)18-11-8-12(16-3-15-11)19(4-17-8)13-10(23)9(22)6(30-13)2-29-31(26,27)28/h3-6,9-10,13,22-23H,1-2H2,(H,20,21)(H,24,25)(H,15,16,18)(H2,26,27,28)/t5?,6-,9-,10-,13-/m1/s1
INCHIAUX=N/A
PUBMED=N/A
SUBMITUSER=mwang87
TAGS=
LIBRARYQUALITY=3
SPECTRUMID=CCMSLIB00000427204
SCANS=2176
96.0 6.739 
135.0 4.975 
161.0 9.363 
191.0 8.224 
205.0 6.85 
234.0 5.647 
252.0 100.0 
464.0 4.692 
END IONS

BEGIN IONS
PEPMASS=73.0653
CHARGE=1+
MSLEVEL=2
SOURCE_INSTRUMENT=Positive-Quattro_QQQ:10eV
FILENAME=hmdb_intermediate.mgf
SEQ=*..*
IONMODE=Positive
ORGANISM=HMDB
NAME=HMDB:HMDB00474-692 Butanone M+H
PI=HMDB
DATACOLLECTOR=HMDB
SMILES=CCC(C)=O
INCHI=InChI=1S/C4H8O/c1-3-4(2)5/h3H2,1-2H3
INCHIAUX=N/A
PUBMED=N/A
SUBMITUSER=mwang87
TAGS=
LIBRARYQUALITY=3
SPECTRUMID=CCMSLIB00000427205
SCANS=2177
31.0 5.302 
43.0 6.015 
45.0 7.878 
55.0 60.163 
73.0 100.0 
END IONS

BEGIN IONS
PEPMASS=169.036
CHARGE=1+
MSLEVEL=2
SOURCE_INSTRUMENT=Positive-Quattro_QQQ:10eV
FILENAME=hmdb_intermediate.mgf
SEQ=*..*
IONMODE=Positive
ORGANISM=HMDB
NAME=HMDB:HMDB00289-489 Uric acid M+H
PI=HMDB
DATACOLLECTOR=HMDB
SMILES=O=C1NC2=C(N1)C(=O)NC(=O)N2
INCHI=InChI=1S/C5H4N4O3/c10-3-1-2(7-4(11)6-1)8-5(12)9-3/h(H4,6,7,8,9,10,11,12)
INCHIAUX=N/A
PUBMED=N/A
SUBMITUSER=mwang87
TAGS=
LIBRARYQUALITY=3
SPECTRUMID=CCMSLIB00000427206
SCANS=2178
125.958 1.563 
140.948 7.292 
151.863 4.129 
168.916 100.0 
END IONS

BEGIN IONS
PEPMASS=391.285
CHARGE=1+
MSLEVEL=2
SOURCE_INSTRUMENT=Negative-Quattro_QQQ:40eV
FILENAME=hmdb_intermediate.mgf
SEQ=*..*
IONMODE=Negative
ORGANISM=HMDB
NAME=HMDB:HMDB00626-854 Deoxycholic acid M-H
PI=HMDB
DATACOLLECTOR=HMDB
SMILES=[H][C@@]12CC[C@H]([C@H](C)CCC(O)=O)[C@@]1(C)[C@@H](O)C[C@@]1([H])[C@@]2([H])CC[C@]2([H])C[C@H](O)CC[C@]12C
INCHI=InChI=1S/C24H40O4/c1-14(4-9-22(27)28)18-7-8-19-17-6-5-15-12-16(25)10-11-23(15,2)20(17)13-21(26)24(18,19)3/h14-21,25-26H,4-13H2,1-3H3,(H,27,28)/t14-,15-,16-,17+,18-,19+,20+,21+,23+,24-/m1/s1
INCHIAUX=N/A
PUBMED=N/A
SUBMITUSER=mwang87
TAGS=
LIBRARYQUALITY=3
SPECTRUMID=CCMSLIB00000427207
SCANS=2179
43.434 13.449 
57.291 14.082 
69.208 61.392 
109.095 4.391 
123.094 5.775 
125.068 4.47 
205.045 3.837 
259.128 5.538 
283.199 4.193 
287.253 4.272 
297.266 4.747 
311.24 16.456 
317.318 6.131 
327.285 44.937 
343.3 92.405 
345.284 100.0 
355.26 19.146 
391.316 77.215 
END IONS

BEGIN IONS
PEPMASS=72.0449
CHARGE=1+
MSLEVEL=2
SOURCE_INSTRUMENT=Positive-Quattro_QQQ:25eV
FILENAME=hmdb_intermediate.mgf
SEQ=*..*
IONMODE=Positive
ORGANISM=HMDB
NAME=HMDB:HMDB04296-2380 Acrylamide M+H
PI=HMDB
DATACOLLECTOR=HMDB
SMILES=NC(=O)C=C
INCHI=InChI=1S/C3H5NO/c1-2-3(4)5/h2H,1H2,(H2,4,5)
INCHIAUX=N/A
PUBMED=N/A
SUBMITUSER=mwang87
TAGS=
LIBRARYQUALITY=3
SPECTRUMID=CCMSLIB00000427208
SCANS=2180
44.117 14.314 
54.871 100.0 
71.829 8.447 
END IONS

BEGIN IONS
PEPMASS=147.077
CHARGE=1+
MSLEVEL=2
SOURCE_INSTRUMENT=Positive-Quattro_QQQ:25eV
FILENAME=hmdb_intermediate.mgf
SEQ=*..*
IONMODE=Positive
ORGANISM=HMDB
NAME=HMDB:HMDB03423-2302 D-Glutamine M+H
PI=HMDB
DATACOLLECTOR=HMDB
SMILES=N[C@H](CCC(N)=O)C(O)=O
INCHI=InChI=1S/C5H10N2O3/c6-3(5(9)10)1-2-4(7)8/h3H,1-2,6H2,(H2,7,8)(H,9,10)/t3-/m1/s1
INCHIAUX=N/A
PUBMED=N/A
SUBMITUSER=mwang87
TAGS=
LIBRARYQUALITY=3
SPECTRUMID=CCMSLIB00000427209
SCANS=2181
41.207 17.01 
83.962 100.0 
END IONS

BEGIN IONS
PEPMASS=131.034
CHARGE=1+
MSLEVEL=2
SOURCE_INSTRUMENT=Negative-Quattro_QQQ:25eV
FILENAME=hmdb_intermediate.mgf
SEQ=*..*
IONMODE=Negative
ORGANISM=HMDB
NAME=HMDB:HMDB00622-844 Ethylmalonic acid M-H
PI=HMDB
DATACOLLECTOR=HMDB
SMILES=CCC(C(O)=O)C(O)=O
INCHI=InChI=1S/C5H8O4/c1-2-3(4(6)7)5(8)9/h3H,2H2,1H3,(H,6,7)(H,8,9)
INCHIAUX=N/A
PUBMED=N/A
SUBMITUSER=mwang87
TAGS=
LIBRARYQUALITY=3
SPECTRUMID=CCMSLIB00000427210
SCANS=2182
41.657 100.0 
45.646 20.181 
87.366 7.003 
END IONS

BEGIN IONS
PEPMASS=143.009
CHARGE=1+
MSLEVEL=2
SOURCE_INSTRUMENT=Positive-Quattro_QQQ:25eV
FILENAME=hmdb_intermediate.mgf
SEQ=*..*
IONMODE=Positive
ORGANISM=HMDB
NAME=HMDB:HMDB02818-2138 Alloxan M+H
PI=HMDB
DATACOLLECTOR=HMDB
SMILES=O=C1NC(=O)C(=O)C(=O)N1
INCHI=InChI=1S/C4H2N2O4/c7-1-2(8)5-4(10)6-3(1)9/h(H2,5,6,8,9,10)
INCHIAUX=N/A
PUBMED=N/A
SUBMITUSER=mwang87
TAGS=
LIBRARYQUALITY=3
SPECTRUMID=CCMSLIB00000427211
SCANS=2183
41.0 19.377 
51.0 16.449 
55.0 73.452 
73.0 13.392 
77.0 100.0 
97.0 10.195 
END IONS

BEGIN IONS
PEPMASS=132.066
CHARGE=1+
MSLEVEL=2
SOURCE_INSTRUMENT=Positive-Quattro_QQQ:25eV
FILENAME=hmdb_intermediate.mgf
SEQ=*..*
IONMODE=Positive
ORGANISM=HMDB
NAME=HMDB:HMDB00783-1117 Propionylglycine M+H
PI=HMDB
DATACOLLECTOR=HMDB
SMILES=CCC(=O)NCC(O)=O
INCHI=InChI=1S/C5H9NO3/c1-2-4(7)6-3-5(8)9/h2-3H2,1H3,(H,6,7)(H,8,9)
INCHIAUX=N/A
PUBMED=N/A
SUBMITUSER=mwang87
TAGS=
LIBRARYQUALITY=3
SPECTRUMID=CCMSLIB00000427212
SCANS=2184
48.598 2.019 
57.487 100.0 
76.353 18.258 
END IONS

BEGIN IONS
PEPMASS=184.097
CHARGE=1+
MSLEVEL=2
SOURCE_INSTRUMENT=Positive-Quattro_QQQ:40eV
FILENAME=hmdb_intermediate.mgf
SEQ=*..*
IONMODE=Positive
ORGANISM=HMDB
NAME=HMDB:HMDB00068-110 Epinephrine M+H
PI=HMDB
DATACOLLECTOR=HMDB
SMILES=CNC[C@H](O)C1=CC=C(O)C(O)=C1
INCHI=InChI=1S/C9H13NO3/c1-10-5-9(13)6-2-3-7(11)8(12)4-6/h2-4,9-13H,5H2,1H3/t9-/m0/s1
INCHIAUX=N/A
PUBMED=N/A
SUBMITUSER=mwang87
TAGS=
LIBRARYQUALITY=3
SPECTRUMID=CCMSLIB00000427213
SCANS=2185
42.303 23.695 
51.271 7.631 
57.218 14.558 
65.077 8.534 
77.121 100.0 
91.062 13.153 
104.098 13.153 
106.963 18.876 
122.92 31.325 
END IONS

BEGIN IONS
PEPMASS=103.04
CHARGE=1+
MSLEVEL=2
SOURCE_INSTRUMENT=Negative-Quattro_QQQ:40eV
FILENAME=hmdb_intermediate.mgf
SEQ=*..*
IONMODE=Negative
ORGANISM=HMDB
NAME=HMDB:HMDB00011-18 (R)-3-Hydroxybutyric acid M-H
PI=HMDB
DATACOLLECTOR=HMDB
SMILES=C[C@@H](O)CC(O)=O
INCHI=InChI=1S/C4H8O3/c1-3(5)2-4(6)7/h3,5H,2H2,1H3,(H,6,7)/t3-/m1/s1
INCHIAUX=N/A
PUBMED=N/A
SUBMITUSER=mwang87
TAGS=
LIBRARYQUALITY=3
SPECTRUMID=CCMSLIB00000427214
SCANS=2186
41.316 76.042 
59.224 100.0 
103.014 79.167 
END IONS

BEGIN IONS
PEPMASS=34.0293
CHARGE=1+
MSLEVEL=2
SOURCE_INSTRUMENT=Positive-Quattro_QQQ:25eV
FILENAME=hmdb_intermediate.mgf
SEQ=*..*
IONMODE=Positive
ORGANISM=HMDB
NAME=HMDB:HMDB03338-2252 Hydroxylamine M+H
PI=HMDB
DATACOLLECTOR=HMDB
SMILES=NO
INCHI=InChI=1S/H3NO/c1-2/h2H,1H2
INCHIAUX=N/A
PUBMED=N/A
SUBMITUSER=mwang87
TAGS=
LIBRARYQUALITY=3
SPECTRUMID=CCMSLIB00000427215
SCANS=2187
34.0 100.0 
35.0 40.643 
END IONS

BEGIN IONS
PEPMASS=174.055
CHARGE=1+
MSLEVEL=2
SOURCE_INSTRUMENT=Positive-Quattro_QQQ:10eV
FILENAME=hmdb_intermediate.mgf
SEQ=*..*
IONMODE=Positive
ORGANISM=HMDB
NAME=HMDB:HMDB00842-1187 Quinaldic acid M+H
PI=HMDB
DATACOLLECTOR=HMDB
SMILES=OC(=O)C1=NC2=CC=CC=C2C=C1
INCHI=InChI=1S/C10H7NO2/c12-10(13)9-6-5-7-3-1-2-4-8(7)11-9/h1-6H,(H,12,13)
INCHIAUX=N/A
PUBMED=N/A
SUBMITUSER=mwang87
TAGS=
LIBRARYQUALITY=3
SPECTRUMID=CCMSLIB00000427216
SCANS=2188
41.332 7.91 
64.67 6.336 
79.099 7.404 
91.396 28.011 
106.454 24.609 
133.056 100.0 
147.237 11.424 
156.398 7.966 
173.34 54.072 
174.72 41.814 
END IONS

BEGIN IONS
PEPMASS=178.054
CHARGE=1+
MSLEVEL=2
SOURCE_INSTRUMENT=Positive-Quattro_QQQ:25eV
FILENAME=hmdb_intermediate.mgf
SEQ=*..*
IONMODE=Positive
ORGANISM=HMDB
NAME=HMDB:HMDB01015-1388 N-Formyl-L-methionine M+H
PI=HMDB
DATACOLLECTOR=HMDB
SMILES=CSCC[C@@H](NC=O)C(O)=O
INCHI=InChI=1S/C6H11NO3S/c1-11-3-2-5(6(9)10)7-4-8/h4-5H,2-3H2,1H3,(H,7,8)(H,9,10)/t5-/m1/s1
INCHIAUX=N/A
PUBMED=N/A
SUBMITUSER=mwang87
TAGS=
LIBRARYQUALITY=3
SPECTRUMID=CCMSLIB00000427217
SCANS=2189
61.03 100.0 
83.97 60.09 
END IONS

BEGIN IONS
PEPMASS=117.055
CHARGE=1+
MSLEVEL=2
SOURCE_INSTRUMENT=Positive-Quattro_QQQ:25eV
FILENAME=hmdb_intermediate.mgf
SEQ=*..*
IONMODE=Positive
ORGANISM=HMDB
NAME=HMDB:HMDB00720-1012 Levulinic acid M+H
PI=HMDB
DATACOLLECTOR=HMDB
SMILES=CC(=O)CCC(O)=O
INCHI=InChI=1S/C5H8O3/c1-4(6)2-3-5(7)8/h2-3H2,1H3,(H,7,8)
INCHIAUX=N/A
PUBMED=N/A
SUBMITUSER=mwang87
TAGS=
LIBRARYQUALITY=3
SPECTRUMID=CCMSLIB00000427218
SCANS=2190
41.258 72.727 
55.156 14.36 
71.053 100.0 
96.966 8.264 
114.169 16.322 
114.919 92.562 
END IONS

BEGIN IONS
PEPMASS=343.124
CHARGE=1+
MSLEVEL=2
SOURCE_INSTRUMENT=Positive-Quattro_QQQ:10eV
FILENAME=hmdb_intermediate.mgf
SEQ=*..*
IONMODE=Positive
ORGANISM=HMDB
NAME=HMDB:HMDB00186-292 Alpha-Lactose M+H
PI=HMDB
DATACOLLECTOR=HMDB
SMILES=OC[C@H]1O[C@@H](O[C@H]2[C@H](O)[C@@H](O)[C@@H](O)O[C@@H]2CO)[C@H](O)[C@@H](O)[C@H]1O
INCHI=InChI=1S/C12H22O11/c13-1-3-5(15)6(16)9(19)12(22-3)23-10-4(2-14)21-11(20)8(18)7(10)17/h3-20H,1-2H2/t3-,4-,5+,6+,7-,8-,9-,10-,11+,12+/m1/s1
INCHIAUX=N/A
PUBMED=N/A
SUBMITUSER=mwang87
TAGS=
LIBRARYQUALITY=3
SPECTRUMID=CCMSLIB00000427219
SCANS=2191
91.07 2.664 
126.997 1.178 
144.986 6.148 
162.975 100.0 
180.965 10.383 
325.03 16.12 
343.011 3.074 
END IONS

BEGIN IONS
PEPMASS=119.082
CHARGE=1+
MSLEVEL=2
SOURCE_INSTRUMENT=Positive-Quattro_QQQ:40eV
FILENAME=hmdb_intermediate.mgf
SEQ=*..*
IONMODE=Positive
ORGANISM=HMDB
NAME=HMDB:HMDB02362-2085 2,4-Diaminobutyric acid M+H
PI=HMDB
DATACOLLECTOR=HMDB
SMILES=NCCC(N)C(O)=O
INCHI=InChI=1S/C4H10N2O2/c5-2-1-3(6)4(7)8/h3H,1-2,5-6H2,(H,7,8)
INCHIAUX=N/A
PUBMED=N/A
SUBMITUSER=mwang87
TAGS=
LIBRARYQUALITY=3
SPECTRUMID=CCMSLIB00000427220
SCANS=2192
44.0 55.291 
46.0 10.356 
56.0 100.0 
74.0 16.687 
101.0 5.141 
119.0 6.419 
END IONS

BEGIN IONS
PEPMASS=91.0395
CHARGE=1+
MSLEVEL=2
SOURCE_INSTRUMENT=Positive-Quattro_QQQ:10eV
FILENAME=hmdb_intermediate.mgf
SEQ=*..*
IONMODE=Positive
ORGANISM=HMDB
NAME=HMDB:HMDB00700-975 Hydroxypropionic acid M+H
PI=HMDB
DATACOLLECTOR=HMDB
SMILES=OCCC(O)=O
INCHI=InChI=1S/C3H6O3/c4-2-1-3(5)6/h4H,1-2H2,(H,5,6)
INCHIAUX=N/A
PUBMED=N/A
SUBMITUSER=mwang87
TAGS=
LIBRARYQUALITY=3
SPECTRUMID=CCMSLIB00000427221
SCANS=2193
55.397 5.276 
72.949 100.0 
91.496 8.263 
END IONS

BEGIN IONS
PEPMASS=190.05
CHARGE=1+
MSLEVEL=2
SOURCE_INSTRUMENT=Positive-Quattro_QQQ:10eV
FILENAME=hmdb_intermediate.mgf
SEQ=*..*
IONMODE=Positive
ORGANISM=HMDB
NAME=HMDB:HMDB00715-999 Kynurenic acid M+H
PI=HMDB
DATACOLLECTOR=HMDB
SMILES=OC(=O)C1=CC(=O)C2=CC=CC=C2N1
INCHI=InChI=1S/C10H7NO3/c12-9-5-8(10(13)14)11-7-4-2-1-3-6(7)9/h1-5H,(H,11,12)(H,13,14)
INCHIAUX=N/A
PUBMED=N/A
SUBMITUSER=mwang87
TAGS=
LIBRARYQUALITY=3
SPECTRUMID=CCMSLIB00000427222
SCANS=2194
143.981 33.195 
161.995 3.89 
171.966 38.174 
189.949 100.0 
END IONS

BEGIN IONS
PEPMASS=182.082
CHARGE=1+
MSLEVEL=2
SOURCE_INSTRUMENT=Positive-Quattro_QQQ:40eV
FILENAME=hmdb_intermediate.mgf
SEQ=*..*
IONMODE=Positive
ORGANISM=HMDB
NAME=HMDB:HMDB06050-2468 o-Tyrosine M+H
PI=HMDB
DATACOLLECTOR=HMDB
SMILES=NC(CC1=CC=CC=C1O)C(O)=O
INCHI=InChI=1S/C9H11NO3/c10-7(9(12)13)5-6-3-1-2-4-8(6)11/h1-4,7,11H,5,10H2,(H,12,13)
INCHIAUX=N/A
PUBMED=N/A
SUBMITUSER=mwang87
TAGS=
LIBRARYQUALITY=3
SPECTRUMID=CCMSLIB00000427223
SCANS=2195
76.98 4.2707259541 
91.08 100.0 
95.04 10.754342788 
107.04 4.0120864236 
119.04 67.2572665017 
136.14 11.1087169016 
END IONS

BEGIN IONS
PEPMASS=227.103
CHARGE=1+
MSLEVEL=2
SOURCE_INSTRUMENT=Positive-Quattro_QQQ:40eV
FILENAME=hmdb_intermediate.mgf
SEQ=*..*
IONMODE=Positive
ORGANISM=HMDB
NAME=HMDB:HMDB00245-417 Porphobilinogen M+H
PI=HMDB
DATACOLLECTOR=HMDB
SMILES=NCC1=C(CC(O)=O)C(CCC(O)=O)=CN1
INCHI=InChI=1S/C10H14N2O4/c11-4-8-7(3-10(15)16)6(5-12-8)1-2-9(13)14/h5,12H,1-4,11H2,(H,13,14)(H,15,16)
INCHIAUX=N/A
PUBMED=N/A
SUBMITUSER=mwang87
TAGS=
LIBRARYQUALITY=3
SPECTRUMID=CCMSLIB00000427224
SCANS=2196
53.318 8.39 
55.222 6.935 
67.214 31.336 
77.167 23.801 
94.109 100.0 
95.381 5.137 
106.007 47.945 
122.02 81.507 
END IONS

BEGIN IONS
PEPMASS=163.076
CHARGE=1+
MSLEVEL=2
SOURCE_INSTRUMENT=Negative-Quattro_QQQ:10eV
FILENAME=hmdb_intermediate.mgf
SEQ=*..*
IONMODE=Negative
ORGANISM=HMDB
NAME=HMDB:HMDB00543-761 Benzenebutanoic acid M-H
PI=HMDB
DATACOLLECTOR=HMDB
SMILES=OC(=O)CCCC1=CC=CC=C1
INCHI=InChI=1S/C10H12O2/c11-10(12)8-4-7-9-5-2-1-3-6-9/h1-3,5-6H,4,7-8H2,(H,11,12)
INCHIAUX=N/A
PUBMED=N/A
SUBMITUSER=mwang87
TAGS=
LIBRARYQUALITY=3
SPECTRUMID=CCMSLIB00000427225
SCANS=2197
59.469 20.161 
91.337 34.14 
163.173 100.0 
END IONS

BEGIN IONS
PEPMASS=213.076
CHARGE=1+
MSLEVEL=2
SOURCE_INSTRUMENT=Positive-Quattro_QQQ:40eV
FILENAME=hmdb_intermediate.mgf
SEQ=*..*
IONMODE=Positive
ORGANISM=HMDB
NAME=HMDB:HMDB00913-1302 Vanillactic acid M+H
PI=HMDB
DATACOLLECTOR=HMDB
SMILES=COC1=CC(CC(O)C(O)=O)=CC=C1O
INCHI=InChI=1S/C10H12O5/c1-15-9-5-6(2-3-7(9)11)4-8(12)10(13)14/h2-3,5,8,11-12H,4H2,1H3,(H,13,14)
INCHIAUX=N/A
PUBMED=N/A
SUBMITUSER=mwang87
TAGS=
LIBRARYQUALITY=3
SPECTRUMID=CCMSLIB00000427226
SCANS=2198
65.0 100.0 
77.0 93.93 
93.0 30.943 
107.0 19.097 
END IONS

BEGIN IONS
PEPMASS=80.05
CHARGE=1+
MSLEVEL=2
SOURCE_INSTRUMENT=Positive-Quattro_QQQ:10eV
FILENAME=hmdb_intermediate.mgf
SEQ=*..*
IONMODE=Positive
ORGANISM=HMDB
NAME=HMDB:HMDB00926-1315 Pyridine M+H
PI=HMDB
DATACOLLECTOR=HMDB
SMILES=C1=CC=NC=C1
INCHI=InChI=1S/C5H5N/c1-2-4-6-5-3-1/h1-5H
INCHIAUX=N/A
PUBMED=N/A
SUBMITUSER=mwang87
TAGS=
LIBRARYQUALITY=3
SPECTRUMID=CCMSLIB00000427227
SCANS=2199
80.085 100.0 
END IONS

BEGIN IONS
PEPMASS=174.055
CHARGE=1+
MSLEVEL=2
SOURCE_INSTRUMENT=Positive-Quattro_QQQ:25eV
FILENAME=hmdb_intermediate.mgf
SEQ=*..*
IONMODE=Positive
ORGANISM=HMDB
NAME=HMDB:HMDB00842-1188 Quinaldic acid M+H
PI=HMDB
DATACOLLECTOR=HMDB
SMILES=OC(=O)C1=NC2=CC=CC=C2C=C1
INCHI=InChI=1S/C10H7NO2/c12-10(13)9-6-5-7-3-1-2-4-8(7)11-9/h1-6H,(H,12,13)
INCHIAUX=N/A
PUBMED=N/A
SUBMITUSER=mwang87
TAGS=
LIBRARYQUALITY=3
SPECTRUMID=CCMSLIB00000427228
SCANS=2200
74.457 12.303 
77.092 100.0 
91.02 15.912 
101.058 98.578 
128.037 94.504 
END IONS

BEGIN IONS
PEPMASS=140.995
CHARGE=1+
MSLEVEL=2
SOURCE_INSTRUMENT=Positive-Quattro_QQQ:40eV
FILENAME=hmdb_intermediate.mgf
SEQ=*..*
IONMODE=Positive
ORGANISM=HMDB
NAME=HMDB:HMDB04110-2366 Phosphonoacetate M+H
PI=HMDB
DATACOLLECTOR=HMDB
SMILES=OC(=O)CP(O)(O)=O
INCHI=InChI=1S/C2H5O5P/c3-2(4)1-8(5,6)7/h1H2,(H,3,4)(H2,5,6,7)
INCHIAUX=N/A
PUBMED=N/A
SUBMITUSER=mwang87
TAGS=
LIBRARYQUALITY=3
SPECTRUMID=CCMSLIB00000427229
SCANS=2201
43.0 13.962 
47.0 21.602 
63.0 63.704 
65.0 24.523 
81.0 100.0 
105.0 11.758 
123.0 6.295 
END IONS

BEGIN IONS
PEPMASS=183.066
CHARGE=1+
MSLEVEL=2
SOURCE_INSTRUMENT=Negative-Quattro_QQQ:10eV
FILENAME=hmdb_intermediate.mgf
SEQ=*..*
IONMODE=Negative
ORGANISM=HMDB
NAME=HMDB:HMDB01490-1607 Vanylglycol M-H
PI=HMDB
DATACOLLECTOR=HMDB
SMILES=COC1=CC(=CC=C1O)C(O)CO
INCHI=InChI=1S/C9H12O4/c1-13-9-4-6(8(12)5-10)2-3-7(9)11/h2-4,8,10-12H,5H2,1H3
INCHIAUX=N/A
PUBMED=N/A
SUBMITUSER=mwang87
TAGS=
LIBRARYQUALITY=3
SPECTRUMID=CCMSLIB00000427230
SCANS=2202
121.0 5.595 
150.0 100.0 
165.0 52.443 
END IONS

BEGIN IONS
PEPMASS=387.363
CHARGE=1+
MSLEVEL=2
SOURCE_INSTRUMENT=Positive-Quattro_QQQ:40eV
FILENAME=hmdb_intermediate.mgf
SEQ=*..*
IONMODE=Positive
ORGANISM=HMDB
NAME=HMDB:HMDB00871-1228 5alpha-Cholestanone M+H
PI=HMDB
DATACOLLECTOR=HMDB
SMILES=[H][C@@]1(CC[C@@]2([H])[C@]3([H])CC[C@@]4([H])CC(=O)CC[C@]4(C)[C@@]3([H])CC[C@]12C)[C@H](C)CCCC(C)C
INCHI=InChI=1S/C27H46O/c1-18(2)7-6-8-19(3)23-11-12-24-22-10-9-20-17-21(28)13-15-26(20,4)25(22)14-16-27(23,24)5/h18-20,22-25H,6-17H2,1-5H3/t19-,20+,22+,23-,24+,25+,26+,27-/m1/s1
INCHIAUX=N/A
PUBMED=N/A
SUBMITUSER=mwang87
TAGS=
LIBRARYQUALITY=3
SPECTRUMID=CCMSLIB00000427231
SCANS=2203
68.84 41.659 
80.82 100.0 
92.69 45.287 
94.69 64.265 
106.78 47.859 
120.8 27.524 
132.64 18.881 
END IONS

BEGIN IONS
PEPMASS=132.077
CHARGE=1+
MSLEVEL=2
SOURCE_INSTRUMENT=Positive-Quattro_QQQ:40eV
FILENAME=hmdb_intermediate.mgf
SEQ=*..*
IONMODE=Positive
ORGANISM=HMDB
NAME=HMDB:HMDB00064-107 Creatine M+H
PI=HMDB
DATACOLLECTOR=HMDB
SMILES=CN(CC(O)=O)C(N)=N
INCHI=InChI=1S/C4H9N3O2/c1-7(4(5)6)2-3(8)9/h2H2,1H3,(H3,5,6)(H,8,9)
INCHIAUX=N/A
PUBMED=N/A
SUBMITUSER=mwang87
TAGS=
LIBRARYQUALITY=3
SPECTRUMID=CCMSLIB00000427232
SCANS=2204
44.015 100.0 
72.078 5.934 
87.009 2.888 
131.949 6.448 
END IONS

BEGIN IONS
PEPMASS=93.034
CHARGE=1+
MSLEVEL=2
SOURCE_INSTRUMENT=Negative-Quattro_QQQ:25eV
FILENAME=hmdb_intermediate.mgf
SEQ=*..*
IONMODE=Negative
ORGANISM=HMDB
NAME=HMDB:HMDB00228-380 Phenol M-H
PI=HMDB
DATACOLLECTOR=HMDB
SMILES=OC1=CC=CC=C1
INCHI=InChI=1S/C6H6O/c7-6-4-2-1-3-5-6/h1-5,7H
INCHIAUX=N/A
PUBMED=N/A
SUBMITUSER=mwang87
TAGS=
LIBRARYQUALITY=3
SPECTRUMID=CCMSLIB00000427233
SCANS=2205
39.0 26.021 
65.0 42.283 
75.0 11.209 
93.0 100.0 
END IONS

BEGIN IONS
PEPMASS=110.061
CHARGE=1+
MSLEVEL=2
SOURCE_INSTRUMENT=Positive-Quattro_QQQ:25eV
FILENAME=hmdb_intermediate.mgf
SEQ=*..*
IONMODE=Positive
ORGANISM=HMDB
NAME=HMDB:HMDB01169-1446 4-Aminophenol M+H
PI=HMDB
DATACOLLECTOR=HMDB
SMILES=NC1=CC=C(O)C=C1
INCHI=InChI=1S/C6H7NO/c7-5-1-3-6(8)4-2-5/h1-4,8H,7H2
INCHIAUX=N/A
PUBMED=N/A
SUBMITUSER=mwang87
TAGS=
LIBRARYQUALITY=3
SPECTRUMID=CCMSLIB00000427234
SCANS=2206
65.0 100.0 
80.0 3.106 
93.0 18.629 
109.0 4.991 
END IONS

BEGIN IONS
PEPMASS=134.045
CHARGE=1+
MSLEVEL=2
SOURCE_INSTRUMENT=Positive-Quattro_QQQ:10eV
FILENAME=hmdb_intermediate.mgf
SEQ=*..*
IONMODE=Positive
ORGANISM=HMDB
NAME=HMDB:HMDB00191-304 L-Aspartic acid M+H
PI=HMDB
DATACOLLECTOR=HMDB
SMILES=N[C@@H](CC(O)=O)C(O)=O
INCHI=InChI=1S/C4H7NO4/c5-2(4(8)9)1-3(6)7/h2H,1,5H2,(H,6,7)(H,8,9)/t2-/m0/s1
INCHIAUX=N/A
PUBMED=N/A
SUBMITUSER=mwang87
TAGS=
LIBRARYQUALITY=3
SPECTRUMID=CCMSLIB00000427235
SCANS=2207
46.252 6.095 
74.043 90.909 
88.015 100.0 
115.92 35.744 
133.876 36.983 
END IONS

BEGIN IONS
PEPMASS=209.097
CHARGE=1+
MSLEVEL=2
SOURCE_INSTRUMENT=Positive-Quattro_QQQ:40eV
FILENAME=hmdb_intermediate.mgf
SEQ=*..*
IONMODE=Positive
ORGANISM=HMDB
NAME=HMDB:HMDB03066-2187 Chalcone M+H
PI=HMDB
DATACOLLECTOR=HMDB
SMILES=O=C(\C=C\C1=CC=CC=C1)C1=CC=CC=C1
INCHI=InChI=1S/C15H12O/c16-15(14-9-5-2-6-10-14)12-11-13-7-3-1-4-8-13/h1-12H/b12-11+
INCHIAUX=N/A
PUBMED=N/A
SUBMITUSER=mwang87
TAGS=
LIBRARYQUALITY=3
SPECTRUMID=CCMSLIB00000427236
SCANS=2208
76.97 100.0 
102.86 29.471 
END IONS

BEGIN IONS
PEPMASS=181.073
CHARGE=1+
MSLEVEL=2
SOURCE_INSTRUMENT=Positive-Quattro_QQQ:40eV
FILENAME=hmdb_intermediate.mgf
SEQ=*..*
IONMODE=Positive
ORGANISM=HMDB
NAME=HMDB:HMDB01889-1794 Theophylline M+H
PI=HMDB
DATACOLLECTOR=HMDB
SMILES=CN1C2=C(NC=N2)C(=O)N(C)C1=O
INCHI=InChI=1S/C7H8N4O2/c1-10-5-4(8-3-9-5)6(12)11(2)7(10)13/h3H,1-2H3,(H,8,9)
INCHIAUX=N/A
PUBMED=N/A
SUBMITUSER=mwang87
TAGS=
LIBRARYQUALITY=3
SPECTRUMID=CCMSLIB00000427237
SCANS=2209
42.504 100.0 
69.296 63.941 
94.345 11.369 
96.215 14.563 
108.926 14.921 
END IONS

BEGIN IONS
PEPMASS=130.05
CHARGE=1+
MSLEVEL=2
SOURCE_INSTRUMENT=Positive-Quattro_QQQ:25eV
FILENAME=hmdb_intermediate.mgf
SEQ=*..*
IONMODE=Positive
ORGANISM=HMDB
NAME=HMDB:HMDB01843-1694 N-Acryloylglycine M+H
PI=HMDB
DATACOLLECTOR=HMDB
SMILES=OC(=O)CNC(=O)C=C
INCHI=InChI=1S/C5H7NO3/c1-2-4(7)6-3-5(8)9/h2H,1,3H2,(H,6,7)(H,8,9)
INCHIAUX=N/A
PUBMED=N/A
SUBMITUSER=mwang87
TAGS=
LIBRARYQUALITY=3
SPECTRUMID=CCMSLIB00000427238
SCANS=2210
43.62 4.446 
45.638 3.074 
55.493 100.0 
73.36 4.446 
84.326 2.947 
END IONS

BEGIN IONS
PEPMASS=665.125
CHARGE=1+
MSLEVEL=2
SOURCE_INSTRUMENT=Positive-Quattro_QQQ:10eV
FILENAME=hmdb_intermediate.mgf
SEQ=*..*
IONMODE=Positive
ORGANISM=HMDB
NAME=HMDB:HMDB00902-1280 NAD M+H
PI=HMDB
DATACOLLECTOR=HMDB
SMILES=NC(=O)C1=C[N+](=CC=C1)[C@@H]1O[C@H](COP(O)(=O)OP(O)(=O)OC[C@H]2O[C@H]([C@H](O)[C@@H]2O)N2C=NC3=C2N=CN=C3N)[C@@H](O)[C@H]1O
INCHI=InChI=1S/C21H27N7O14P2/c22-17-12-19(25-7-24-17)28(8-26-12)21-16(32)14(30)11(41-21)6-39-44(36,37)42-43(34,35)38-5-10-13(29)15(31)20(40-10)27-3-1-2-9(4-27)18(23)33/h1-4,7-8,10-11,13-16,20-21,29-32H,5-6H2,(H5-,22,23,24,25,33,34,35,36,37)/p+1/t10-,11-,13-,14-,15-,16-,20-,21-/m1/s1
INCHIAUX=N/A
PUBMED=N/A
SUBMITUSER=mwang87
TAGS=
LIBRARYQUALITY=3
SPECTRUMID=CCMSLIB00000427239
SCANS=2211
136.0 3.105 
232.0 1.582 
371.0 0.883 
428.0 2.416 
524.0 10.84 
542.0 19.513 
648.0 1.017 
664.0 100.0 
665.0 2.879 
END IONS

BEGIN IONS
PEPMASS=140.995
CHARGE=1+
MSLEVEL=2
SOURCE_INSTRUMENT=Positive-Quattro_QQQ:25eV
FILENAME=hmdb_intermediate.mgf
SEQ=*..*
IONMODE=Positive
ORGANISM=HMDB
NAME=HMDB:HMDB01494-1614 Acetylphosphate M+H
PI=HMDB
DATACOLLECTOR=HMDB
SMILES=CC(=O)OP(O)(O)=O
INCHI=InChI=1S/C2H5O5P/c1-2(3)7-8(4,5)6/h1H3,(H2,4,5,6)
INCHIAUX=N/A
PUBMED=N/A
SUBMITUSER=mwang87
TAGS=
LIBRARYQUALITY=3
SPECTRUMID=CCMSLIB00000427240
SCANS=2212
50.0 21.324 
76.0 100.0 
END IONS

BEGIN IONS
PEPMASS=153.019
CHARGE=1+
MSLEVEL=2
SOURCE_INSTRUMENT=Negative-Quattro_QQQ:25eV
FILENAME=hmdb_intermediate.mgf
SEQ=*..*
IONMODE=Negative
ORGANISM=HMDB
NAME=HMDB:HMDB00397-604 2-Pyrocatechuic acid M-H
PI=HMDB
DATACOLLECTOR=HMDB
SMILES=OC(=O)C1=CC=CC(O)=C1O
INCHI=InChI=1S/C7H6O4/c8-5-3-1-2-4(6(5)9)7(10)11/h1-3,8-9H,(H,10,11)
INCHIAUX=N/A
PUBMED=N/A
SUBMITUSER=mwang87
TAGS=
LIBRARYQUALITY=3
SPECTRUMID=CCMSLIB00000427241
SCANS=2213
53.502 31.09 
65.384 4.147 
81.196 22.756 
91.236 16.747 
108.325 100.0 
152.866 3.806 
END IONS

BEGIN IONS
PEPMASS=192.069
CHARGE=1+
MSLEVEL=2
SOURCE_INSTRUMENT=Positive-Quattro_QQQ:25eV
FILENAME=hmdb_intermediate.mgf
SEQ=*..*
IONMODE=Positive
ORGANISM=HMDB
NAME=HMDB:HMDB11745-2500 N-Acetyl-L-methionine M+H
PI=HMDB
DATACOLLECTOR=HMDB
SMILES=CSCCC(NC(C)=O)C(O)=O
INCHI=InChI=1S/C7H13NO3S/c1-5(9)8-6(7(10)11)3-4-12-2/h6H,3-4H2,1-2H3,(H,8,9)(H,10,11)
INCHIAUX=N/A
PUBMED=N/A
SUBMITUSER=mwang87
TAGS=
LIBRARYQUALITY=3
SPECTRUMID=CCMSLIB00000427242
SCANS=2214
56.04 7.0620116652 
104.04 53.7562382265 
133.08 50.2682080764 
144.12 100.0 
150.06 47.5119945776 
174.06 3.7288755423 
END IONS

BEGIN IONS
PEPMASS=118.087
CHARGE=1+
MSLEVEL=2
SOURCE_INSTRUMENT=Positive-Quattro_QQQ:10eV
FILENAME=hmdb_intermediate.mgf
SEQ=*..*
IONMODE=Positive
ORGANISM=HMDB
NAME=HMDB:HMDB03355-2262 5-Aminopentanoic acid M+H
PI=HMDB
DATACOLLECTOR=HMDB
SMILES=NCCCCC(O)=O
INCHI=InChI=1S/C5H11NO2/c6-4-2-1-3-5(7)8/h1-4,6H2,(H,7,8)
INCHIAUX=N/A
PUBMED=N/A
SUBMITUSER=mwang87
TAGS=
LIBRARYQUALITY=3
SPECTRUMID=CCMSLIB00000427243
SCANS=2215
83.0 33.198 
101.0 100.0 
118.0 37.069 
END IONS

BEGIN IONS
PEPMASS=143.009
CHARGE=1+
MSLEVEL=2
SOURCE_INSTRUMENT=Positive-Quattro_QQQ:40eV
FILENAME=hmdb_intermediate.mgf
SEQ=*..*
IONMODE=Positive
ORGANISM=HMDB
NAME=HMDB:HMDB02818-2139 Alloxan M+H
PI=HMDB
DATACOLLECTOR=HMDB
SMILES=O=C1NC(=O)C(=O)C(=O)N1
INCHI=InChI=1S/C4H2N2O4/c7-1-2(8)5-4(10)6-3(1)9/h(H2,5,6,8,9,10)
INCHIAUX=N/A
PUBMED=N/A
SUBMITUSER=mwang87
TAGS=
LIBRARYQUALITY=3
SPECTRUMID=CCMSLIB00000427244
SCANS=2216
40.0 100.0 
50.0 12.527 
60.0 61.016 
69.0 16.164 
81.0 25.461 
90.0 12.46 
END IONS

BEGIN IONS
PEPMASS=117.019
CHARGE=1+
MSLEVEL=2
SOURCE_INSTRUMENT=Negative-Quattro_QQQ:25eV
FILENAME=hmdb_intermediate.mgf
SEQ=*..*
IONMODE=Negative
ORGANISM=HMDB
NAME=HMDB:HMDB00202-326 Methylmalonic acid M-H
PI=HMDB
DATACOLLECTOR=HMDB
SMILES=CC(C(O)=O)C(O)=O
INCHI=InChI=1S/C4H6O4/c1-2(3(5)6)4(7)8/h2H,1H3,(H,5,6)(H,7,8)
INCHIAUX=N/A
PUBMED=N/A
SUBMITUSER=mwang87
TAGS=
LIBRARYQUALITY=3
SPECTRUMID=CCMSLIB00000427245
SCANS=2217
55.476 84.034 
73.296 100.0 
117.059 17.017 
END IONS

BEGIN IONS
PEPMASS=165.076
CHARGE=1+
MSLEVEL=2
SOURCE_INSTRUMENT=Positive-Quattro_QQQ:40eV
FILENAME=hmdb_intermediate.mgf
SEQ=*..*
IONMODE=Positive
ORGANISM=HMDB
NAME=HMDB:HMDB00174-276 L-Fucose M+H
PI=HMDB
DATACOLLECTOR=HMDB
SMILES=C[C@@H]1OC(O)[C@@H](O)[C@H](O)[C@@H]1O
INCHI=InChI=1S/C6H12O5/c1-2-3(7)4(8)5(9)6(10)11-2/h2-10H,1H3/t2-,3+,4+,5-,6?/m0/s1
INCHIAUX=N/A
PUBMED=N/A
SUBMITUSER=mwang87
TAGS=
LIBRARYQUALITY=3
SPECTRUMID=CCMSLIB00000427246
SCANS=2218
43.0 31.703 
55.0 25.388 
69.0 100.0 
77.0 27.117 
END IONS

BEGIN IONS
PEPMASS=167.071
CHARGE=1+
MSLEVEL=2
SOURCE_INSTRUMENT=Positive-Quattro_QQQ:25eV
FILENAME=hmdb_intermediate.mgf
SEQ=*..*
IONMODE=Positive
ORGANISM=HMDB
NAME=HMDB:HMDB02229-2041 3-Phenoxypropionic acid M+H
PI=HMDB
DATACOLLECTOR=HMDB
SMILES=OC(=O)CCOC1=CC=CC=C1
INCHI=InChI=1S/C9H10O3/c10-9(11)6-7-12-8-4-2-1-3-5-8/h1-5H,6-7H2,(H,10,11)
INCHIAUX=N/A
PUBMED=N/A
SUBMITUSER=mwang87
TAGS=
LIBRARYQUALITY=3
SPECTRUMID=CCMSLIB00000427247
SCANS=2219
77.0 48.457 
85.0 100.0 
103.0 41.539 
105.0 8.618 
117.0 7.994 
135.0 6.99 
END IONS

BEGIN IONS
PEPMASS=120.066
CHARGE=1+
MSLEVEL=2
SOURCE_INSTRUMENT=Positive-Quattro_QQQ:40eV
FILENAME=hmdb_intermediate.mgf
SEQ=*..*
IONMODE=Positive
ORGANISM=HMDB
NAME=HMDB:HMDB00167-265 L-Threonine M+H
PI=HMDB
DATACOLLECTOR=HMDB
SMILES=C[C@@H](O)[C@H](N)C(O)=O
INCHI=InChI=1S/C4H9NO3/c1-2(6)3(5)4(7)8/h2-3,6H,5H2,1H3,(H,7,8)/t2-,3+/m1/s1
INCHIAUX=N/A
PUBMED=N/A
SUBMITUSER=mwang87
TAGS=
LIBRARYQUALITY=3
SPECTRUMID=CCMSLIB00000427248
SCANS=2220
43.299 11.806 
45.265 23.194 
56.175 100.0 
73.992 25.278 
120.029 19.306 
END IONS

BEGIN IONS
PEPMASS=667.23
CHARGE=1+
MSLEVEL=2
SOURCE_INSTRUMENT=Positive-Quattro_QQQ:10eV
FILENAME=hmdb_intermediate.mgf
SEQ=*..*
IONMODE=Positive
ORGANISM=HMDB
NAME=HMDB:HMDB01296-1507 Maltotetraose M+H
PI=HMDB
DATACOLLECTOR=HMDB
SMILES=OC[C@H]1O[C@H](O[C@H]2[C@H](O)[C@@H](O)[C@@H](O[C@H]3[C@H](O)[C@@H](O)[C@@H](O[C@H]4[C@H](O)[C@@H](O)C(O)O[C@@H]4CO)O[C@@H]3CO)O[C@@H]2CO)[C@H](O)[C@@H](O)[C@@H]1O
INCHI=InChI=1S/C24H42O21/c25-1-5-9(29)10(30)15(35)22(40-5)44-19-7(3-27)42-24(17(37)12(19)32)45-20-8(4-28)41-23(16(36)13(20)33)43-18-6(2-26)39-21(38)14(34)11(18)31/h5-38H,1-4H2/t5-,6-,7-,8-,9-,10+,11-,12-,13-,14-,15-,16-,17-,18-,19-,20-,21?,22-,23-,24-/m1/s1
INCHIAUX=N/A
PUBMED=N/A
SUBMITUSER=mwang87
TAGS=
LIBRARYQUALITY=3
SPECTRUMID=CCMSLIB00000427249
SCANS=2221
163.0 14.354 
324.0 13.219 
325.0 100.0 
487.0 89.258 
505.0 12.775 
649.0 23.498 
667.0 29.158 
END IONS

BEGIN IONS
PEPMASS=273.185
CHARGE=1+
MSLEVEL=2
SOURCE_INSTRUMENT=Positive-Quattro_QQQ:25eV
FILENAME=hmdb_intermediate.mgf
SEQ=*..*
IONMODE=Positive
ORGANISM=HMDB
NAME=HMDB:HMDB00429-633 17a-Estradiol M+H
PI=HMDB
DATACOLLECTOR=HMDB
SMILES=[H][C@@]12CC[C@@H](O)[C@@]1(C)CC[C@]1([H])C3=C(CC[C@@]21[H])C=C(O)C=C3
INCHI=InChI=1S/C18H24O2/c1-18-9-8-14-13-5-3-12(19)10-11(13)2-4-15(14)16(18)6-7-17(18)20/h3,5,10,14-17,19-20H,2,4,6-9H2,1H3/t14-,15-,16+,17-,18+/m1/s1
INCHIAUX=N/A
PUBMED=N/A
SUBMITUSER=mwang87
TAGS=
LIBRARYQUALITY=3
SPECTRUMID=CCMSLIB00000427250
SCANS=2222
80.0 83.605 
106.0 100.0 
END IONS

BEGIN IONS
PEPMASS=313.238
CHARGE=1+
MSLEVEL=2
SOURCE_INSTRUMENT=Negative-Quattro_QQQ:10eV
FILENAME=hmdb_intermediate.mgf
SEQ=*..*
IONMODE=Negative
ORGANISM=HMDB
NAME=HMDB:HMDB00782-1113 Octadecanedioic acid M-H
PI=HMDB
DATACOLLECTOR=HMDB
SMILES=OC(=O)CCCCCCCCCCCCCCCCC(O)=O
INCHI=InChI=1S/C18H34O4/c19-17(20)15-13-11-9-7-5-3-1-2-4-6-8-10-12-14-16-18(21)22/h1-16H2,(H,19,20)(H,21,22)
INCHIAUX=N/A
PUBMED=N/A
SUBMITUSER=mwang87
TAGS=
LIBRARYQUALITY=3
SPECTRUMID=CCMSLIB00000427251
SCANS=2223
251.0 2.32 
295.0 2.707 
313.0 100.0 
END IONS

BEGIN IONS
PEPMASS=103.04
CHARGE=1+
MSLEVEL=2
SOURCE_INSTRUMENT=Negative-Quattro_QQQ:25eV
FILENAME=hmdb_intermediate.mgf
SEQ=*..*
IONMODE=Negative
ORGANISM=HMDB
NAME=HMDB:HMDB00011-17 (R)-3-Hydroxybutyric acid M-H
PI=HMDB
DATACOLLECTOR=HMDB
SMILES=C[C@@H](O)CC(O)=O
INCHI=InChI=1S/C4H8O3/c1-3(5)2-4(6)7/h3,5H,2H2,1H3,(H,6,7)/t3-/m1/s1
INCHIAUX=N/A
PUBMED=N/A
SUBMITUSER=mwang87
TAGS=
LIBRARYQUALITY=3
SPECTRUMID=CCMSLIB00000427252
SCANS=2224
41.255 48.485 
59.07 100.0 
103.041 34.697 
END IONS

BEGIN IONS
PEPMASS=86.0606
CHARGE=1+
MSLEVEL=2
SOURCE_INSTRUMENT=Positive-Quattro_QQQ:40eV
FILENAME=hmdb_intermediate.mgf
SEQ=*..*
IONMODE=Positive
ORGANISM=HMDB
NAME=HMDB:HMDB02039-1961 2-Pyrrolidinone M+H
PI=HMDB
DATACOLLECTOR=HMDB
SMILES=O=C1CCCN1
INCHI=InChI=1S/C4H7NO/c6-4-2-1-3-5-4/h1-3H2,(H,5,6)
INCHIAUX=N/A
PUBMED=N/A
SUBMITUSER=mwang87
TAGS=
LIBRARYQUALITY=3
SPECTRUMID=CCMSLIB00000427253
SCANS=2225
44.0 100.0 
86.0 16.505 
END IONS

BEGIN IONS
PEPMASS=181.071
CHARGE=1+
MSLEVEL=2
SOURCE_INSTRUMENT=Positive-Quattro_QQQ:25eV
FILENAME=hmdb_intermediate.mgf
SEQ=*..*
IONMODE=Positive
ORGANISM=HMDB
NAME=HMDB:HMDB03418-2299 D-Tagatose M+H
PI=HMDB
DATACOLLECTOR=HMDB
SMILES=OC[C@@H](O)[C@H](O)[C@H](O)C(=O)CO
INCHI=InChI=1S/C6H12O6/c7-1-3(9)5(11)6(12)4(10)2-8/h3,5-9,11-12H,1-2H2/t3-,5+,6-/m1/s1
INCHIAUX=N/A
PUBMED=N/A
SUBMITUSER=mwang87
TAGS=
LIBRARYQUALITY=3
SPECTRUMID=CCMSLIB00000427254
SCANS=2226
42.25 37.505 
55.06 32.126 
67.0 100.0 
81.27 31.763 
98.67 94.764 
107.7 35.75 
END IONS

BEGIN IONS
PEPMASS=151.04
CHARGE=1+
MSLEVEL=2
SOURCE_INSTRUMENT=Negative-Quattro_QQQ:10eV
FILENAME=hmdb_intermediate.mgf
SEQ=*..*
IONMODE=Negative
ORGANISM=HMDB
NAME=HMDB:HMDB00703-981 Mandelic acid M-H
PI=HMDB
DATACOLLECTOR=HMDB
SMILES=O[C@H](C(O)=O)C1=CC=CC=C1
INCHI=InChI=1S/C8H8O3/c9-7(8(10)11)6-4-2-1-3-5-6/h1-5,7,9H,(H,10,11)/t7-/m0/s1
INCHIAUX=N/A
PUBMED=N/A
SUBMITUSER=mwang87
TAGS=
LIBRARYQUALITY=3
SPECTRUMID=CCMSLIB00000427255
SCANS=2227
77.107 2.695 
107.005 77.551 
150.918 100.0 
END IONS

BEGIN IONS
PEPMASS=183.087
CHARGE=1+
MSLEVEL=2
SOURCE_INSTRUMENT=Positive-Quattro_QQQ:25eV
FILENAME=hmdb_intermediate.mgf
SEQ=*..*
IONMODE=Positive
ORGANISM=HMDB
NAME=HMDB:HMDB00765-1102 Mannitol M+H
PI=HMDB
DATACOLLECTOR=HMDB
SMILES=OC[C@@H](O)[C@@H](O)[C@H](O)[C@H](O)CO
INCHI=InChI=1S/C6H14O6/c7-1-3(9)5(11)6(12)4(10)2-8/h3-12H,1-2H2/t3-,4-,5-,6-/m1/s1
INCHIAUX=N/A
PUBMED=N/A
SUBMITUSER=mwang87
TAGS=
LIBRARYQUALITY=3
SPECTRUMID=CCMSLIB00000427256
SCANS=2228
43.338 25.0 
45.329 13.517 
57.227 38.081 
69.148 100.0 
83.123 22.384 
85.091 25.0 
99.058 6.759 
END IONS

BEGIN IONS
PEPMASS=196.061
CHARGE=1+
MSLEVEL=2
SOURCE_INSTRUMENT=Positive-Quattro_QQQ:25eV
FILENAME=hmdb_intermediate.mgf
SEQ=*..*
IONMODE=Positive
ORGANISM=HMDB
NAME=HMDB:HMDB00840-1185 Salicyluric acid M+H
PI=HMDB
DATACOLLECTOR=HMDB
SMILES=OC(=O)CNC(=O)C1=CC=CC=C1O
INCHI=InChI=1S/C9H9NO4/c11-7-4-2-1-3-6(7)9(14)10-5-8(12)13/h1-4,11H,5H2,(H,10,14)(H,12,13)
INCHIAUX=N/A
PUBMED=N/A
SUBMITUSER=mwang87
TAGS=
LIBRARYQUALITY=3
SPECTRUMID=CCMSLIB00000427257
SCANS=2229
65.157 9.005 
93.036 26.303 
120.94 100.0 
END IONS

BEGIN IONS
PEPMASS=209.093
CHARGE=1+
MSLEVEL=2
SOURCE_INSTRUMENT=Positive-Quattro_QQQ:40eV
FILENAME=hmdb_intermediate.mgf
SEQ=*..*
IONMODE=Positive
ORGANISM=HMDB
NAME=HMDB:HMDB00684-950 L-Kynurenine M+H
PI=HMDB
DATACOLLECTOR=HMDB
SMILES=N[C@@H](CC(=O)C1=CC=CC=C1N)C(O)=O
INCHI=InChI=1S/C10H12N2O3/c11-7-4-2-1-3-6(7)9(13)5-8(12)10(14)15/h1-4,8H,5,11-12H2,(H,14,15)/t8-/m0/s1
INCHIAUX=N/A
PUBMED=N/A
SUBMITUSER=mwang87
TAGS=
LIBRARYQUALITY=3
SPECTRUMID=CCMSLIB00000427258
SCANS=2230
46.215 6.795 
65.127 29.53 
77.062 38.926 
91.106 100.0 
104.018 7.466 
119.936 25.671 
131.897 10.445 
145.889 17.282 
END IONS

BEGIN IONS
PEPMASS=246.171
CHARGE=1+
MSLEVEL=2
SOURCE_INSTRUMENT=Positive-Quattro_QQQ:10eV
FILENAME=hmdb_intermediate.mgf
SEQ=*..*
IONMODE=Positive
ORGANISM=HMDB
NAME=HMDB:HMDB00378-591 2-Methylbutyroylcarnitine M+H
PI=HMDB
DATACOLLECTOR=HMDB
SMILES=CCC(C)C(=O)OC(CC([O-])=O)C[N+](C)(C)C
INCHI=InChI=1S/C12H23NO4/c1-6-9(2)12(16)17-10(7-11(14)15)8-13(3,4)5/h9-10H,6-8H2,1-5H3
INCHIAUX=N/A
PUBMED=N/A
SUBMITUSER=mwang87
TAGS=
LIBRARYQUALITY=3
SPECTRUMID=CCMSLIB00000427259
SCANS=2231
60.509 18.431 
85.312 98.039 
187.113 56.078 
246.151 100.0 
END IONS

BEGIN IONS
PEPMASS=291.087
CHARGE=1+
MSLEVEL=2
SOURCE_INSTRUMENT=Positive-Quattro_QQQ:25eV
FILENAME=hmdb_intermediate.mgf
SEQ=*..*
IONMODE=Positive
ORGANISM=HMDB
NAME=HMDB:HMDB01871-1760 Epicatechin M+H
PI=HMDB
DATACOLLECTOR=HMDB
SMILES=O[C@@H]1CC2=C(O)C=C(O)C=C2O[C@@H]1C1=CC(O)=C(O)C=C1
INCHI=InChI=1S/C15H14O6/c16-8-4-11(18)9-6-13(20)15(21-14(9)5-8)7-1-2-10(17)12(19)3-7/h1-5,13,15-20H,6H2/t13-,15-/m1/s1
INCHIAUX=N/A
PUBMED=N/A
SUBMITUSER=mwang87
TAGS=
LIBRARYQUALITY=3
SPECTRUMID=CCMSLIB00000427260
SCANS=2232
55.436 12.413 
68.412 26.725 
97.455 24.25 
123.533 33.074 
139.107 100.0 
147.635 28.553 
164.693 16.071 
194.112 13.92 
205.979 15.75 
254.687 16.071 
274.84 5.311 
END IONS

BEGIN IONS
PEPMASS=181.073
CHARGE=1+
MSLEVEL=2
SOURCE_INSTRUMENT=Positive-Quattro_QQQ:25eV
FILENAME=hmdb_intermediate.mgf
SEQ=*..*
IONMODE=Positive
ORGANISM=HMDB
NAME=HMDB:HMDB01889-1793 Theophylline M+H
PI=HMDB
DATACOLLECTOR=HMDB
SMILES=CN1C2=C(NC=N2)C(=O)N(C)C1=O
INCHI=InChI=1S/C7H8N4O2/c1-10-5-4(8-3-9-5)6(12)11(2)7(10)13/h3H,1-2H3,(H,8,9)
INCHIAUX=N/A
PUBMED=N/A
SUBMITUSER=mwang87
TAGS=
LIBRARYQUALITY=3
SPECTRUMID=CCMSLIB00000427261
SCANS=2233
42.254 10.311 
69.421 18.098 
96.713 40.044 
123.757 100.0 
124.505 67.335 
181.465 29.11 
END IONS

BEGIN IONS
PEPMASS=222.098
CHARGE=1+
MSLEVEL=2
SOURCE_INSTRUMENT=Positive-Quattro_QQQ:40eV
FILENAME=hmdb_intermediate.mgf
SEQ=*..*
IONMODE=Positive
ORGANISM=HMDB
NAME=HMDB:HMDB00212-348 N-Acetylgalactosamine M+H
PI=HMDB
DATACOLLECTOR=HMDB
SMILES=CC(=O)N[C@H]1[C@@H](O)O[C@H](CO)[C@H](O)[C@@H]1O
INCHI=InChI=1S/C8H15NO6/c1-3(11)9-5-7(13)6(12)4(2-10)15-8(5)14/h4-8,10,12-14H,2H2,1H3,(H,9,11)/t4-,5-,6+,7-,8+/m1/s1
INCHIAUX=N/A
PUBMED=N/A
SUBMITUSER=mwang87
TAGS=
LIBRARYQUALITY=3
SPECTRUMID=CCMSLIB00000427262
SCANS=2234
43.602 46.025 
53.544 21.757 
55.515 28.033 
69.27 30.544 
84.259 100.0 
96.335 71.967 
108.85 7.008 
126.14 16.527 
143.947 9.205 
END IONS

BEGIN IONS
PEPMASS=305.098
CHARGE=1+
MSLEVEL=2
SOURCE_INSTRUMENT=Positive-Quattro_QQQ:25eV
FILENAME=hmdb_intermediate.mgf
SEQ=*..*
IONMODE=Positive
ORGANISM=HMDB
NAME=HMDB:HMDB01067-1413 N-Acetylaspartylglutamic acid M+H
PI=HMDB
DATACOLLECTOR=HMDB
SMILES=CC(=O)NC(CC(O)=O)C(=O)NC(CCC(O)=O)C(O)=O
INCHI=InChI=1S/C11H16N2O8/c1-5(14)12-7(4-9(17)18)10(19)13-6(11(20)21)2-3-8(15)16/h6-7H,2-4H2,1H3,(H,12,14)(H,13,19)(H,15,16)(H,17,18)(H,20,21)
INCHIAUX=N/A
PUBMED=N/A
SUBMITUSER=mwang87
TAGS=
LIBRARYQUALITY=3
SPECTRUMID=CCMSLIB00000427263
SCANS=2235
70.0 5.817 
84.0 64.31 
88.0 100.0 
102.0 33.5 
130.0 55.671 
148.0 24.197 
END IONS

