BEGIN IONS
PEPMASS=385.347
CHARGE=1+
MSLEVEL=2
SOURCE_INSTRUMENT=Positive-Quattro_QQQ:25eV
FILENAME=hmdb_intermediate.mgf
SEQ=*..*
IONMODE=Positive
ORGANISM=HMDB
NAME=HMDB:HMDB00032-52 7-Dehydrocholesterol M+H
PI=HMDB
DATACOLLECTOR=HMDB
SMILES=[H][C@@]12CC[C@H]([C@H](C)CCCC(C)C)[C@@]1(C)CC[C@@]1([H])C2=CC=C2C[C@@H](O)CC[C@]12C
INCHI=InChI=1S/C27H44O/c1-18(2)7-6-8-19(3)23-11-12-24-22-10-9-20-17-21(28)13-15-26(20,4)25(22)14-16-27(23,24)5/h9-10,18-19,21,23-25,28H,6-8,11-17H2,1-5H3/t19-,21+,23-,24+,25+,26+,27-/m1/s1
INCHIAUX=N/A
PUBMED=N/A
SUBMITUSER=mwang87
TAGS=
LIBRARYQUALITY=3
SPECTRUMID=CCMSLIB00000425034
SCANS=6
43.315 18.02 
END IONS

BEGIN IONS
PEPMASS=129.019
CHARGE=1+
MSLEVEL=2
SOURCE_INSTRUMENT=Negative-Quattro_QQQ:10eV
FILENAME=hmdb_intermediate.mgf
SEQ=*..*
IONMODE=Negative
ORGANISM=HMDB
NAME=HMDB:HMDB00620-837 Glutaconic acid M-H
PI=HMDB
DATACOLLECTOR=HMDB
SMILES=OC(=O)C\C=C\C(O)=O
INCHI=InChI=1S/C5H6O4/c6-4(7)2-1-3-5(8)9/h1-2H,3H2,(H,6,7)(H,8,9)/b2-1+
INCHIAUX=N/A
PUBMED=N/A
SUBMITUSER=mwang87
TAGS=
LIBRARYQUALITY=3
SPECTRUMID=CCMSLIB00000425036
SCANS=8
41.317 16.447 
END IONS

BEGIN IONS
PEPMASS=130.05
CHARGE=1+
MSLEVEL=2
SOURCE_INSTRUMENT=Positive-Quattro_QQQ:40eV
FILENAME=hmdb_intermediate.mgf
SEQ=*..*
IONMODE=Positive
ORGANISM=HMDB
NAME=HMDB:HMDB00805-1149 Pyrrolidonecarboxylic acid M+H
PI=HMDB
DATACOLLECTOR=HMDB
SMILES=OC(=O)C1CCC(=O)N1
INCHI=InChI=1S/C5H7NO3/c7-4-2-1-3(6-4)5(8)9/h3H,1-2H2,(H,6,7)(H,8,9)
INCHIAUX=N/A
PUBMED=N/A
SUBMITUSER=mwang87
TAGS=
LIBRARYQUALITY=3
SPECTRUMID=CCMSLIB00000425039
SCANS=11
41.681 46.753 
44.563 15.828 
END IONS

BEGIN IONS
PEPMASS=105.019
CHARGE=1+
MSLEVEL=2
SOURCE_INSTRUMENT=Negative-Quattro_QQQ:25eV
FILENAME=hmdb_intermediate.mgf
SEQ=*..*
IONMODE=Negative
ORGANISM=HMDB
NAME=HMDB:HMDB00139-213 Glyceric acid M-H
PI=HMDB
DATACOLLECTOR=HMDB
SMILES=OC[C@@H](O)C(O)=O
INCHI=InChI=1S/C3H6O4/c4-1-2(5)3(6)7/h2,4-5H,1H2,(H,6,7)/t2-/m1/s1
INCHIAUX=N/A
PUBMED=N/A
SUBMITUSER=mwang87
TAGS=
LIBRARYQUALITY=3
SPECTRUMID=CCMSLIB00000425047
SCANS=19
41.286 6.932 
43.26 33.03 
45.195 40.606 
47.216 6.591 
END IONS

BEGIN IONS
PEPMASS=174.113
CHARGE=1+
MSLEVEL=2
SOURCE_INSTRUMENT=Positive-Quattro_QQQ:25eV
FILENAME=hmdb_intermediate.mgf
SEQ=*..*
IONMODE=Positive
ORGANISM=HMDB
NAME=HMDB:HMDB00701-979 Hexanoylglycine M+H
PI=HMDB
DATACOLLECTOR=HMDB
SMILES=CCCCCC(=O)NCC(O)=O
INCHI=InChI=1S/C8H15NO3/c1-2-3-4-5-7(10)9-6-8(11)12/h2-6H2,1H3,(H,9,10)(H,11,12)
INCHIAUX=N/A
PUBMED=N/A
SUBMITUSER=mwang87
TAGS=
LIBRARYQUALITY=3
SPECTRUMID=CCMSLIB00000425048
SCANS=20
43.656 100.0 
END IONS

BEGIN IONS
PEPMASS=112.051
CHARGE=1+
MSLEVEL=2
SOURCE_INSTRUMENT=Positive-Quattro_QQQ:40eV
FILENAME=hmdb_intermediate.mgf
SEQ=*..*
IONMODE=Positive
ORGANISM=HMDB
NAME=HMDB:HMDB00630-860 Cytosine M+H
PI=HMDB
DATACOLLECTOR=HMDB
SMILES=NC1=CC=NC(=O)N1
INCHI=InChI=1S/C4H5N3O/c5-3-1-2-6-4(8)7-3/h1-2H,(H3,5,6,7,8)
INCHIAUX=N/A
PUBMED=N/A
SUBMITUSER=mwang87
TAGS=
LIBRARYQUALITY=3
SPECTRUMID=CCMSLIB00000425049
SCANS=21
40.306 100.0 
42.296 36.111 
43.428 10.417 
52.191 71.875 
END IONS

BEGIN IONS
PEPMASS=181.05
CHARGE=1+
MSLEVEL=2
SOURCE_INSTRUMENT=Negative-Quattro_QQQ:40eV
FILENAME=hmdb_intermediate.mgf
SEQ=*..*
IONMODE=Negative
ORGANISM=HMDB
NAME=HMDB:HMDB00118-170 Homovanillic acid M-H
PI=HMDB
DATACOLLECTOR=HMDB
SMILES=COC1=CC(CC(O)=O)=CC=C1O
INCHI=InChI=1S/C9H10O4/c1-13-8-4-6(5-9(11)12)2-3-7(8)10/h2-4,10H,5H2,1H3,(H,11,12)
INCHIAUX=N/A
PUBMED=N/A
SUBMITUSER=mwang87
TAGS=
LIBRARYQUALITY=3
SPECTRUMID=CCMSLIB00000425053
SCANS=25
41.652 10.76 
45.578 8.312 
51.546 9.665 
END IONS

BEGIN IONS
PEPMASS=74.0606
CHARGE=1+
MSLEVEL=2
SOURCE_INSTRUMENT=Positive-Quattro_QQQ:10eV
FILENAME=hmdb_intermediate.mgf
SEQ=*..*
IONMODE=Positive
ORGANISM=HMDB
NAME=HMDB:HMDB01888-1789 N,N-Dimethylformamide M+H
PI=HMDB
DATACOLLECTOR=HMDB
SMILES=CN(C)C=O
INCHI=InChI=1S/C3H7NO/c1-4(2)3-5/h3H,1-2H3
INCHIAUX=N/A
PUBMED=N/A
SUBMITUSER=mwang87
TAGS=
LIBRARYQUALITY=3
SPECTRUMID=CCMSLIB00000425055
SCANS=27
46.14 14.273 
END IONS

BEGIN IONS
PEPMASS=159.066
CHARGE=1+
MSLEVEL=2
SOURCE_INSTRUMENT=Negative-Quattro_QQQ:40eV
FILENAME=hmdb_intermediate.mgf
SEQ=*..*
IONMODE=Negative
ORGANISM=HMDB
NAME=HMDB:HMDB00857-1207 Pimelic acid M-H
PI=HMDB
DATACOLLECTOR=HMDB
SMILES=OC(=O)CCCCCC(O)=O
INCHI=InChI=1S/C7H12O4/c8-6(9)4-2-1-3-5-7(10)11/h1-5H2,(H,8,9)(H,10,11)
INCHIAUX=N/A
PUBMED=N/A
SUBMITUSER=mwang87
TAGS=
LIBRARYQUALITY=3
SPECTRUMID=CCMSLIB00000425056
SCANS=28
41.351 58.261 
53.292 19.348 
END IONS

BEGIN IONS
PEPMASS=183.066
CHARGE=1+
MSLEVEL=2
SOURCE_INSTRUMENT=Positive-Quattro_QQQ:40eV
FILENAME=hmdb_intermediate.mgf
SEQ=*..*
IONMODE=Positive
ORGANISM=HMDB
NAME=HMDB:HMDB00755-1085 Hydroxyphenyllactic acid M+H
PI=HMDB
DATACOLLECTOR=HMDB
SMILES=OC(CC1=CC=C(O)C=C1)C(O)=O
INCHI=InChI=1S/C9H10O4/c10-7-3-1-6(2-4-7)5-8(11)9(12)13/h1-4,8,10-11H,5H2,(H,12,13)
INCHIAUX=N/A
PUBMED=N/A
SUBMITUSER=mwang87
TAGS=
LIBRARYQUALITY=3
SPECTRUMID=CCMSLIB00000425057
SCANS=29
51.007 70.558 
END IONS

BEGIN IONS
PEPMASS=111.045
CHARGE=1+
MSLEVEL=2
SOURCE_INSTRUMENT=Positive-Quattro_QQQ:25eV
FILENAME=hmdb_intermediate.mgf
SEQ=*..*
IONMODE=Positive
ORGANISM=HMDB
NAME=HMDB:HMDB02434-2108 Hydroquinone M+H
PI=HMDB
DATACOLLECTOR=HMDB
SMILES=OC1=CC=C(O)C=C1
INCHI=InChI=1S/C6H6O2/c7-5-1-2-6(8)4-3-5/h1-4,7-8H
INCHIAUX=N/A
PUBMED=N/A
SUBMITUSER=mwang87
TAGS=
LIBRARYQUALITY=3
SPECTRUMID=CCMSLIB00000425063
SCANS=35
38.0 26.596 
39.0 35.653 
40.0 28.986 
41.0 42.898 
42.0 31.087 
43.0 20.363 
END IONS

BEGIN IONS
PEPMASS=175.024
CHARGE=1+
MSLEVEL=2
SOURCE_INSTRUMENT=Positive-Quattro_QQQ:40eV
FILENAME=hmdb_intermediate.mgf
SEQ=*..*
IONMODE=Positive
ORGANISM=HMDB
NAME=HMDB:HMDB00958-1362 trans-Aconitic acid M+H
PI=HMDB
DATACOLLECTOR=HMDB
SMILES=OC(=O)C\C(=C/C(O)=O)C(O)=O
INCHI=InChI=1S/C6H6O6/c7-4(8)1-3(6(11)12)2-5(9)10/h1H,2H2,(H,7,8)(H,9,10)(H,11,12)/b3-1+
INCHIAUX=N/A
PUBMED=N/A
SUBMITUSER=mwang87
TAGS=
LIBRARYQUALITY=3
SPECTRUMID=CCMSLIB00000425064
SCANS=36
41.339 100.0 
END IONS

BEGIN IONS
PEPMASS=147.045
CHARGE=1+
MSLEVEL=2
SOURCE_INSTRUMENT=Positive-Quattro_QQQ:40eV
FILENAME=hmdb_intermediate.mgf
SEQ=*..*
IONMODE=Positive
ORGANISM=HMDB
NAME=HMDB:HMDB01218-1471 Coumarin M+H
PI=HMDB
DATACOLLECTOR=HMDB
SMILES=O=C1OC2=CC=CC=C2C=C1
INCHI=InChI=1S/C9H6O2/c10-9-6-5-7-3-1-2-4-8(7)11-9/h1-6H
INCHIAUX=N/A
PUBMED=N/A
SUBMITUSER=mwang87
TAGS=
LIBRARYQUALITY=3
SPECTRUMID=CCMSLIB00000425068
SCANS=40
39.0 10.563 
41.0 8.078 
51.0 11.232 
END IONS

BEGIN IONS
PEPMASS=78.0377
CHARGE=1+
MSLEVEL=2
SOURCE_INSTRUMENT=Positive-Quattro_QQQ:40eV
FILENAME=hmdb_intermediate.mgf
SEQ=*..*
IONMODE=Positive
ORGANISM=HMDB
NAME=HMDB:HMDB02991-2178 Cysteamine M+H
PI=HMDB
DATACOLLECTOR=HMDB
SMILES=NCCS
INCHI=InChI=1S/C2H7NS/c3-1-2-4/h4H,1-3H2
INCHIAUX=N/A
PUBMED=N/A
SUBMITUSER=mwang87
TAGS=
LIBRARYQUALITY=3
SPECTRUMID=CCMSLIB00000425070
SCANS=42
18.0 32.46 
19.0 14.789 
27.0 100.0 
28.0 23.725 
35.0 54.918 
45.0 22.948 
END IONS

BEGIN IONS
PEPMASS=103.124
CHARGE=1+
MSLEVEL=2
SOURCE_INSTRUMENT=Positive-Quattro_QQQ:25eV
FILENAME=hmdb_intermediate.mgf
SEQ=*..*
IONMODE=Positive
ORGANISM=HMDB
NAME=HMDB:HMDB02322-2056 Cadaverine M+H
PI=HMDB
DATACOLLECTOR=HMDB
SMILES=NCCCCCN
INCHI=InChI=1S/C5H14N2/c6-4-2-1-3-5-7/h1-7H2
INCHIAUX=N/A
PUBMED=N/A
SUBMITUSER=mwang87
TAGS=
LIBRARYQUALITY=3
SPECTRUMID=CCMSLIB00000425071
SCANS=43
41.0 100.0 
END IONS

BEGIN IONS
PEPMASS=90.0555
CHARGE=1+
MSLEVEL=2
SOURCE_INSTRUMENT=Positive-Quattro_QQQ:10eV
FILENAME=hmdb_intermediate.mgf
SEQ=*..*
IONMODE=Positive
ORGANISM=HMDB
NAME=HMDB:HMDB01310-1510 D-Alanine M+H
PI=HMDB
DATACOLLECTOR=HMDB
SMILES=C[C@@H](N)C(O)=O
INCHI=InChI=1S/C3H7NO2/c1-2(4)3(5)6/h2H,4H2,1H3,(H,5,6)/t2-/m1/s1
INCHIAUX=N/A
PUBMED=N/A
SUBMITUSER=mwang87
TAGS=
LIBRARYQUALITY=3
SPECTRUMID=CCMSLIB00000425074
SCANS=46
44.0 100.0 
45.0 9.552 
END IONS

BEGIN IONS
PEPMASS=81.9725
CHARGE=1+
MSLEVEL=2
SOURCE_INSTRUMENT=Positive-Quattro_QQQ:25eV
FILENAME=hmdb_intermediate.mgf
SEQ=*..*
IONMODE=Positive
ORGANISM=HMDB
NAME=HMDB:HMDB01033-1394 Hydrogen sulfite M+H
PI=HMDB
DATACOLLECTOR=HMDB
SMILES=OS([O-])=O
INCHI=InChI=1S/H2O3S/c1-4(2)3/h(H2,1,2,3)/p-1
INCHIAUX=N/A
PUBMED=N/A
SUBMITUSER=mwang87
TAGS=
LIBRARYQUALITY=3
SPECTRUMID=CCMSLIB00000425076
SCANS=48
41.0 77.626 
42.0 61.127 
END IONS

BEGIN IONS
PEPMASS=61.0653
CHARGE=1+
MSLEVEL=2
SOURCE_INSTRUMENT=Positive-Quattro_QQQ:10eV
FILENAME=hmdb_intermediate.mgf
SEQ=*..*
IONMODE=Positive
ORGANISM=HMDB
NAME=HMDB:HMDB00863-1217 Isopropyl alcohol M+H
PI=HMDB
DATACOLLECTOR=HMDB
SMILES=CC(C)O
INCHI=InChI=1S/C3H8O/c1-3(2)4/h3-4H,1-2H3
INCHIAUX=N/A
PUBMED=N/A
SUBMITUSER=mwang87
TAGS=
LIBRARYQUALITY=3
SPECTRUMID=CCMSLIB00000425078
SCANS=50
33.0 18.404 
42.0 22.353 
43.0 22.897 
END IONS

BEGIN IONS
PEPMASS=155.144
CHARGE=1+
MSLEVEL=2
SOURCE_INSTRUMENT=Positive-Quattro_QQQ:40eV
FILENAME=hmdb_intermediate.mgf
SEQ=*..*
IONMODE=Positive
ORGANISM=HMDB
NAME=HMDB:HMDB04472-2393 Eucalyptol M+H
PI=HMDB
DATACOLLECTOR=HMDB
SMILES=CC12CCC(CC1)C(C)(C)O2
INCHI=InChI=1S/C10H18O/c1-9(2)8-4-6-10(3,11-9)7-5-8/h8H,4-7H2,1-3H3
INCHIAUX=N/A
PUBMED=N/A
SUBMITUSER=mwang87
TAGS=
LIBRARYQUALITY=3
SPECTRUMID=CCMSLIB00000425079
SCANS=51
41.0 74.282 
43.0 14.757 
45.0 13.703 
47.0 17.144 
53.0 28.685 
END IONS

BEGIN IONS
PEPMASS=81.0453
CHARGE=1+
MSLEVEL=2
SOURCE_INSTRUMENT=Positive-Quattro_QQQ:40eV
FILENAME=hmdb_intermediate.mgf
SEQ=*..*
IONMODE=Positive
ORGANISM=HMDB
NAME=HMDB:HMDB03361-2267 Pyrimidine M+H
PI=HMDB
DATACOLLECTOR=HMDB
SMILES=C1=CN=CN=C1
INCHI=InChI=1S/C4H4N2/c1-2-5-4-6-3-1/h1-4H
INCHIAUX=N/A
PUBMED=N/A
SUBMITUSER=mwang87
TAGS=
LIBRARYQUALITY=3
SPECTRUMID=CCMSLIB00000425080
SCANS=52
28.12 100.0 
END IONS

BEGIN IONS
PEPMASS=142.027
CHARGE=1+
MSLEVEL=2
SOURCE_INSTRUMENT=Positive-Quattro_QQQ:40eV
FILENAME=hmdb_intermediate.mgf
SEQ=*..*
IONMODE=Positive
ORGANISM=HMDB
NAME=HMDB:HMDB60152-372 O-Phosphoethanolamine M+H
PI=HMDB
DATACOLLECTOR=HMDB
SMILES=NCCOP(O)(O)=O
INCHI=InChI=1S/C2H8NO4P/c3-1-2-7-8(4,5)6/h1-3H2,(H2,4,5,6)
INCHIAUX=N/A
PUBMED=N/A
SUBMITUSER=mwang87
TAGS=
LIBRARYQUALITY=3
SPECTRUMID=CCMSLIB00000425082
SCANS=54
42.665 5.922 
44.628 100.0 
END IONS

BEGIN IONS
PEPMASS=146.082
CHARGE=1+
MSLEVEL=2
SOURCE_INSTRUMENT=Positive-Quattro_QQQ:10eV
FILENAME=hmdb_intermediate.mgf
SEQ=*..*
IONMODE=Positive
ORGANISM=HMDB
NAME=HMDB:HMDB00730-1026 Isobutyrylglycine M+H
PI=HMDB
DATACOLLECTOR=HMDB
SMILES=CC(C)C(=O)NCC(O)=O
INCHI=InChI=1S/C6H11NO3/c1-4(2)6(10)7-3-5(8)9/h4H,3H2,1-2H3,(H,7,10)(H,8,9)
INCHIAUX=N/A
PUBMED=N/A
SUBMITUSER=mwang87
TAGS=
LIBRARYQUALITY=3
SPECTRUMID=CCMSLIB00000425084
SCANS=56
43.639 32.599 
END IONS

BEGIN IONS
PEPMASS=129.019
CHARGE=1+
MSLEVEL=2
SOURCE_INSTRUMENT=Negative-Quattro_QQQ:25eV
FILENAME=hmdb_intermediate.mgf
SEQ=*..*
IONMODE=Negative
ORGANISM=HMDB
NAME=HMDB:HMDB61185-838 2-Pentendioate M-H
PI=HMDB
DATACOLLECTOR=HMDB
SMILES=OC(=O)CC=CC(O)=O
INCHI=InChI=1S/C5H6O4/c6-4(7)2-1-3-5(8)9/h1-2H,3H2,(H,6,7)(H,8,9)/b2-1+
INCHIAUX=N/A
PUBMED=N/A
SUBMITUSER=mwang87
TAGS=
LIBRARYQUALITY=3
SPECTRUMID=CCMSLIB00000425086
SCANS=58
41.301 100.0 
END IONS

BEGIN IONS
PEPMASS=74.0606
CHARGE=1+
MSLEVEL=2
SOURCE_INSTRUMENT=Positive-Quattro_QQQ:40eV
FILENAME=hmdb_intermediate.mgf
SEQ=*..*
IONMODE=Positive
ORGANISM=HMDB
NAME=HMDB:HMDB01888-1791 N,N-Dimethylformamide M+H
PI=HMDB
DATACOLLECTOR=HMDB
SMILES=CN(C)C=O
INCHI=InChI=1S/C3H7NO/c1-4(2)3-5/h3H,1-2H3
INCHIAUX=N/A
PUBMED=N/A
SUBMITUSER=mwang87
TAGS=
LIBRARYQUALITY=3
SPECTRUMID=CCMSLIB00000425097
SCANS=69
15.49 8.516 
15.5 24.486 
30.25 55.686 
31.46 9.684 
42.1 100.0 
END IONS

BEGIN IONS
PEPMASS=146.082
CHARGE=1+
MSLEVEL=2
SOURCE_INSTRUMENT=Positive-Quattro_QQQ:40eV
FILENAME=hmdb_intermediate.mgf
SEQ=*..*
IONMODE=Positive
ORGANISM=HMDB
NAME=HMDB:HMDB00808-1157 N-Butyrylglycine M+H
PI=HMDB
DATACOLLECTOR=HMDB
SMILES=CCCC(=O)NCC(O)=O
INCHI=InChI=1S/C6H11NO3/c1-2-3-5(8)7-4-6(9)10/h2-4H2,1H3,(H,7,8)(H,9,10)
INCHIAUX=N/A
PUBMED=N/A
SUBMITUSER=mwang87
TAGS=
LIBRARYQUALITY=3
SPECTRUMID=CCMSLIB00000425099
SCANS=71
41.676 53.309 
43.655 100.0 
END IONS

BEGIN IONS
PEPMASS=175.024
CHARGE=1+
MSLEVEL=2
SOURCE_INSTRUMENT=Positive-Quattro_QQQ:40eV
FILENAME=hmdb_intermediate.mgf
SEQ=*..*
IONMODE=Positive
ORGANISM=HMDB
NAME=HMDB:HMDB00072-119 cis-Aconitic acid M+H
PI=HMDB
DATACOLLECTOR=HMDB
SMILES=OC(=O)C\C(=C\C(O)=O)C(O)=O
INCHI=InChI=1S/C6H6O6/c7-4(8)1-3(6(11)12)2-5(9)10/h1H,2H2,(H,7,8)(H,9,10)(H,11,12)/b3-1-
INCHIAUX=N/A
PUBMED=N/A
SUBMITUSER=mwang87
TAGS=
LIBRARYQUALITY=3
SPECTRUMID=CCMSLIB00000425100
SCANS=72
41.339 100.0 
END IONS

BEGIN IONS
PEPMASS=283.264
CHARGE=1+
MSLEVEL=2
SOURCE_INSTRUMENT=Positive-Quattro_QQQ:40eV
FILENAME=hmdb_intermediate.mgf
SEQ=*..*
IONMODE=Positive
ORGANISM=HMDB
NAME=HMDB:HMDB03231-2217 Vaccenic acid M+H
PI=HMDB
DATACOLLECTOR=HMDB
SMILES=CCCCCC\C=C/CCCCCCCCCC(O)=O
INCHI=InChI=1S/C18H34O2/c1-2-3-4-5-6-7-8-9-10-11-12-13-14-15-16-17-18(19)20/h7-8H,2-6,9-17H2,1H3,(H,19,20)/b8-7-
INCHIAUX=N/A
PUBMED=N/A
SUBMITUSER=mwang87
TAGS=
LIBRARYQUALITY=3
SPECTRUMID=CCMSLIB00000425103
SCANS=75
40.0 15.909 
41.0 27.395 
42.0 29.558 
43.0 48.062 
END IONS

BEGIN IONS
PEPMASS=76.0399
CHARGE=1+
MSLEVEL=2
SOURCE_INSTRUMENT=Positive-Quattro_QQQ:10eV
FILENAME=hmdb_intermediate.mgf
SEQ=*..*
IONMODE=Positive
ORGANISM=HMDB
NAME=HMDB:HMDB00123-180 Glycine M+H
PI=HMDB
DATACOLLECTOR=HMDB
SMILES=NCC(O)=O
INCHI=InChI=1S/C2H5NO2/c3-1-2(4)5/h1,3H2,(H,4,5)
INCHIAUX=N/A
PUBMED=N/A
SUBMITUSER=mwang87
TAGS=
LIBRARYQUALITY=3
SPECTRUMID=CCMSLIB00000425107
SCANS=79
30.445 100.0 
48.258 11.615 
END IONS

BEGIN IONS
PEPMASS=103.076
CHARGE=1+
MSLEVEL=2
SOURCE_INSTRUMENT=Positive-Quattro_QQQ:25eV
FILENAME=hmdb_intermediate.mgf
SEQ=*..*
IONMODE=Positive
ORGANISM=HMDB
NAME=HMDB:HMDB00892-1254 Valeric acid M+H
PI=HMDB
DATACOLLECTOR=HMDB
SMILES=CCCCC(O)=O
INCHI=InChI=1S/C5H10O2/c1-2-3-4-5(6)7/h2-4H2,1H3,(H,6,7)
INCHIAUX=N/A
PUBMED=N/A
SUBMITUSER=mwang87
TAGS=
LIBRARYQUALITY=3
SPECTRUMID=CCMSLIB00000425110
SCANS=82
41.0 86.562 
42.0 34.563 
43.0 100.0 
44.0 40.149 
45.0 39.735 
END IONS

BEGIN IONS
PEPMASS=259.093
CHARGE=1+
MSLEVEL=2
SOURCE_INSTRUMENT=Positive-Quattro_QQQ:40eV
FILENAME=hmdb_intermediate.mgf
SEQ=*..*
IONMODE=Positive
ORGANISM=HMDB
NAME=HMDB:HMDB00884-1249 Ribothymidine M+H
PI=HMDB
DATACOLLECTOR=HMDB
SMILES=CC1=CN([C@@H]2O[C@H](CO)[C@@H](O)[C@H]2O)C(=O)NC1=O
INCHI=InChI=1S/C10H14N2O6/c1-4-2-12(10(17)11-8(4)16)9-7(15)6(14)5(3-13)18-9/h2,5-7,9,13-15H,3H2,1H3,(H,11,16,17)/t5-,6-,7-,9-/m1/s1
INCHIAUX=N/A
PUBMED=N/A
SUBMITUSER=mwang87
TAGS=
LIBRARYQUALITY=3
SPECTRUMID=CCMSLIB00000425112
SCANS=84
41.393 6.981 
43.344 10.673 
45.319 8.772 
END IONS

BEGIN IONS
PEPMASS=189.124
CHARGE=1+
MSLEVEL=2
SOURCE_INSTRUMENT=Positive-Quattro_QQQ:25eV
FILENAME=hmdb_intermediate.mgf
SEQ=*..*
IONMODE=Positive
ORGANISM=HMDB
NAME=HMDB:HMDB00446-651 N-Alpha-acetyllysine M+H
PI=HMDB
DATACOLLECTOR=HMDB
SMILES=CC(=O)NC(CCCCN)C(O)=O
INCHI=InChI=1S/C8H16N2O3/c1-6(11)10-7(8(12)13)4-2-3-5-9/h7H,2-5,9H2,1H3,(H,10,11)(H,12,13)
INCHIAUX=N/A
PUBMED=N/A
SUBMITUSER=mwang87
TAGS=
LIBRARYQUALITY=3
SPECTRUMID=CCMSLIB00000425113
SCANS=85
43.0 6.636 
END IONS

BEGIN IONS
PEPMASS=129.019
CHARGE=1+
MSLEVEL=2
SOURCE_INSTRUMENT=Negative-Quattro_QQQ:40eV
FILENAME=hmdb_intermediate.mgf
SEQ=*..*
IONMODE=Negative
ORGANISM=HMDB
NAME=HMDB:HMDB61185-839 2-Pentendioate M-H
PI=HMDB
DATACOLLECTOR=HMDB
SMILES=OC(=O)CC=CC(O)=O
INCHI=InChI=1S/C5H6O4/c6-4(7)2-1-3-5(8)9/h1-2H,3H2,(H,6,7)(H,8,9)/b2-1+
INCHIAUX=N/A
PUBMED=N/A
SUBMITUSER=mwang87
TAGS=
LIBRARYQUALITY=3
SPECTRUMID=CCMSLIB00000425125
SCANS=97
41.286 100.0 
END IONS

BEGIN IONS
PEPMASS=132.15
CHARGE=1+
MSLEVEL=2
SOURCE_INSTRUMENT=Positive-Quattro_QQQ:40eV
FILENAME=hmdb_intermediate.mgf
SEQ=*..*
IONMODE=Positive
ORGANISM=HMDB
NAME=HMDB:HMDB11634-2495 Norspermidine M+H
PI=HMDB
DATACOLLECTOR=HMDB
SMILES=NCCCNCCCN
INCHI=InChI=1S/C6H17N3/c7-3-1-5-9-6-2-4-8/h9H,1-8H2
INCHIAUX=N/A
PUBMED=N/A
SUBMITUSER=mwang87
TAGS=
LIBRARYQUALITY=3
SPECTRUMID=CCMSLIB00000425131
SCANS=103
44.17 42.764 
END IONS

BEGIN IONS
PEPMASS=159.066
CHARGE=1+
MSLEVEL=2
SOURCE_INSTRUMENT=Negative-Quattro_QQQ:25eV
FILENAME=hmdb_intermediate.mgf
SEQ=*..*
IONMODE=Negative
ORGANISM=HMDB
NAME=HMDB:HMDB00857-1206 Pimelic acid M-H
PI=HMDB
DATACOLLECTOR=HMDB
SMILES=OC(=O)CCCCCC(O)=O
INCHI=InChI=1S/C7H12O4/c8-6(9)4-2-1-3-5-7(10)11/h1-5H2,(H,8,9)(H,10,11)
INCHIAUX=N/A
PUBMED=N/A
SUBMITUSER=mwang87
TAGS=
LIBRARYQUALITY=3
SPECTRUMID=CCMSLIB00000425132
SCANS=104
41.289 2.899 
END IONS

BEGIN IONS
PEPMASS=331.227
CHARGE=1+
MSLEVEL=2
SOURCE_INSTRUMENT=Positive-Quattro_QQQ:40eV
FILENAME=hmdb_intermediate.mgf
SEQ=*..*
IONMODE=Positive
ORGANISM=HMDB
NAME=HMDB:HMDB00374-590 17-Hydroxyprogesterone M+H
PI=HMDB
DATACOLLECTOR=HMDB
SMILES=[H][C@@]12CC[C@](O)(C(C)=O)[C@@]1(C)CC[C@@]1([H])[C@@]2([H])CCC2=CC(=O)CC[C@]12C
INCHI=InChI=1S/C21H30O3/c1-13(22)21(24)11-8-18-16-5-4-14-12-15(23)6-9-19(14,2)17(16)7-10-20(18,21)3/h12,16-18,24H,4-11H2,1-3H3/t16-,17+,18+,19+,20+,21+/m1/s1
INCHIAUX=N/A
PUBMED=N/A
SUBMITUSER=mwang87
TAGS=
LIBRARYQUALITY=3
SPECTRUMID=CCMSLIB00000425134
SCANS=106
43.305 20.437 
END IONS

BEGIN IONS
PEPMASS=132.102
CHARGE=1+
MSLEVEL=2
SOURCE_INSTRUMENT=Positive-Quattro_QQQ:40eV
FILENAME=hmdb_intermediate.mgf
SEQ=*..*
IONMODE=Positive
ORGANISM=HMDB
NAME=HMDB:HMDB00557-781 L-Alloisoleucine M+H
PI=HMDB
DATACOLLECTOR=HMDB
SMILES=CC[C@@H](C)[C@H](N)C(O)=O
INCHI=InChI=1S/C6H13NO2/c1-3-4(2)5(7)6(8)9/h4-5H,3,7H2,1-2H3,(H,8,9)/t4-,5+/m1/s1
INCHIAUX=N/A
PUBMED=N/A
SUBMITUSER=mwang87
TAGS=
LIBRARYQUALITY=3
SPECTRUMID=CCMSLIB00000425136
SCANS=108
41.353 100.0 
44.218 62.667 
45.42 16.417 
END IONS

BEGIN IONS
PEPMASS=316.249
CHARGE=1+
MSLEVEL=2
SOURCE_INSTRUMENT=Positive-Quattro_QQQ:25eV
FILENAME=hmdb_intermediate.mgf
SEQ=*..*
IONMODE=Positive
ORGANISM=HMDB
NAME=HMDB:HMDB00651-889 Decanoylcarnitine M+H
PI=HMDB
DATACOLLECTOR=HMDB
SMILES=CCCCCCCCCC(=O)OC(CC([O-])=O)C[N+](C)(C)C
INCHI=InChI=1S/C17H33NO4/c1-5-6-7-8-9-10-11-12-17(21)22-15(13-16(19)20)14-18(2,3)4/h15H,5-14H2,1-4H3
INCHIAUX=N/A
PUBMED=N/A
SUBMITUSER=mwang87
TAGS=
LIBRARYQUALITY=3
SPECTRUMID=CCMSLIB00000425138
SCANS=110
43.634 6.063 
END IONS

BEGIN IONS
PEPMASS=115.051
CHARGE=1+
MSLEVEL=2
SOURCE_INSTRUMENT=Positive-Quattro_QQQ:40eV
FILENAME=hmdb_intermediate.mgf
SEQ=*..*
IONMODE=Positive
ORGANISM=HMDB
NAME=HMDB:HMDB00076-125 Dihydrouracil M+H
PI=HMDB
DATACOLLECTOR=HMDB
SMILES=O=C1CCNC(=O)N1
INCHI=InChI=1S/C4H6N2O2/c7-3-1-2-5-4(8)6-3/h1-2H2,(H2,5,6,7,8)
INCHIAUX=N/A
PUBMED=N/A
SUBMITUSER=mwang87
TAGS=
LIBRARYQUALITY=3
SPECTRUMID=CCMSLIB00000425143
SCANS=115
42.331 8.92 
44.236 92.233 
END IONS

BEGIN IONS
PEPMASS=181.071
CHARGE=1+
MSLEVEL=2
SOURCE_INSTRUMENT=Positive-Quattro_QQQ:40eV
FILENAME=hmdb_intermediate.mgf
SEQ=*..*
IONMODE=Positive
ORGANISM=HMDB
NAME=HMDB:HMDB03418-2300 D-Tagatose M+H
PI=HMDB
DATACOLLECTOR=HMDB
SMILES=OC[C@@H](O)[C@H](O)[C@H](O)C(=O)CO
INCHI=InChI=1S/C6H12O6/c7-1-3(9)5(11)6(12)4(10)2-8/h3,5-9,11-12H,1-2H2/t3-,5+,6-/m1/s1
INCHIAUX=N/A
PUBMED=N/A
SUBMITUSER=mwang87
TAGS=
LIBRARYQUALITY=3
SPECTRUMID=CCMSLIB00000425149
SCANS=121
42.3 41.878 
42.5 47.873 
END IONS

BEGIN IONS
PEPMASS=112.04
CHARGE=1+
MSLEVEL=2
SOURCE_INSTRUMENT=Positive-Quattro_QQQ:40eV
FILENAME=hmdb_intermediate.mgf
SEQ=*..*
IONMODE=Positive
ORGANISM=HMDB
NAME=HMDB:HMDB04230-2378 Pyrrole-2-carboxylic acid M+H
PI=HMDB
DATACOLLECTOR=HMDB
SMILES=OC(=O)C1=CC=CN1
INCHI=InChI=1S/C5H5NO2/c7-5(8)4-2-1-3-6-4/h1-3,6H,(H,7,8)
INCHIAUX=N/A
PUBMED=N/A
SUBMITUSER=mwang87
TAGS=
LIBRARYQUALITY=3
SPECTRUMID=CCMSLIB00000425156
SCANS=128
39.22 100.0 
41.19 21.789 
END IONS

BEGIN IONS
PEPMASS=289.18
CHARGE=1+
MSLEVEL=2
SOURCE_INSTRUMENT=Positive-Quattro_QQQ:40eV
FILENAME=hmdb_intermediate.mgf
SEQ=*..*
IONMODE=Positive
ORGANISM=HMDB
NAME=HMDB:HMDB00347-560 16b-Hydroxyestradiol M+H
PI=HMDB
DATACOLLECTOR=HMDB
SMILES=[H][C@@]12C[C@H](O)[C@H](O)[C@@]1(C)CC[C@]1([H])C3=C(CC[C@@]21[H])C=C(O)C=C3
INCHI=InChI=1S/C18H24O3/c1-18-7-6-13-12-5-3-11(19)8-10(12)2-4-14(13)15(18)9-16(20)17(18)21/h3,5,8,13-17,19-21H,2,4,6-7,9H2,1H3/t13-,14-,15+,16+,17+,18+/m1/s1
INCHIAUX=N/A
PUBMED=N/A
SUBMITUSER=mwang87
TAGS=
LIBRARYQUALITY=3
SPECTRUMID=CCMSLIB00000425171
SCANS=143
43.599 3.762 
END IONS

BEGIN IONS
PEPMASS=178.05
CHARGE=1+
MSLEVEL=2
SOURCE_INSTRUMENT=Negative-Quattro_QQQ:40eV
FILENAME=hmdb_intermediate.mgf
SEQ=*..*
IONMODE=Negative
ORGANISM=HMDB
NAME=HMDB:HMDB00714-998 Hippuric acid M-H
PI=HMDB
DATACOLLECTOR=HMDB
SMILES=OC(=O)CNC(=O)C1=CC=CC=C1
INCHI=InChI=1S/C9H9NO3/c11-8(12)6-10-9(13)7-4-2-1-3-5-7/h1-5H,6H2,(H,10,13)(H,11,12)
INCHIAUX=N/A
PUBMED=N/A
SUBMITUSER=mwang87
TAGS=
LIBRARYQUALITY=3
SPECTRUMID=CCMSLIB00000425181
SCANS=153
42.312 12.619 
END IONS

BEGIN IONS
PEPMASS=106.087
CHARGE=1+
MSLEVEL=2
SOURCE_INSTRUMENT=Positive-Quattro_QQQ:25eV
FILENAME=hmdb_intermediate.mgf
SEQ=*..*
IONMODE=Positive
ORGANISM=HMDB
NAME=HMDB:HMDB04437-2386 Diethanolamine M+H
PI=HMDB
DATACOLLECTOR=HMDB
SMILES=OCCNCCO
INCHI=InChI=1S/C4H11NO2/c6-3-1-5-2-4-7/h5-7H,1-4H2
INCHIAUX=N/A
PUBMED=N/A
SUBMITUSER=mwang87
TAGS=
LIBRARYQUALITY=3
SPECTRUMID=CCMSLIB00000425182
SCANS=154
42.0 41.237 
44.0 27.113 
45.0 100.0 
END IONS

BEGIN IONS
PEPMASS=149.009
CHARGE=1+
MSLEVEL=2
SOURCE_INSTRUMENT=Negative-Quattro_QQQ:40eV
FILENAME=hmdb_intermediate.mgf
SEQ=*..*
IONMODE=Negative
ORGANISM=HMDB
NAME=HMDB:HMDB00956-1356 Tartaric acid M-H
PI=HMDB
DATACOLLECTOR=HMDB
SMILES=O[C@H]([C@@H](O)C(O)=O)C(O)=O
INCHI=InChI=1S/C4H6O6/c5-1(3(7)8)2(6)4(9)10/h1-2,5-6H,(H,7,8)(H,9,10)/t1-,2-/m1/s1
INCHIAUX=N/A
PUBMED=N/A
SUBMITUSER=mwang87
TAGS=
LIBRARYQUALITY=3
SPECTRUMID=CCMSLIB00000425186
SCANS=158
41.619 35.772 
43.598 100.0 
45.561 25.0 
END IONS

BEGIN IONS
PEPMASS=117.055
CHARGE=1+
MSLEVEL=2
SOURCE_INSTRUMENT=Negative-Quattro_QQQ:25eV
FILENAME=hmdb_intermediate.mgf
SEQ=*..*
IONMODE=Negative
ORGANISM=HMDB
NAME=HMDB:HMDB00407-619 2-Hydroxy-3-methylbutyric acid M-H
PI=HMDB
DATACOLLECTOR=HMDB
SMILES=CC(C)C(O)C(O)=O
INCHI=InChI=1S/C5H10O3/c1-3(2)4(6)5(7)8/h3-4,6H,1-2H3,(H,7,8)
INCHIAUX=N/A
PUBMED=N/A
SUBMITUSER=mwang87
TAGS=
LIBRARYQUALITY=3
SPECTRUMID=CCMSLIB00000425188
SCANS=160
45.575 100.0 
END IONS

BEGIN IONS
PEPMASS=255.232
CHARGE=1+
MSLEVEL=2
SOURCE_INSTRUMENT=Negative-Quattro_QQQ:25eV
FILENAME=hmdb_intermediate.mgf
SEQ=*..*
IONMODE=Negative
ORGANISM=HMDB
NAME=HMDB:HMDB60083-359 Palmitic acid M-H
PI=HMDB
DATACOLLECTOR=HMDB
SMILES=CCCCCCCCCCCCCCCC(O)=O
INCHI=InChI=1S/C16H32O2/c1-2-3-4-5-6-7-8-9-10-11-12-13-14-15-16(17)18/h2-15H2,1H3,(H,17,18)
INCHIAUX=N/A
PUBMED=N/A
SUBMITUSER=mwang87
TAGS=
LIBRARYQUALITY=3
SPECTRUMID=CCMSLIB00000425189
SCANS=161
45.313 4.384 
END IONS

BEGIN IONS
PEPMASS=153.041
CHARGE=1+
MSLEVEL=2
SOURCE_INSTRUMENT=Positive-Quattro_QQQ:40eV
FILENAME=hmdb_intermediate.mgf
SEQ=*..*
IONMODE=Positive
ORGANISM=HMDB
NAME=HMDB:HMDB00786-1124 Oxypurinol M+H
PI=HMDB
DATACOLLECTOR=HMDB
SMILES=O=C1NC2=C(C=NN2)C(=O)N1
INCHI=InChI=1S/C5H4N4O2/c10-4-2-1-6-9-3(2)7-5(11)8-4/h1H,(H3,6,7,8,9,10,11)
INCHIAUX=N/A
PUBMED=N/A
SUBMITUSER=mwang87
TAGS=
LIBRARYQUALITY=3
SPECTRUMID=CCMSLIB00000425190
SCANS=162
52.147 21.574 
53.284 12.324 
END IONS

BEGIN IONS
PEPMASS=153.041
CHARGE=1+
MSLEVEL=2
SOURCE_INSTRUMENT=Positive-Quattro_QQQ:40eV
FILENAME=hmdb_intermediate.mgf
SEQ=*..*
IONMODE=Positive
ORGANISM=HMDB
NAME=HMDB:HMDB00292-497 Xanthine M+H
PI=HMDB
DATACOLLECTOR=HMDB
SMILES=O=C1NC2=C(NC=N2)C(=O)N1
INCHI=InChI=1S/C5H4N4O2/c10-4-2-3(7-1-6-2)8-5(11)9-4/h1H,(H3,6,7,8,9,10,11)
INCHIAUX=N/A
PUBMED=N/A
SUBMITUSER=mwang87
TAGS=
LIBRARYQUALITY=3
SPECTRUMID=CCMSLIB00000425197
SCANS=169
53.206 15.139 
END IONS

BEGIN IONS
PEPMASS=255.232
CHARGE=1+
MSLEVEL=2
SOURCE_INSTRUMENT=Negative-Quattro_QQQ:40eV
FILENAME=hmdb_intermediate.mgf
SEQ=*..*
IONMODE=Negative
ORGANISM=HMDB
NAME=HMDB:HMDB00220-360 Palmitic acid M-H
PI=HMDB
DATACOLLECTOR=HMDB
SMILES=CCCCCCCCCCCCCCCC(O)=O
INCHI=InChI=1S/C16H32O2/c1-2-3-4-5-6-7-8-9-10-11-12-13-14-15-16(17)18/h2-15H2,1H3,(H,17,18)
INCHIAUX=N/A
PUBMED=N/A
SUBMITUSER=mwang87
TAGS=
LIBRARYQUALITY=3
SPECTRUMID=CCMSLIB00000425198
SCANS=170
45.359 77.931 
END IONS

BEGIN IONS
PEPMASS=120.066
CHARGE=1+
MSLEVEL=2
SOURCE_INSTRUMENT=Positive-Quattro_QQQ:25eV
FILENAME=hmdb_intermediate.mgf
SEQ=*..*
IONMODE=Positive
ORGANISM=HMDB
NAME=HMDB:HMDB00719-1009 L-Homoserine M+H
PI=HMDB
DATACOLLECTOR=HMDB
SMILES=N[C@@H](CCO)C(O)=O
INCHI=InChI=1S/C4H9NO3/c5-3(1-2-6)4(7)8/h3,6H,1-2,5H2,(H,7,8)/t3-/m0/s1
INCHIAUX=N/A
PUBMED=N/A
SUBMITUSER=mwang87
TAGS=
LIBRARYQUALITY=3
SPECTRUMID=CCMSLIB00000425200
SCANS=172
44.313 44.022 
END IONS

BEGIN IONS
PEPMASS=142.027
CHARGE=1+
MSLEVEL=2
SOURCE_INSTRUMENT=Positive-Quattro_QQQ:10eV
FILENAME=hmdb_intermediate.mgf
SEQ=*..*
IONMODE=Positive
ORGANISM=HMDB
NAME=HMDB:HMDB60151-370 O-Phosphoethanolamine M+H
PI=HMDB
DATACOLLECTOR=HMDB
SMILES=NCCOP(O)(O)=O
INCHI=InChI=1S/C2H8NO4P/c3-1-2-7-8(4,5)6/h1-3H2,(H2,4,5,6)
INCHIAUX=N/A
PUBMED=N/A
SUBMITUSER=mwang87
TAGS=
LIBRARYQUALITY=3
SPECTRUMID=CCMSLIB00000425201
SCANS=173
44.628 100.0 
END IONS

BEGIN IONS
PEPMASS=60.0813
CHARGE=1+
MSLEVEL=2
SOURCE_INSTRUMENT=Positive-Quattro_QQQ:25eV
FILENAME=hmdb_intermediate.mgf
SEQ=*..*
IONMODE=Positive
ORGANISM=HMDB
NAME=HMDB:HMDB00906-1293 Trimethylamine M+H
PI=HMDB
DATACOLLECTOR=HMDB
SMILES=CN(C)C
INCHI=InChI=1S/C3H9N/c1-4(2)3/h1-3H3
INCHIAUX=N/A
PUBMED=N/A
SUBMITUSER=mwang87
TAGS=
LIBRARYQUALITY=3
SPECTRUMID=CCMSLIB00000425202
SCANS=174
43.0 10.776 
44.0 100.0 
45.0 15.923 
END IONS

BEGIN IONS
PEPMASS=167.057
CHARGE=1+
MSLEVEL=2
SOURCE_INSTRUMENT=Positive-Quattro_QQQ:10eV
FILENAME=hmdb_intermediate.mgf
SEQ=*..*
IONMODE=Positive
ORGANISM=HMDB
NAME=HMDB:HMDB01886-1786 3-Methylxanthine M+H
PI=HMDB
DATACOLLECTOR=HMDB
SMILES=CN1C2=C(NC=N2)C(=O)NC1=O
INCHI=InChI=1S/C6H6N4O2/c1-10-4-3(7-2-8-4)5(11)9-6(10)12/h2H,1H3,(H,7,8)(H,9,11,12)
INCHIAUX=N/A
PUBMED=N/A
SUBMITUSER=mwang87
TAGS=
LIBRARYQUALITY=3
SPECTRUMID=CCMSLIB00000425204
SCANS=176
43.34 14.504 
43.841 8.113 
END IONS

BEGIN IONS
PEPMASS=90.0555
CHARGE=1+
MSLEVEL=2
SOURCE_INSTRUMENT=Positive-Quattro_QQQ:40eV
FILENAME=hmdb_intermediate.mgf
SEQ=*..*
IONMODE=Positive
ORGANISM=HMDB
NAME=HMDB:HMDB01310-1512 D-Alanine M+H
PI=HMDB
DATACOLLECTOR=HMDB
SMILES=C[C@@H](N)C(O)=O
INCHI=InChI=1S/C3H7NO2/c1-2(4)3(5)6/h2H,4H2,1H3,(H,5,6)/t2-/m1/s1
INCHIAUX=N/A
PUBMED=N/A
SUBMITUSER=mwang87
TAGS=
LIBRARYQUALITY=3
SPECTRUMID=CCMSLIB00000425205
SCANS=177
27.0 21.864 
29.0 30.467 
44.0 100.0 
45.0 68.207 
END IONS

BEGIN IONS
PEPMASS=159.139
CHARGE=1+
MSLEVEL=2
SOURCE_INSTRUMENT=Positive-Quattro_QQQ:10eV
FILENAME=hmdb_intermediate.mgf
SEQ=*..*
IONMODE=Positive
ORGANISM=HMDB
NAME=HMDB:HMDB00847-1193 Pelargonic acid M+H
PI=HMDB
DATACOLLECTOR=HMDB
SMILES=CCCCCCCCC(O)=O
INCHI=InChI=1S/C9H18O2/c1-2-3-4-5-6-7-8-9(10)11/h2-8H2,1H3,(H,10,11)
INCHIAUX=N/A
PUBMED=N/A
SUBMITUSER=mwang87
TAGS=
LIBRARYQUALITY=3
SPECTRUMID=CCMSLIB00000425209
SCANS=181
43.0 83.332 
END IONS

BEGIN IONS
PEPMASS=285.083
CHARGE=1+
MSLEVEL=2
SOURCE_INSTRUMENT=Positive-Quattro_QQQ:25eV
FILENAME=hmdb_intermediate.mgf
SEQ=*..*
IONMODE=Positive
ORGANISM=HMDB
NAME=HMDB:HMDB00299-508 Xanthosine M+H
PI=HMDB
DATACOLLECTOR=HMDB
SMILES=OC[C@H]1O[C@H]([C@H](O)[C@@H]1O)N1C=NC2=C1N=C(O)N=C2O
INCHI=InChI=1S/C10H12N4O6/c15-1-3-5(16)6(17)9(20-3)14-2-11-4-7(14)12-10(19)13-8(4)18/h2-3,5-6,9,15-17H,1H2,(H2,12,13,18,19)/t3-,5-,6-,9-/m1/s1
INCHIAUX=N/A
PUBMED=N/A
SUBMITUSER=mwang87
TAGS=
LIBRARYQUALITY=3
SPECTRUMID=CCMSLIB00000425215
SCANS=187
43.319 5.998 
END IONS

BEGIN IONS
PEPMASS=146.082
CHARGE=1+
MSLEVEL=2
SOURCE_INSTRUMENT=Positive-Quattro_QQQ:25eV
FILENAME=hmdb_intermediate.mgf
SEQ=*..*
IONMODE=Positive
ORGANISM=HMDB
NAME=HMDB:HMDB00730-1027 Isobutyrylglycine M+H
PI=HMDB
DATACOLLECTOR=HMDB
SMILES=CC(C)C(=O)NCC(O)=O
INCHI=InChI=1S/C6H11NO3/c1-4(2)6(10)7-3-5(8)9/h4H,3H2,1-2H3,(H,7,10)(H,8,9)
INCHIAUX=N/A
PUBMED=N/A
SUBMITUSER=mwang87
TAGS=
LIBRARYQUALITY=3
SPECTRUMID=CCMSLIB00000425217
SCANS=189
41.661 6.25 
43.639 100.0 
END IONS

BEGIN IONS
PEPMASS=119.082
CHARGE=1+
MSLEVEL=2
SOURCE_INSTRUMENT=Positive-Quattro_QQQ:10eV
FILENAME=hmdb_intermediate.mgf
SEQ=*..*
IONMODE=Positive
ORGANISM=HMDB
NAME=HMDB:HMDB02362-2083 2,4-Diaminobutyric acid M+H
PI=HMDB
DATACOLLECTOR=HMDB
SMILES=NCCC(N)C(O)=O
INCHI=InChI=1S/C4H10N2O2/c5-2-1-3(6)4(7)8/h3H,1-2,5-6H2,(H,7,8)
INCHIAUX=N/A
PUBMED=N/A
SUBMITUSER=mwang87
TAGS=
LIBRARYQUALITY=3
SPECTRUMID=CCMSLIB00000425218
SCANS=190
44.0 18.359 
END IONS

BEGIN IONS
PEPMASS=131.071
CHARGE=1+
MSLEVEL=2
SOURCE_INSTRUMENT=Positive-Quattro_QQQ:40eV
FILENAME=hmdb_intermediate.mgf
SEQ=*..*
IONMODE=Positive
ORGANISM=HMDB
NAME=HMDB:HMDB01864-1746 2-Ketohexanoic acid M+H
PI=HMDB
DATACOLLECTOR=HMDB
SMILES=CCCCC(=O)C(O)=O
INCHI=InChI=1S/C6H10O3/c1-2-3-4-5(7)6(8)9/h2-4H2,1H3,(H,8,9)
INCHIAUX=N/A
PUBMED=N/A
SUBMITUSER=mwang87
TAGS=
LIBRARYQUALITY=3
SPECTRUMID=CCMSLIB00000425219
SCANS=191
48.904 73.211 
END IONS

BEGIN IONS
PEPMASS=169.036
CHARGE=1+
MSLEVEL=2
SOURCE_INSTRUMENT=Positive-Quattro_QQQ:25eV
FILENAME=hmdb_intermediate.mgf
SEQ=*..*
IONMODE=Positive
ORGANISM=HMDB
NAME=HMDB:HMDB00289-490 Uric acid M+H
PI=HMDB
DATACOLLECTOR=HMDB
SMILES=O=C1NC2=C(N1)C(=O)NC(=O)N2
INCHI=InChI=1S/C5H4N4O3/c10-3-1-2(7-4(11)6-1)8-5(12)9-3/h(H4,6,7,8,9,10,11,12)
INCHIAUX=N/A
PUBMED=N/A
SUBMITUSER=mwang87
TAGS=
LIBRARYQUALITY=3
SPECTRUMID=CCMSLIB00000425221
SCANS=193
43.328 40.171 
53.216 9.348 
END IONS

BEGIN IONS
PEPMASS=62.0606
CHARGE=1+
MSLEVEL=2
SOURCE_INSTRUMENT=Positive-Quattro_QQQ:10eV
FILENAME=hmdb_intermediate.mgf
SEQ=*..*
IONMODE=Positive
ORGANISM=HMDB
NAME=HMDB:HMDB00149-224 Ethanolamine M+H
PI=HMDB
DATACOLLECTOR=HMDB
SMILES=NCCO
INCHI=InChI=1S/C2H7NO/c3-1-2-4/h4H,1-3H2
INCHIAUX=N/A
PUBMED=N/A
SUBMITUSER=mwang87
TAGS=
LIBRARYQUALITY=3
SPECTRUMID=CCMSLIB00000425225
SCANS=197
44.0 93.904 
45.0 9.469 
END IONS

BEGIN IONS
PEPMASS=175.12
CHARGE=1+
MSLEVEL=2
SOURCE_INSTRUMENT=Positive-Quattro_QQQ:40eV
FILENAME=hmdb_intermediate.mgf
SEQ=*..*
IONMODE=Positive
ORGANISM=HMDB
NAME=HMDB:HMDB00517-742 L-Arginine M+H
PI=HMDB
DATACOLLECTOR=HMDB
SMILES=N[C@@H](CCCN=C(N)N)C(O)=O
INCHI=InChI=1S/C6H14N4O2/c7-4(5(11)12)2-1-3-10-6(8)9/h4H,1-3,7H2,(H,11,12)(H4,8,9,10)/t4-/m0/s1
INCHIAUX=N/A
PUBMED=N/A
SUBMITUSER=mwang87
TAGS=
LIBRARYQUALITY=3
SPECTRUMID=CCMSLIB00000425227
SCANS=199
43.326 13.333 
END IONS

BEGIN IONS
PEPMASS=107.05
CHARGE=1+
MSLEVEL=2
SOURCE_INSTRUMENT=Positive-Quattro_QQQ:40eV
FILENAME=hmdb_intermediate.mgf
SEQ=*..*
IONMODE=Positive
ORGANISM=HMDB
NAME=HMDB:HMDB06115-2474 Benzaldehyde M+H
PI=HMDB
DATACOLLECTOR=HMDB
SMILES=O=CC1=CC=CC=C1
INCHI=InChI=1S/C7H6O/c8-6-7-4-2-1-3-5-7/h1-6H
INCHIAUX=N/A
PUBMED=N/A
SUBMITUSER=mwang87
TAGS=
LIBRARYQUALITY=3
SPECTRUMID=CCMSLIB00000425228
SCANS=200
39.0 21.356 
45.0 17.283 
51.0 86.048 
52.0 15.917 
53.0 12.957 
END IONS

BEGIN IONS
PEPMASS=90.0555
CHARGE=1+
MSLEVEL=2
SOURCE_INSTRUMENT=Positive-Quattro_QQQ:25eV
FILENAME=hmdb_intermediate.mgf
SEQ=*..*
IONMODE=Positive
ORGANISM=HMDB
NAME=HMDB:HMDB01310-1511 D-Alanine M+H
PI=HMDB
DATACOLLECTOR=HMDB
SMILES=C[C@@H](N)C(O)=O
INCHI=InChI=1S/C3H7NO2/c1-2(4)3(5)6/h2H,4H2,1H3,(H,5,6)/t2-/m1/s1
INCHIAUX=N/A
PUBMED=N/A
SUBMITUSER=mwang87
TAGS=
LIBRARYQUALITY=3
SPECTRUMID=CCMSLIB00000425230
SCANS=202
44.0 100.0 
45.0 33.22 
END IONS

BEGIN IONS
PEPMASS=89.0603
CHARGE=1+
MSLEVEL=2
SOURCE_INSTRUMENT=Positive-Quattro_QQQ:40eV
FILENAME=hmdb_intermediate.mgf
SEQ=*..*
IONMODE=Positive
ORGANISM=HMDB
NAME=HMDB:HMDB03243-2220 Acetoin M+H
PI=HMDB
DATACOLLECTOR=HMDB
SMILES=CC(O)C(C)=O
INCHI=InChI=1S/C4H8O2/c1-3(5)4(2)6/h3,5H,1-2H3
INCHIAUX=N/A
PUBMED=N/A
SUBMITUSER=mwang87
TAGS=
LIBRARYQUALITY=3
SPECTRUMID=CCMSLIB00000425232
SCANS=204
41.0 19.144 
42.0 20.265 
43.0 100.0 
44.0 10.153 
45.0 22.777 
END IONS

BEGIN IONS
PEPMASS=170.022
CHARGE=1+
MSLEVEL=2
SOURCE_INSTRUMENT=Positive-Quattro_QQQ:25eV
FILENAME=hmdb_intermediate.mgf
SEQ=*..*
IONMODE=Positive
ORGANISM=HMDB
NAME=HMDB:HMDB00370-586 2-Amino-3-phosphonopropionic acid M+H
PI=HMDB
DATACOLLECTOR=HMDB
SMILES=NC(CP(O)(O)=O)C(O)=O
INCHI=InChI=1S/C3H8NO5P/c4-2(3(5)6)1-10(7,8)9/h2H,1,4H2,(H,5,6)(H2,7,8,9)
INCHIAUX=N/A
PUBMED=N/A
SUBMITUSER=mwang87
TAGS=
LIBRARYQUALITY=3
SPECTRUMID=CCMSLIB00000425235
SCANS=207
44.0 4.032 
END IONS

BEGIN IONS
PEPMASS=159.041
CHARGE=1+
MSLEVEL=2
SOURCE_INSTRUMENT=Positive-Quattro_QQQ:25eV
FILENAME=hmdb_intermediate.mgf
SEQ=*..*
IONMODE=Positive
ORGANISM=HMDB
NAME=HMDB:HMDB03349-2257 L-Dihydroorotic acid M+H
PI=HMDB
DATACOLLECTOR=HMDB
SMILES=OC(=O)[C@@H]1CC(=O)NC(=O)N1
INCHI=InChI=1S/C5H6N2O4/c8-3-1-2(4(9)10)6-5(11)7-3/h2H,1H2,(H,9,10)(H2,6,7,8,11)/t2-/m0/s1
INCHIAUX=N/A
PUBMED=N/A
SUBMITUSER=mwang87
TAGS=
LIBRARYQUALITY=3
SPECTRUMID=CCMSLIB00000425238
SCANS=210
28.0 18.214 
43.0 57.462 
44.0 15.254 
46.0 15.932 
53.0 13.979 
END IONS

BEGIN IONS
PEPMASS=131.071
CHARGE=1+
MSLEVEL=2
SOURCE_INSTRUMENT=Negative-Quattro_QQQ:10eV
FILENAME=hmdb_intermediate.mgf
SEQ=*..*
IONMODE=Negative
ORGANISM=HMDB
NAME=HMDB:HMDB01624-1663 2-Hydroxycaproic acid M-H
PI=HMDB
DATACOLLECTOR=HMDB
SMILES=CCCCC(O)C(O)=O
INCHI=InChI=1S/C6H12O3/c1-2-3-4-5(7)6(8)9/h5,7H,2-4H2,1H3,(H,8,9)
INCHIAUX=N/A
PUBMED=N/A
SUBMITUSER=mwang87
TAGS=
LIBRARYQUALITY=3
SPECTRUMID=CCMSLIB00000425247
SCANS=219
45.615 15.924 
END IONS

BEGIN IONS
PEPMASS=164.038
CHARGE=1+
MSLEVEL=2
SOURCE_INSTRUMENT=Positive-Quattro_QQQ:25eV
FILENAME=hmdb_intermediate.mgf
SEQ=*..*
IONMODE=Positive
ORGANISM=HMDB
NAME=HMDB:HMDB01890-1796 Acetylcysteine M+H
PI=HMDB
DATACOLLECTOR=HMDB
SMILES=CC(=O)N[C@@H](CS)C(O)=O
INCHI=InChI=1S/C5H9NO3S/c1-3(7)6-4(2-10)5(8)9/h4,10H,2H2,1H3,(H,6,7)(H,8,9)/t4-/m0/s1
INCHIAUX=N/A
PUBMED=N/A
SUBMITUSER=mwang87
TAGS=
LIBRARYQUALITY=3
SPECTRUMID=CCMSLIB00000425249
SCANS=221
43.301 39.521 
END IONS

BEGIN IONS
PEPMASS=343.124
CHARGE=1+
MSLEVEL=2
SOURCE_INSTRUMENT=Positive-Quattro_QQQ:40eV
FILENAME=hmdb_intermediate.mgf
SEQ=*..*
IONMODE=Positive
ORGANISM=HMDB
NAME=HMDB:HMDB00186-294 Alpha-Lactose M+H
PI=HMDB
DATACOLLECTOR=HMDB
SMILES=OC[C@H]1O[C@@H](O[C@H]2[C@H](O)[C@@H](O)[C@@H](O)O[C@@H]2CO)[C@H](O)[C@@H](O)[C@H]1O
INCHI=InChI=1S/C12H22O11/c13-1-3-5(15)6(16)9(19)12(22-3)23-10-4(2-14)21-11(20)8(18)7(10)17/h3-20H,1-2H2/t3-,4-,5+,6+,7-,8-,9-,10-,11+,12+/m1/s1
INCHIAUX=N/A
PUBMED=N/A
SUBMITUSER=mwang87
TAGS=
LIBRARYQUALITY=3
SPECTRUMID=CCMSLIB00000425252
SCANS=224
43.351 7.277 
45.349 9.546 
END IONS

BEGIN IONS
PEPMASS=176.067
CHARGE=1+
MSLEVEL=2
SOURCE_INSTRUMENT=Positive-Quattro_QQQ:40eV
FILENAME=hmdb_intermediate.mgf
SEQ=*..*
IONMODE=Positive
ORGANISM=HMDB
NAME=HMDB:HMDB03157-2208 Guanidinosuccinic acid M+H
PI=HMDB
DATACOLLECTOR=HMDB
SMILES=NC(=N)N[C@@H](CC(O)=O)C(O)=O
INCHI=InChI=1S/C5H9N3O4/c6-5(7)8-2(4(11)12)1-3(9)10/h2H,1H2,(H,9,10)(H,11,12)(H4,6,7,8)/t2-/m0/s1
INCHIAUX=N/A
PUBMED=N/A
SUBMITUSER=mwang87
TAGS=
LIBRARYQUALITY=3
SPECTRUMID=CCMSLIB00000425257
SCANS=229
28.0 18.497 
43.0 100.0 
44.0 21.88 
46.0 14.213 
END IONS

BEGIN IONS
PEPMASS=148.061
CHARGE=1+
MSLEVEL=2
SOURCE_INSTRUMENT=Positive-Quattro_QQQ:25eV
FILENAME=hmdb_intermediate.mgf
SEQ=*..*
IONMODE=Positive
ORGANISM=HMDB
NAME=HMDB:HMDB00148-222 L-Glutamic acid M+H
PI=HMDB
DATACOLLECTOR=HMDB
SMILES=N[C@@H](CCC(O)=O)C(O)=O
INCHI=InChI=1S/C5H9NO4/c6-3(5(9)10)1-2-4(7)8/h3H,1-2,6H2,(H,7,8)(H,9,10)/t3-/m0/s1
INCHIAUX=N/A
PUBMED=N/A
SUBMITUSER=mwang87
TAGS=
LIBRARYQUALITY=3
SPECTRUMID=CCMSLIB00000425259
SCANS=231
41.324 14.619 
END IONS

BEGIN IONS
PEPMASS=75.0446
CHARGE=1+
MSLEVEL=2
SOURCE_INSTRUMENT=Positive-Quattro_QQQ:40eV
FILENAME=hmdb_intermediate.mgf
SEQ=*..*
IONMODE=Positive
ORGANISM=HMDB
NAME=HMDB:HMDB00237-399 Propionic acid M+H
PI=HMDB
DATACOLLECTOR=HMDB
SMILES=CCC(O)=O
INCHI=InChI=1S/C3H6O2/c1-2-3(4)5/h2H2,1H3,(H,4,5)
INCHIAUX=N/A
PUBMED=N/A
SUBMITUSER=mwang87
TAGS=
LIBRARYQUALITY=3
SPECTRUMID=CCMSLIB00000425263
SCANS=235
15.0 84.97 
42.0 100.0 
43.0 63.745 
44.0 54.285 
45.0 28.933 
END IONS

BEGIN IONS
PEPMASS=181.073
CHARGE=1+
MSLEVEL=2
SOURCE_INSTRUMENT=Positive-Quattro_QQQ:40eV
FILENAME=hmdb_intermediate.mgf
SEQ=*..*
IONMODE=Positive
ORGANISM=HMDB
NAME=HMDB:HMDB02825-2145 Theobromine M+H
PI=HMDB
DATACOLLECTOR=HMDB
SMILES=CN1C=NC2=C1C(=O)NC(=O)N2C
INCHI=InChI=1S/C7H8N4O2/c1-10-3-8-5-4(10)6(12)9-7(13)11(5)2/h3H,1-2H3,(H,9,12,13)
INCHIAUX=N/A
PUBMED=N/A
SUBMITUSER=mwang87
TAGS=
LIBRARYQUALITY=3
SPECTRUMID=CCMSLIB00000425264
SCANS=236
42.15 86.731 
END IONS

BEGIN IONS
PEPMASS=80.05
CHARGE=1+
MSLEVEL=2
SOURCE_INSTRUMENT=Positive-Quattro_QQQ:25eV
FILENAME=hmdb_intermediate.mgf
SEQ=*..*
IONMODE=Positive
ORGANISM=HMDB
NAME=HMDB:HMDB00926-1316 Pyridine M+H
PI=HMDB
DATACOLLECTOR=HMDB
SMILES=C1=CC=NC=C1
INCHI=InChI=1S/C5H5N/c1-2-4-6-5-3-1/h1-5H
INCHIAUX=N/A
PUBMED=N/A
SUBMITUSER=mwang87
TAGS=
LIBRARYQUALITY=3
SPECTRUMID=CCMSLIB00000425265
SCANS=237
51.251 5.286 
53.235 86.567 
END IONS

BEGIN IONS
PEPMASS=143.107
CHARGE=1+
MSLEVEL=2
SOURCE_INSTRUMENT=Positive-Quattro_QQQ:40eV
FILENAME=hmdb_intermediate.mgf
SEQ=*..*
IONMODE=Positive
ORGANISM=HMDB
NAME=HMDB:HMDB00392-599 2-Octenoic acid M+H
PI=HMDB
DATACOLLECTOR=HMDB
SMILES=CCCCC\C=C/C(O)=O
INCHI=InChI=1S/C8H14O2/c1-2-3-4-5-6-7-8(9)10/h6-7H,2-5H2,1H3,(H,9,10)/b7-6-
INCHIAUX=N/A
PUBMED=N/A
SUBMITUSER=mwang87
TAGS=
LIBRARYQUALITY=3
SPECTRUMID=CCMSLIB00000425266
SCANS=238
41.0 10.403 
END IONS

BEGIN IONS
PEPMASS=181.071
CHARGE=1+
MSLEVEL=2
SOURCE_INSTRUMENT=Positive-Quattro_QQQ:40eV
FILENAME=hmdb_intermediate.mgf
SEQ=*..*
IONMODE=Positive
ORGANISM=HMDB
NAME=HMDB:HMDB03345-2255 Alpha-D-Glucose M+H
PI=HMDB
DATACOLLECTOR=HMDB
SMILES=OC[C@H]1O[C@H](O)[C@H](O)[C@@H](O)[C@@H]1O
INCHI=InChI=1S/C6H12O6/c7-1-2-3(8)4(9)5(10)6(11)12-2/h2-11H,1H2/t2-,3-,4+,5-,6+/m1/s1
INCHIAUX=N/A
PUBMED=N/A
SUBMITUSER=mwang87
TAGS=
LIBRARYQUALITY=3
SPECTRUMID=CCMSLIB00000425273
SCANS=245
41.0 39.27 
45.0 29.753 
46.0 6.332 
END IONS

BEGIN IONS
PEPMASS=162.972
CHARGE=1+
MSLEVEL=2
SOURCE_INSTRUMENT=Positive-Quattro_QQQ:40eV
FILENAME=hmdb_intermediate.mgf
SEQ=*..*
IONMODE=Positive
ORGANISM=HMDB
NAME=HMDB:HMDB04811-2402 2,4-Dichlorophenol M+H
PI=HMDB
DATACOLLECTOR=HMDB
SMILES=OC1=CC=C(Cl)C=C1Cl
INCHI=InChI=1S/C6H4Cl2O/c7-4-1-2-6(9)5(8)3-4/h1-3,9H
INCHIAUX=N/A
PUBMED=N/A
SUBMITUSER=mwang87
TAGS=
LIBRARYQUALITY=3
SPECTRUMID=CCMSLIB00000425274
SCANS=246
51.0 13.687 
END IONS

BEGIN IONS
PEPMASS=43.0058
CHARGE=1+
MSLEVEL=2
SOURCE_INSTRUMENT=Positive-Quattro_QQQ:25eV
FILENAME=hmdb_intermediate.mgf
SEQ=*..*
IONMODE=Positive
ORGANISM=HMDB
NAME=HMDB:HMDB02078-1988 Cyanate M+H
PI=HMDB
DATACOLLECTOR=HMDB
SMILES=[O-]C#N
INCHI=InChI=1S/CHNO/c2-1-3/h3H/p-1
INCHIAUX=N/A
PUBMED=N/A
SUBMITUSER=mwang87
TAGS=
LIBRARYQUALITY=3
SPECTRUMID=CCMSLIB00000425277
SCANS=249
27.0 23.778 
28.0 37.126 
29.0 39.805 
41.0 26.552 
42.0 37.911 
43.0 100.0 
44.0 76.657 
END IONS

BEGIN IONS
PEPMASS=260.186
CHARGE=1+
MSLEVEL=2
SOURCE_INSTRUMENT=Positive-Quattro_QQQ:40eV
FILENAME=hmdb_intermediate.mgf
SEQ=*..*
IONMODE=Positive
ORGANISM=HMDB
NAME=HMDB:HMDB00756-1088 L-Hexanoylcarnitine M+H
PI=HMDB
DATACOLLECTOR=HMDB
SMILES=CCCCCC(=O)O[C@H](CC([O-])=O)C[N+](C)(C)C
INCHI=InChI=1S/C13H25NO4/c1-5-6-7-8-13(17)18-11(9-12(15)16)10-14(2,3)4/h11H,5-10H2,1-4H3/t11-/m1/s1
INCHIAUX=N/A
PUBMED=N/A
SUBMITUSER=mwang87
TAGS=
LIBRARYQUALITY=3
SPECTRUMID=CCMSLIB00000425278
SCANS=250
43.598 17.219 
END IONS

BEGIN IONS
PEPMASS=161.045
CHARGE=1+
MSLEVEL=2
SOURCE_INSTRUMENT=Negative-Quattro_QQQ:25eV
FILENAME=hmdb_intermediate.mgf
SEQ=*..*
IONMODE=Negative
ORGANISM=HMDB
NAME=HMDB:HMDB00321-535 2-Hydroxyadipic acid M-H
PI=HMDB
DATACOLLECTOR=HMDB
SMILES=OC(CCCC(O)=O)C(O)=O
INCHI=InChI=1S/C6H10O5/c7-4(6(10)11)2-1-3-5(8)9/h4,7H,1-3H2,(H,8,9)(H,10,11)
INCHIAUX=N/A
PUBMED=N/A
SUBMITUSER=mwang87
TAGS=
LIBRARYQUALITY=3
SPECTRUMID=CCMSLIB00000425279
SCANS=251
43.637 22.697 
45.593 30.263 
END IONS

BEGIN IONS
PEPMASS=365.233
CHARGE=1+
MSLEVEL=2
SOURCE_INSTRUMENT=Positive-Quattro_QQQ:40eV
FILENAME=hmdb_intermediate.mgf
SEQ=*..*
IONMODE=Positive
ORGANISM=HMDB
NAME=HMDB:HMDB00903-1285 Tetrahydrocortisone M+H
PI=HMDB
DATACOLLECTOR=HMDB
SMILES=[H][C@@]12CC[C@](O)(C(=O)CO)[C@@]1(C)CC(=O)[C@@]1([H])[C@@]2([H])CC[C@@]2([H])C[C@@H](O)CC[C@]12C
INCHI=InChI=1S/C21H32O5/c1-19-7-5-13(23)9-12(19)3-4-14-15-6-8-21(26,17(25)11-22)20(15,2)10-16(24)18(14)19/h12-15,18,22-23,26H,3-11H2,1-2H3/t12-,13-,14-,15-,18+,19-,20-,21-/m0/s1
INCHIAUX=N/A
PUBMED=N/A
SUBMITUSER=mwang87
TAGS=
LIBRARYQUALITY=3
SPECTRUMID=CCMSLIB00000425280
SCANS=252
43.572 30.903 
END IONS

BEGIN IONS
PEPMASS=61.0653
CHARGE=1+
MSLEVEL=2
SOURCE_INSTRUMENT=Positive-Quattro_QQQ:25eV
FILENAME=hmdb_intermediate.mgf
SEQ=*..*
IONMODE=Positive
ORGANISM=HMDB
NAME=HMDB:HMDB00820-1168 Propyl alcohol M+H
PI=HMDB
DATACOLLECTOR=HMDB
SMILES=CCCO
INCHI=InChI=1S/C3H8O/c1-2-3-4/h4H,2-3H2,1H3
INCHIAUX=N/A
PUBMED=N/A
SUBMITUSER=mwang87
TAGS=
LIBRARYQUALITY=3
SPECTRUMID=CCMSLIB00000425282
SCANS=254
15.0 39.654 
42.0 54.047 
43.0 60.249 
44.0 41.08 
45.0 45.571 
END IONS

BEGIN IONS
PEPMASS=389.378
CHARGE=1+
MSLEVEL=2
SOURCE_INSTRUMENT=Positive-Quattro_QQQ:25eV
FILENAME=hmdb_intermediate.mgf
SEQ=*..*
IONMODE=Positive
ORGANISM=HMDB
NAME=HMDB:HMDB00908-1296 5alpha-Cholestanol M+H
PI=HMDB
DATACOLLECTOR=HMDB
SMILES=[H][C@@]1(CC[C@@]2([H])[C@]3([H])CC[C@@]4([H])C[C@@H](O)CC[C@]4(C)[C@@]3([H])CC[C@]12C)[C@H](C)CCCC(C)C
INCHI=InChI=1S/C27H48O/c1-18(2)7-6-8-19(3)23-11-12-24-22-10-9-20-17-21(28)13-15-26(20,4)25(22)14-16-27(23,24)5/h18-25,28H,6-17H2,1-5H3/t19-,20+,21+,22+,23-,24+,25+,26+,27-/m1/s1
INCHIAUX=N/A
PUBMED=N/A
SUBMITUSER=mwang87
TAGS=
LIBRARYQUALITY=3
SPECTRUMID=CCMSLIB00000425284
SCANS=256
46.0 100.0 
END IONS

BEGIN IONS
PEPMASS=185.154
CHARGE=1+
MSLEVEL=2
SOURCE_INSTRUMENT=Negative-Quattro_QQQ:40eV
FILENAME=hmdb_intermediate.mgf
SEQ=*..*
IONMODE=Negative
ORGANISM=HMDB
NAME=HMDB:HMDB00947-1344 Undecanoic acid M-H
PI=HMDB
DATACOLLECTOR=HMDB
SMILES=CCCCCCCCCCC(O)=O
INCHI=InChI=1S/C11H22O2/c1-2-3-4-5-6-7-8-9-10-11(12)13/h2-10H2,1H3,(H,12,13)
INCHIAUX=N/A
PUBMED=N/A
SUBMITUSER=mwang87
TAGS=
LIBRARYQUALITY=3
SPECTRUMID=CCMSLIB00000425286
SCANS=258
45.265 14.558 
END IONS

BEGIN IONS
PEPMASS=87.0446
CHARGE=1+
MSLEVEL=2
SOURCE_INSTRUMENT=Positive-Quattro_QQQ:40eV
FILENAME=hmdb_intermediate.mgf
SEQ=*..*
IONMODE=Positive
ORGANISM=HMDB
NAME=HMDB:HMDB03407-2288 Diacetyl M+H
PI=HMDB
DATACOLLECTOR=HMDB
SMILES=CC(=O)C(C)=O
INCHI=InChI=1S/C4H6O2/c1-3(5)4(2)6/h1-2H3
INCHIAUX=N/A
PUBMED=N/A
SUBMITUSER=mwang87
TAGS=
LIBRARYQUALITY=3
SPECTRUMID=CCMSLIB00000425287
SCANS=259
43.0 49.789 
48.0 69.214 
49.0 56.082 
END IONS

BEGIN IONS
PEPMASS=153.128
CHARGE=1+
MSLEVEL=2
SOURCE_INSTRUMENT=Positive-Quattro_QQQ:40eV
FILENAME=hmdb_intermediate.mgf
SEQ=*..*
IONMODE=Positive
ORGANISM=HMDB
NAME=HMDB:HMDB03634-2336 Perillyl alcohol M+H
PI=HMDB
DATACOLLECTOR=HMDB
SMILES=CC(=C)C1CCC(CO)=CC1
INCHI=InChI=1S/C10H16O/c1-8(2)10-5-3-9(7-11)4-6-10/h3,10-11H,1,4-7H2,2H3
INCHIAUX=N/A
PUBMED=N/A
SUBMITUSER=mwang87
TAGS=
LIBRARYQUALITY=3
SPECTRUMID=CCMSLIB00000425292
SCANS=264
41.0 28.308 
43.0 21.543 
45.0 74.481 
END IONS

BEGIN IONS
PEPMASS=131.034
CHARGE=1+
MSLEVEL=2
SOURCE_INSTRUMENT=Negative-Quattro_QQQ:10eV
FILENAME=hmdb_intermediate.mgf
SEQ=*..*
IONMODE=Negative
ORGANISM=HMDB
NAME=HMDB:HMDB00622-843 Ethylmalonic acid M-H
PI=HMDB
DATACOLLECTOR=HMDB
SMILES=CCC(C(O)=O)C(O)=O
INCHI=InChI=1S/C5H8O4/c1-2-3(4(6)7)5(8)9/h3H,2H2,1H3,(H,6,7)(H,8,9)
INCHIAUX=N/A
PUBMED=N/A
SUBMITUSER=mwang87
TAGS=
LIBRARYQUALITY=3
SPECTRUMID=CCMSLIB00000425294
SCANS=266
41.673 100.0 
END IONS

BEGIN IONS
PEPMASS=91.0395
CHARGE=1+
MSLEVEL=2
SOURCE_INSTRUMENT=Positive-Quattro_QQQ:10eV
FILENAME=hmdb_intermediate.mgf
SEQ=*..*
IONMODE=Positive
ORGANISM=HMDB
NAME=HMDB:HMDB01051-1403 Glyceraldehyde M+H
PI=HMDB
DATACOLLECTOR=HMDB
SMILES=OCC(O)C=O
INCHI=InChI=1S/C3H6O3/c4-1-3(6)2-5/h1,3,5-6H,2H2
INCHIAUX=N/A
PUBMED=N/A
SUBMITUSER=mwang87
TAGS=
LIBRARYQUALITY=3
SPECTRUMID=CCMSLIB00000425295
SCANS=267
43.277 8.155 
45.252 11.509 
END IONS

BEGIN IONS
PEPMASS=112.04
CHARGE=1+
MSLEVEL=2
SOURCE_INSTRUMENT=Positive-Quattro_QQQ:25eV
FILENAME=hmdb_intermediate.mgf
SEQ=*..*
IONMODE=Positive
ORGANISM=HMDB
NAME=HMDB:HMDB04230-2377 Pyrrole-2-carboxylic acid M+H
PI=HMDB
DATACOLLECTOR=HMDB
SMILES=OC(=O)C1=CC=CN1
INCHI=InChI=1S/C5H5NO2/c7-5(8)4-2-1-3-6-4/h1-3,6H,(H,7,8)
INCHIAUX=N/A
PUBMED=N/A
SUBMITUSER=mwang87
TAGS=
LIBRARYQUALITY=3
SPECTRUMID=CCMSLIB00000425296
SCANS=268
39.196 26.766 
41.157 75.98 
END IONS

BEGIN IONS
PEPMASS=331.227
CHARGE=1+
MSLEVEL=2
SOURCE_INSTRUMENT=Positive-Quattro_QQQ:40eV
FILENAME=hmdb_intermediate.mgf
SEQ=*..*
IONMODE=Positive
ORGANISM=HMDB
NAME=HMDB:HMDB00016-30 Deoxycorticosterone M+H
PI=HMDB
DATACOLLECTOR=HMDB
SMILES=[H][C@@]12CC[C@H](C(=O)CO)[C@@]1(C)CC[C@@]1([H])[C@@]2([H])CCC2=CC(=O)CC[C@]12C
INCHI=InChI=1S/C21H30O3/c1-20-9-7-14(23)11-13(20)3-4-15-16-5-6-18(19(24)12-22)21(16,2)10-8-17(15)20/h11,15-18,22H,3-10,12H2,1-2H3/t15-,16-,17-,18+,20-,21-/m0/s1
INCHIAUX=N/A
PUBMED=N/A
SUBMITUSER=mwang87
TAGS=
LIBRARYQUALITY=3
SPECTRUMID=CCMSLIB00000425299
SCANS=271
41.583 3.641 
43.555 7.12 
END IONS

BEGIN IONS
PEPMASS=155.009
CHARGE=1+
MSLEVEL=2
SOURCE_INSTRUMENT=Negative-Quattro_QQQ:25eV
FILENAME=hmdb_intermediate.mgf
SEQ=*..*
IONMODE=Negative
ORGANISM=HMDB
NAME=HMDB:HMDB00226-374 Orotic acid M-H
PI=HMDB
DATACOLLECTOR=HMDB
SMILES=OC(=O)C1=CC(=O)NC(=O)N1
INCHI=InChI=1S/C5H4N2O4/c8-3-1-2(4(9)10)6-5(11)7-3/h1H,(H,9,10)(H2,6,7,8,11)
INCHIAUX=N/A
PUBMED=N/A
SUBMITUSER=mwang87
TAGS=
LIBRARYQUALITY=3
SPECTRUMID=CCMSLIB00000425300
SCANS=272
40.392 10.133 
42.31 100.0 
END IONS

BEGIN IONS
PEPMASS=109.065
CHARGE=1+
MSLEVEL=2
SOURCE_INSTRUMENT=Positive-Quattro_QQQ:40eV
FILENAME=hmdb_intermediate.mgf
SEQ=*..*
IONMODE=Positive
ORGANISM=HMDB
NAME=HMDB:HMDB02048-1970 m-Cresol M+H
PI=HMDB
DATACOLLECTOR=HMDB
SMILES=CC1=CC(O)=CC=C1
INCHI=InChI=1S/C7H8O/c1-6-3-2-4-7(8)5-6/h2-5,8H,1H3
INCHIAUX=N/A
PUBMED=N/A
SUBMITUSER=mwang87
TAGS=
LIBRARYQUALITY=3
SPECTRUMID=CCMSLIB00000425307
SCANS=279
39.0 76.808 
40.0 26.646 
41.0 10.798 
51.0 22.405 
53.0 10.234 
END IONS

BEGIN IONS
PEPMASS=165.076
CHARGE=1+
MSLEVEL=2
SOURCE_INSTRUMENT=Positive-Quattro_QQQ:10eV
FILENAME=hmdb_intermediate.mgf
SEQ=*..*
IONMODE=Positive
ORGANISM=HMDB
NAME=HMDB:HMDB00174-274 L-Fucose M+H
PI=HMDB
DATACOLLECTOR=HMDB
SMILES=C[C@@H]1OC(O)[C@@H](O)[C@H](O)[C@@H]1O
INCHI=InChI=1S/C6H12O5/c1-2-3(7)4(8)5(9)6(10)11-2/h2-10H,1H3/t2-,3+,4+,5-,6?/m0/s1
INCHIAUX=N/A
PUBMED=N/A
SUBMITUSER=mwang87
TAGS=
LIBRARYQUALITY=3
SPECTRUMID=CCMSLIB00000425311
SCANS=283
43.0 16.498 
END IONS

BEGIN IONS
PEPMASS=61.0653
CHARGE=1+
MSLEVEL=2
SOURCE_INSTRUMENT=Positive-Quattro_QQQ:40eV
FILENAME=hmdb_intermediate.mgf
SEQ=*..*
IONMODE=Positive
ORGANISM=HMDB
NAME=HMDB:HMDB00820-1169 Propyl alcohol M+H
PI=HMDB
DATACOLLECTOR=HMDB
SMILES=CCCO
INCHI=InChI=1S/C3H8O/c1-2-3-4/h4H,2-3H2,1H3
INCHIAUX=N/A
PUBMED=N/A
SUBMITUSER=mwang87
TAGS=
LIBRARYQUALITY=3
SPECTRUMID=CCMSLIB00000425318
SCANS=290
15.0 51.943 
42.0 34.789 
43.0 40.796 
44.0 34.814 
45.0 34.508 
END IONS

BEGIN IONS
PEPMASS=181.071
CHARGE=1+
MSLEVEL=2
SOURCE_INSTRUMENT=Positive-Quattro_QQQ:25eV
FILENAME=hmdb_intermediate.mgf
SEQ=*..*
IONMODE=Positive
ORGANISM=HMDB
NAME=HMDB:HMDB00169-270 D-Mannose M+H
PI=HMDB
DATACOLLECTOR=HMDB
SMILES=OC[C@H]1OC(O)[C@@H](O)[C@@H](O)[C@@H]1O
INCHI=InChI=1S/C6H12O6/c7-1-2-3(8)4(9)5(10)6(11)12-2/h2-11H,1H2/t2-,3-,4+,5+,6?/m1/s1
INCHIAUX=N/A
PUBMED=N/A
SUBMITUSER=mwang87
TAGS=
LIBRARYQUALITY=3
SPECTRUMID=CCMSLIB00000425320
SCANS=292
41.394 10.255 
43.338 19.175 
45.274 18.204 
53.253 6.978 
END IONS

BEGIN IONS
PEPMASS=169.05
CHARGE=1+
MSLEVEL=2
SOURCE_INSTRUMENT=Positive-Quattro_QQQ:40eV
FILENAME=hmdb_intermediate.mgf
SEQ=*..*
IONMODE=Positive
ORGANISM=HMDB
NAME=HMDB:HMDB01868-1755 5-Methoxysalicylic acid M+H
PI=HMDB
DATACOLLECTOR=HMDB
SMILES=COC1=CC(C(O)=O)=C(O)C=C1
INCHI=InChI=1S/C8H8O4/c1-12-5-2-3-7(9)6(4-5)8(10)11/h2-4,9H,1H3,(H,10,11)
INCHIAUX=N/A
PUBMED=N/A
SUBMITUSER=mwang87
TAGS=
LIBRARYQUALITY=3
SPECTRUMID=CCMSLIB00000425321
SCANS=293
39.317 39.573 
41.071 46.897 
41.948 34.283 
51.221 39.371 
52.223 45.37 
52.724 56.46 
END IONS

BEGIN IONS
PEPMASS=163.076
CHARGE=1+
MSLEVEL=2
SOURCE_INSTRUMENT=Negative-Quattro_QQQ:40eV
FILENAME=hmdb_intermediate.mgf
SEQ=*..*
IONMODE=Negative
ORGANISM=HMDB
NAME=HMDB:HMDB00543-763 Benzenebutanoic acid M-H
PI=HMDB
DATACOLLECTOR=HMDB
SMILES=OC(=O)CCCC1=CC=CC=C1
INCHI=InChI=1S/C10H12O2/c11-10(12)8-4-7-9-5-2-1-3-6-9/h1-3,5-6H,4,7-8H2,(H,11,12)
INCHIAUX=N/A
PUBMED=N/A
SUBMITUSER=mwang87
TAGS=
LIBRARYQUALITY=3
SPECTRUMID=CCMSLIB00000425323
SCANS=295
41.651 31.086 
END IONS

BEGIN IONS
PEPMASS=169.05
CHARGE=1+
MSLEVEL=2
SOURCE_INSTRUMENT=Positive-Quattro_QQQ:40eV
FILENAME=hmdb_intermediate.mgf
SEQ=*..*
IONMODE=Positive
ORGANISM=HMDB
NAME=HMDB:HMDB00130-199 Homogentisic acid M+H
PI=HMDB
DATACOLLECTOR=HMDB
SMILES=OC(=O)CC1=C(O)C=CC(O)=C1
INCHI=InChI=1S/C8H8O4/c9-6-1-2-7(10)5(3-6)4-8(11)12/h1-3,9-10H,4H2,(H,11,12)
INCHIAUX=N/A
PUBMED=N/A
SUBMITUSER=mwang87
TAGS=
LIBRARYQUALITY=3
SPECTRUMID=CCMSLIB00000425325
SCANS=297
41.0 74.227 
43.0 22.737 
51.0 22.259 
END IONS

BEGIN IONS
PEPMASS=120.066
CHARGE=1+
MSLEVEL=2
SOURCE_INSTRUMENT=Positive-Quattro_QQQ:10eV
FILENAME=hmdb_intermediate.mgf
SEQ=*..*
IONMODE=Positive
ORGANISM=HMDB
NAME=HMDB:HMDB00719-1008 L-Homoserine M+H
PI=HMDB
DATACOLLECTOR=HMDB
SMILES=N[C@@H](CCO)C(O)=O
INCHI=InChI=1S/C4H9NO3/c5-3(1-2-6)4(7)8/h3,6H,1-2,5H2,(H,7,8)/t3-/m0/s1
INCHIAUX=N/A
PUBMED=N/A
SUBMITUSER=mwang87
TAGS=
LIBRARYQUALITY=3
SPECTRUMID=CCMSLIB00000425326
SCANS=298
44.321 2.559 
END IONS

BEGIN IONS
PEPMASS=151.04
CHARGE=1+
MSLEVEL=2
SOURCE_INSTRUMENT=Negative-Quattro_QQQ:40eV
FILENAME=hmdb_intermediate.mgf
SEQ=*..*
IONMODE=Negative
ORGANISM=HMDB
NAME=HMDB:HMDB00020-35 p-Hydroxyphenylacetic acid M-H
PI=HMDB
DATACOLLECTOR=HMDB
SMILES=OC(=O)CC1=CC=C(O)C=C1
INCHI=InChI=1S/C8H8O3/c9-7-3-1-6(2-4-7)5-8(10)11/h1-4,9H,5H2,(H,10,11)
INCHIAUX=N/A
PUBMED=N/A
SUBMITUSER=mwang87
TAGS=
LIBRARYQUALITY=3
SPECTRUMID=CCMSLIB00000425329
SCANS=301
45.566 54.464 
51.565 22.619 
END IONS

BEGIN IONS
PEPMASS=101.06
CHARGE=1+
MSLEVEL=2
SOURCE_INSTRUMENT=Positive-Quattro_QQQ:25eV
FILENAME=hmdb_intermediate.mgf
SEQ=*..*
IONMODE=Positive
ORGANISM=HMDB
NAME=HMDB:HMDB01862-1742 2-Ethylacrylic acid M+H
PI=HMDB
DATACOLLECTOR=HMDB
SMILES=CCC(=C)C(O)=O
INCHI=InChI=1S/C5H8O2/c1-3-4(2)5(6)7/h2-3H2,1H3,(H,6,7)
INCHIAUX=N/A
PUBMED=N/A
SUBMITUSER=mwang87
TAGS=
LIBRARYQUALITY=3
SPECTRUMID=CCMSLIB00000425330
SCANS=302
41.0 36.755 
42.0 28.219 
43.0 26.667 
44.0 68.316 
45.0 59.088 
END IONS

BEGIN IONS
PEPMASS=201.984
CHARGE=1+
MSLEVEL=2
SOURCE_INSTRUMENT=Positive-Quattro_QQQ:25eV
FILENAME=hmdb_intermediate.mgf
SEQ=*..*
IONMODE=Positive
ORGANISM=HMDB
NAME=HMDB:HMDB00731-1030 Cysteine-S-sulfate M+H
PI=HMDB
DATACOLLECTOR=HMDB
SMILES=N[C@@H](CSS(O)(=O)=O)C(O)=O
INCHI=InChI=1S/C3H7NO5S2/c4-2(3(5)6)1-10-11(7,8)9/h2H,1,4H2,(H,5,6)(H,7,8,9)/t2-/m0/s1
INCHIAUX=N/A
PUBMED=N/A
SUBMITUSER=mwang87
TAGS=
LIBRARYQUALITY=3
SPECTRUMID=CCMSLIB00000425331
SCANS=303
48.0 3.39 
END IONS

BEGIN IONS
PEPMASS=186.017
CHARGE=1+
MSLEVEL=2
SOURCE_INSTRUMENT=Positive-Quattro_QQQ:25eV
FILENAME=hmdb_intermediate.mgf
SEQ=*..*
IONMODE=Positive
ORGANISM=HMDB
NAME=HMDB:HMDB00272-476 Phosphoserine M+H
PI=HMDB
DATACOLLECTOR=HMDB
SMILES=N[C@@H](COP(O)(O)=O)C(O)=O
INCHI=InChI=1S/C3H8NO6P/c4-2(3(5)6)1-10-11(7,8)9/h2H,1,4H2,(H,5,6)(H2,7,8,9)/t2-/m0/s1
INCHIAUX=N/A
PUBMED=N/A
SUBMITUSER=mwang87
TAGS=
LIBRARYQUALITY=3
SPECTRUMID=CCMSLIB00000425332
SCANS=304
42.662 46.875 
END IONS

BEGIN IONS
PEPMASS=103.04
CHARGE=1+
MSLEVEL=2
SOURCE_INSTRUMENT=Negative-Quattro_QQQ:40eV
FILENAME=hmdb_intermediate.mgf
SEQ=*..*
IONMODE=Negative
ORGANISM=HMDB
NAME=HMDB:HMDB00023-44 (S)-3-Hydroxyisobutyric acid M-H
PI=HMDB
DATACOLLECTOR=HMDB
SMILES=C[C@@H](CO)C(O)=O
INCHI=InChI=1S/C4H8O3/c1-3(2-5)4(6)7/h3,5H,2H2,1H3,(H,6,7)/t3-/m0/s1
INCHIAUX=N/A
PUBMED=N/A
SUBMITUSER=mwang87
TAGS=
LIBRARYQUALITY=3
SPECTRUMID=CCMSLIB00000425337
SCANS=309
41.609 52.941 
43.728 9.244 
45.442 100.0 
END IONS

BEGIN IONS
PEPMASS=147.126
CHARGE=1+
MSLEVEL=2
SOURCE_INSTRUMENT=Positive-Quattro_QQQ:25eV
FILENAME=hmdb_intermediate.mgf
SEQ=*..*
IONMODE=Positive
ORGANISM=HMDB
NAME=HMDB:HMDB00895-1263 Acetylcholine  M+H
PI=HMDB
DATACOLLECTOR=HMDB
SMILES=CC(=O)OCC[N+](C)(C)C
INCHI=InChI=1S/C7H16NO2/c1-7(9)10-6-5-8(2,3)4/h5-6H2,1-4H3/q+1
INCHIAUX=N/A
PUBMED=N/A
SUBMITUSER=mwang87
TAGS=
LIBRARYQUALITY=3
SPECTRUMID=CCMSLIB00000425343
SCANS=315
43.0 63.227 
44.0 20.617 
END IONS

BEGIN IONS
PEPMASS=132.102
CHARGE=1+
MSLEVEL=2
SOURCE_INSTRUMENT=Positive-Quattro_QQQ:40eV
FILENAME=hmdb_intermediate.mgf
SEQ=*..*
IONMODE=Positive
ORGANISM=HMDB
NAME=HMDB:HMDB00687-953 L-Leucine M+H
PI=HMDB
DATACOLLECTOR=HMDB
SMILES=CC(C)C[C@H](N)C(O)=O
INCHI=InChI=1S/C6H13NO2/c1-4(2)3-5(7)6(8)9/h4-5H,3,7H2,1-2H3,(H,8,9)/t5-/m0/s1
INCHIAUX=N/A
PUBMED=N/A
SUBMITUSER=mwang87
TAGS=
LIBRARYQUALITY=3
SPECTRUMID=CCMSLIB00000425346
SCANS=318
41.328 62.813 
43.318 100.0 
44.426 52.813 
END IONS

BEGIN IONS
PEPMASS=72.9926
CHARGE=1+
MSLEVEL=2
SOURCE_INSTRUMENT=Negative-Quattro_QQQ:25eV
FILENAME=hmdb_intermediate.mgf
SEQ=*..*
IONMODE=Negative
ORGANISM=HMDB
NAME=HMDB:HMDB00119-172 Glyoxylic acid M-H
PI=HMDB
DATACOLLECTOR=HMDB
SMILES=OC(=O)C=O
INCHI=InChI=1S/C2H2O3/c3-1-2(4)5/h1H,(H,4,5)
INCHIAUX=N/A
PUBMED=N/A
SUBMITUSER=mwang87
TAGS=
LIBRARYQUALITY=3
SPECTRUMID=CCMSLIB00000425350
SCANS=322
32.433 12.591 
45.119 13.869 
END IONS

BEGIN IONS
PEPMASS=171.029
CHARGE=1+
MSLEVEL=2
SOURCE_INSTRUMENT=Positive-Quattro_QQQ:25eV
FILENAME=hmdb_intermediate.mgf
SEQ=*..*
IONMODE=Positive
ORGANISM=HMDB
NAME=HMDB:HMDB05807-2455 Gallic acid M+H
PI=HMDB
DATACOLLECTOR=HMDB
SMILES=OC(=O)C1=CC(O)=C(O)C(O)=C1
INCHI=InChI=1S/C7H6O5/c8-4-1-3(7(11)12)2-5(9)6(4)10/h1-2,8-10H,(H,11,12)
INCHIAUX=N/A
PUBMED=N/A
SUBMITUSER=mwang87
TAGS=
LIBRARYQUALITY=3
SPECTRUMID=CCMSLIB00000425352
SCANS=324
51.0 6.078 
53.0 22.776 
END IONS

BEGIN IONS
PEPMASS=147.113
CHARGE=1+
MSLEVEL=2
SOURCE_INSTRUMENT=Positive-Quattro_QQQ:40eV
FILENAME=hmdb_intermediate.mgf
SEQ=*..*
IONMODE=Positive
ORGANISM=HMDB
NAME=HMDB:HMDB00182-291 L-Lysine M+H
PI=HMDB
DATACOLLECTOR=HMDB
SMILES=NCCCC[C@H](N)C(O)=O
INCHI=InChI=1S/C6H14N2O2/c7-4-2-1-3-5(8)6(9)10/h5H,1-4,7-8H2,(H,9,10)/t5-/m0/s1
INCHIAUX=N/A
PUBMED=N/A
SUBMITUSER=mwang87
TAGS=
LIBRARYQUALITY=3
SPECTRUMID=CCMSLIB00000425361
SCANS=333
41.363 21.579 
42.456 5.724 
43.416 4.539 
END IONS

BEGIN IONS
PEPMASS=431.389
CHARGE=1+
MSLEVEL=2
SOURCE_INSTRUMENT=Positive-Quattro_QQQ:40eV
FILENAME=hmdb_intermediate.mgf
SEQ=*..*
IONMODE=Positive
ORGANISM=HMDB
NAME=HMDB:HMDB01893-1806 Alpha-Tocopherol M+H
PI=HMDB
DATACOLLECTOR=HMDB
SMILES=CC(C)CCC[C@@H](C)CCC[C@@H](C)CCC[C@]1(C)CCC2=C(O1)C(C)=C(C)C(O)=C2C
INCHI=InChI=1S/C29H50O2/c1-20(2)12-9-13-21(3)14-10-15-22(4)16-11-18-29(8)19-17-26-25(7)27(30)23(5)24(6)28(26)31-29/h20-22,30H,9-19H2,1-8H3/t21-,22-,29-/m1/s1
INCHIAUX=N/A
PUBMED=N/A
SUBMITUSER=mwang87
TAGS=
LIBRARYQUALITY=3
SPECTRUMID=CCMSLIB00000425367
SCANS=339
53.124 68.085 
END IONS

BEGIN IONS
PEPMASS=179.056
CHARGE=1+
MSLEVEL=2
SOURCE_INSTRUMENT=Negative-Quattro_QQQ:25eV
FILENAME=hmdb_intermediate.mgf
SEQ=*..*
IONMODE=Negative
ORGANISM=HMDB
NAME=HMDB:HMDB01151-1437 Allose M-H
PI=HMDB
DATACOLLECTOR=HMDB
SMILES=[H][C@@]1(CO)OC(O)[C@@]([H])(O)[C@@]([H])(O)[C@@]1([H])O
INCHI=InChI=1S/C6H12O6/c7-1-2-3(8)4(9)5(10)6(11)12-2/h2-11H,1H2/t2-,3-,4-,5-,6?/m0/s1
INCHIAUX=N/A
PUBMED=N/A
SUBMITUSER=mwang87
TAGS=
LIBRARYQUALITY=3
SPECTRUMID=CCMSLIB00000425368
SCANS=340
43.0 5.613 
END IONS

BEGIN IONS
PEPMASS=313.238
CHARGE=1+
MSLEVEL=2
SOURCE_INSTRUMENT=Negative-Quattro_QQQ:40eV
FILENAME=hmdb_intermediate.mgf
SEQ=*..*
IONMODE=Negative
ORGANISM=HMDB
NAME=HMDB:HMDB00782-1115 Octadecanedioic acid M-H
PI=HMDB
DATACOLLECTOR=HMDB
SMILES=OC(=O)CCCCCCCCCCCCCCCCC(O)=O
INCHI=InChI=1S/C18H34O4/c19-17(20)15-13-11-9-7-5-3-1-2-4-6-8-10-12-14-16-18(21)22/h1-16H2,(H,19,20)(H,21,22)
INCHIAUX=N/A
PUBMED=N/A
SUBMITUSER=mwang87
TAGS=
LIBRARYQUALITY=3
SPECTRUMID=CCMSLIB00000425372
SCANS=344
53.0 3.577 
END IONS

BEGIN IONS
PEPMASS=86.0606
CHARGE=1+
MSLEVEL=2
SOURCE_INSTRUMENT=Positive-Quattro_QQQ:25eV
FILENAME=hmdb_intermediate.mgf
SEQ=*..*
IONMODE=Positive
ORGANISM=HMDB
NAME=HMDB:HMDB02039-1960 2-Pyrrolidinone M+H
PI=HMDB
DATACOLLECTOR=HMDB
SMILES=O=C1CCCN1
INCHI=InChI=1S/C4H7NO/c6-4-2-1-3-5-4/h1-3H2,(H,5,6)
INCHIAUX=N/A
PUBMED=N/A
SUBMITUSER=mwang87
TAGS=
LIBRARYQUALITY=3
SPECTRUMID=CCMSLIB00000425373
SCANS=345
41.0 19.153 
44.0 100.0 
END IONS

BEGIN IONS
PEPMASS=112.051
CHARGE=1+
MSLEVEL=2
SOURCE_INSTRUMENT=Positive-Quattro_QQQ:25eV
FILENAME=hmdb_intermediate.mgf
SEQ=*..*
IONMODE=Positive
ORGANISM=HMDB
NAME=HMDB:HMDB00630-859 Cytosine M+H
PI=HMDB
DATACOLLECTOR=HMDB
SMILES=NC1=CC=NC(=O)N1
INCHI=InChI=1S/C4H5N3O/c5-3-1-2-6-4(8)7-3/h1-2H,(H3,5,6,7,8)
INCHIAUX=N/A
PUBMED=N/A
SUBMITUSER=mwang87
TAGS=
LIBRARYQUALITY=3
SPECTRUMID=CCMSLIB00000425375
SCANS=347
40.33 10.657 
42.335 12.179 
52.207 20.353 
END IONS

BEGIN IONS
PEPMASS=155.034
CHARGE=1+
MSLEVEL=2
SOURCE_INSTRUMENT=Positive-Quattro_QQQ:40eV
FILENAME=hmdb_intermediate.mgf
SEQ=*..*
IONMODE=Positive
ORGANISM=HMDB
NAME=HMDB:HMDB01856-1725 Protocatechuic acid M+H
PI=HMDB
DATACOLLECTOR=HMDB
SMILES=OC(=O)C1=CC(O)=C(O)C=C1
INCHI=InChI=1S/C7H6O4/c8-5-2-1-4(7(10)11)3-6(5)9/h1-3,8-9H,(H,10,11)
INCHIAUX=N/A
PUBMED=N/A
SUBMITUSER=mwang87
TAGS=
LIBRARYQUALITY=3
SPECTRUMID=CCMSLIB00000425381
SCANS=353
52.919 17.483 
END IONS

BEGIN IONS
PEPMASS=271.17
CHARGE=1+
MSLEVEL=2
SOURCE_INSTRUMENT=Positive-Quattro_QQQ:40eV
FILENAME=hmdb_intermediate.mgf
SEQ=*..*
IONMODE=Positive
ORGANISM=HMDB
NAME=HMDB:HMDB00145-220 Estrone M+H
PI=HMDB
DATACOLLECTOR=HMDB
SMILES=[H][C@@]12CCC(=O)[C@@]1(C)CC[C@]1([H])C3=C(CC[C@@]21[H])C=C(O)C=C3
INCHI=InChI=1S/C18H22O2/c1-18-9-8-14-13-5-3-12(19)10-11(13)2-4-15(14)16(18)6-7-17(18)20/h3,5,10,14-16,19H,2,4,6-9H2,1H3/t14-,15-,16+,18+/m1/s1
INCHIAUX=N/A
PUBMED=N/A
SUBMITUSER=mwang87
TAGS=
LIBRARYQUALITY=3
SPECTRUMID=CCMSLIB00000425388
SCANS=360
41.0 49.135 
43.0 43.731 
END IONS

BEGIN IONS
PEPMASS=112.087
CHARGE=1+
MSLEVEL=2
SOURCE_INSTRUMENT=Positive-Quattro_QQQ:40eV
FILENAME=hmdb_intermediate.mgf
SEQ=*..*
IONMODE=Positive
ORGANISM=HMDB
NAME=HMDB:HMDB00870-1225 Histamine M+H
PI=HMDB
DATACOLLECTOR=HMDB
SMILES=NCCC1=CNC=N1
INCHI=InChI=1S/C5H9N3/c6-2-1-5-3-7-4-8-5/h3-4H,1-2,6H2,(H,7,8)
INCHIAUX=N/A
PUBMED=N/A
SUBMITUSER=mwang87
TAGS=
LIBRARYQUALITY=3
SPECTRUMID=CCMSLIB00000425390
SCANS=362
41.316 100.0 
42.456 10.938 
END IONS

BEGIN IONS
PEPMASS=59.0497
CHARGE=1+
MSLEVEL=2
SOURCE_INSTRUMENT=Positive-Quattro_QQQ:10eV
FILENAME=hmdb_intermediate.mgf
SEQ=*..*
IONMODE=Positive
ORGANISM=HMDB
NAME=HMDB:HMDB03366-2271 Propanal M+H
PI=HMDB
DATACOLLECTOR=HMDB
SMILES=CCC=O
INCHI=InChI=1S/C3H6O/c1-2-3-4/h3H,2H2,1H3
INCHIAUX=N/A
PUBMED=N/A
SUBMITUSER=mwang87
TAGS=
LIBRARYQUALITY=3
SPECTRUMID=CCMSLIB00000425392
SCANS=364
30.0 8.563 
31.0 33.557 
41.0 12.021 
42.0 8.492 
END IONS

BEGIN IONS
PEPMASS=168.03
CHARGE=1+
MSLEVEL=2
SOURCE_INSTRUMENT=Positive-Quattro_QQQ:40eV
FILENAME=hmdb_intermediate.mgf
SEQ=*..*
IONMODE=Positive
ORGANISM=HMDB
NAME=HMDB:HMDB00232-390 Quinolinic acid M+H
PI=HMDB
DATACOLLECTOR=HMDB
SMILES=OC(=O)C1=CC=CN=C1C(O)=O
INCHI=InChI=1S/C7H5NO4/c9-6(10)4-2-1-3-8-5(4)7(11)12/h1-3H,(H,9,10)(H,11,12)
INCHIAUX=N/A
PUBMED=N/A
SUBMITUSER=mwang87
TAGS=
LIBRARYQUALITY=3
SPECTRUMID=CCMSLIB00000425393
SCANS=365
51.232 3.554 
52.208 11.397 
53.403 6.618 
END IONS

BEGIN IONS
PEPMASS=146.082
CHARGE=1+
MSLEVEL=2
SOURCE_INSTRUMENT=Positive-Quattro_QQQ:10eV
FILENAME=hmdb_intermediate.mgf
SEQ=*..*
IONMODE=Positive
ORGANISM=HMDB
NAME=HMDB:HMDB00808-1155 N-Butyrylglycine M+H
PI=HMDB
DATACOLLECTOR=HMDB
SMILES=CCCC(=O)NCC(O)=O
INCHI=InChI=1S/C6H11NO3/c1-2-3-5(8)7-4-6(9)10/h2-4H2,1H3,(H,7,8)(H,9,10)
INCHIAUX=N/A
PUBMED=N/A
SUBMITUSER=mwang87
TAGS=
LIBRARYQUALITY=3
SPECTRUMID=CCMSLIB00000425395
SCANS=367
43.655 9.016 
END IONS

BEGIN IONS
PEPMASS=196.061
CHARGE=1+
MSLEVEL=2
SOURCE_INSTRUMENT=Positive-Quattro_QQQ:40eV
FILENAME=hmdb_intermediate.mgf
SEQ=*..*
IONMODE=Positive
ORGANISM=HMDB
NAME=HMDB:HMDB02404-2103 Alpha-Hydroxyhippuric acid M+H
PI=HMDB
DATACOLLECTOR=HMDB
SMILES=OC(NC(=O)C1=CC=CC=C1)C(O)=O
INCHI=InChI=1S/C9H9NO4/c11-7(10-8(12)9(13)14)6-4-2-1-3-5-6/h1-5,8,12H,(H,10,11)(H,13,14)
INCHIAUX=N/A
PUBMED=N/A
SUBMITUSER=mwang87
TAGS=
LIBRARYQUALITY=3
SPECTRUMID=CCMSLIB00000425397
SCANS=369
51.0 5.365 
END IONS

BEGIN IONS
PEPMASS=75.0082
CHARGE=1+
MSLEVEL=2
SOURCE_INSTRUMENT=Negative-Quattro_QQQ:10eV
FILENAME=hmdb_intermediate.mgf
SEQ=*..*
IONMODE=Negative
ORGANISM=HMDB
NAME=HMDB:HMDB00115-165 Glycolic acid M-H
PI=HMDB
DATACOLLECTOR=HMDB
SMILES=OCC(O)=O
INCHI=InChI=1S/C2H4O3/c3-1-2(4)5/h3H,1H2,(H,4,5)
INCHIAUX=N/A
PUBMED=N/A
SUBMITUSER=mwang87
TAGS=
LIBRARYQUALITY=3
SPECTRUMID=CCMSLIB00000425398
SCANS=370
45.322 16.193 
47.318 13.565 
END IONS

BEGIN IONS
PEPMASS=100.022
CHARGE=1+
MSLEVEL=2
SOURCE_INSTRUMENT=Positive-Quattro_QQQ:10eV
FILENAME=hmdb_intermediate.mgf
SEQ=*..*
IONMODE=Positive
ORGANISM=HMDB
NAME=HMDB:HMDB05843-2460 Allyl isothiocyanate M+H
PI=HMDB
DATACOLLECTOR=HMDB
SMILES=C=CCN=C=S
INCHI=InChI=1S/C4H5NS/c1-2-3-5-4-6/h2H,1,3H2
INCHIAUX=N/A
PUBMED=N/A
SUBMITUSER=mwang87
TAGS=
LIBRARYQUALITY=3
SPECTRUMID=CCMSLIB00000425400
SCANS=372
41.24 89.408 
41.6 13.365 
END IONS

BEGIN IONS
PEPMASS=170.022
CHARGE=1+
MSLEVEL=2
SOURCE_INSTRUMENT=Positive-Quattro_QQQ:40eV
FILENAME=hmdb_intermediate.mgf
SEQ=*..*
IONMODE=Positive
ORGANISM=HMDB
NAME=HMDB:HMDB00370-587 2-Amino-3-phosphonopropionic acid M+H
PI=HMDB
DATACOLLECTOR=HMDB
SMILES=NC(CP(O)(O)=O)C(O)=O
INCHI=InChI=1S/C3H8NO5P/c4-2(3(5)6)1-10(7,8)9/h2H,1,4H2,(H,5,6)(H2,7,8,9)
INCHIAUX=N/A
PUBMED=N/A
SUBMITUSER=mwang87
TAGS=
LIBRARYQUALITY=3
SPECTRUMID=CCMSLIB00000425404
SCANS=376
42.0 5.367 
43.0 16.613 
44.0 8.127 
47.0 3.934 
END IONS

BEGIN IONS
PEPMASS=135.029
CHARGE=1+
MSLEVEL=2
SOURCE_INSTRUMENT=Positive-Quattro_QQQ:10eV
FILENAME=hmdb_intermediate.mgf
SEQ=*..*
IONMODE=Positive
ORGANISM=HMDB
NAME=HMDB:HMDB00156-239 L-Malic acid M+H
PI=HMDB
DATACOLLECTOR=HMDB
SMILES=O[C@@H](CC(O)=O)C(O)=O
INCHI=InChI=1S/C4H6O5/c5-2(4(8)9)1-3(6)7/h2,5H,1H2,(H,6,7)(H,8,9)/t2-/m0/s1
INCHIAUX=N/A
PUBMED=N/A
SUBMITUSER=mwang87
TAGS=
LIBRARYQUALITY=3
SPECTRUMID=CCMSLIB00000425405
SCANS=377
43.0 9.358 
END IONS

BEGIN IONS
PEPMASS=255.232
CHARGE=1+
MSLEVEL=2
SOURCE_INSTRUMENT=Negative-Quattro_QQQ:40eV
FILENAME=hmdb_intermediate.mgf
SEQ=*..*
IONMODE=Negative
ORGANISM=HMDB
NAME=HMDB:HMDB60083-360 Palmitic acid M-H
PI=HMDB
DATACOLLECTOR=HMDB
SMILES=CCCCCCCCCCCCCCCC(O)=O
INCHI=InChI=1S/C16H32O2/c1-2-3-4-5-6-7-8-9-10-11-12-13-14-15-16(17)18/h2-15H2,1H3,(H,17,18)
INCHIAUX=N/A
PUBMED=N/A
SUBMITUSER=mwang87
TAGS=
LIBRARYQUALITY=3
SPECTRUMID=CCMSLIB00000425406
SCANS=378
45.359 77.931 
END IONS

BEGIN IONS
PEPMASS=132.066
CHARGE=1+
MSLEVEL=2
SOURCE_INSTRUMENT=Positive-Quattro_QQQ:25eV
FILENAME=hmdb_intermediate.mgf
SEQ=*..*
IONMODE=Positive
ORGANISM=HMDB
NAME=HMDB:HMDB00766-1105 N-Acetyl-L-alanine M+H
PI=HMDB
DATACOLLECTOR=HMDB
SMILES=C[C@H](NC(C)=O)C(O)=O
INCHI=InChI=1S/C5H9NO3/c1-3(5(8)9)6-4(2)7/h3H,1-2H3,(H,6,7)(H,8,9)/t3-/m0/s1
INCHIAUX=N/A
PUBMED=N/A
SUBMITUSER=mwang87
TAGS=
LIBRARYQUALITY=3
SPECTRUMID=CCMSLIB00000425407
SCANS=379
43.242 57.927 
44.327 100.0 
END IONS

BEGIN IONS
PEPMASS=61.0653
CHARGE=1+
MSLEVEL=2
SOURCE_INSTRUMENT=Positive-Quattro_QQQ:25eV
FILENAME=hmdb_intermediate.mgf
SEQ=*..*
IONMODE=Positive
ORGANISM=HMDB
NAME=HMDB:HMDB00863-1218 Isopropyl alcohol M+H
PI=HMDB
DATACOLLECTOR=HMDB
SMILES=CC(C)O
INCHI=InChI=1S/C3H8O/c1-3(2)4/h3-4H,1-2H3
INCHIAUX=N/A
PUBMED=N/A
SUBMITUSER=mwang87
TAGS=
LIBRARYQUALITY=3
SPECTRUMID=CCMSLIB00000425409
SCANS=381
15.0 35.287 
42.0 68.177 
43.0 53.251 
45.0 36.209 
END IONS

BEGIN IONS
PEPMASS=72.9926
CHARGE=1+
MSLEVEL=2
SOURCE_INSTRUMENT=Negative-Quattro_QQQ:10eV
FILENAME=hmdb_intermediate.mgf
SEQ=*..*
IONMODE=Negative
ORGANISM=HMDB
NAME=HMDB:HMDB00119-171 Glyoxylic acid M-H
PI=HMDB
DATACOLLECTOR=HMDB
SMILES=OC(=O)C=O
INCHI=InChI=1S/C2H2O3/c3-1-2(4)5/h1H,(H,4,5)
INCHIAUX=N/A
PUBMED=N/A
SUBMITUSER=mwang87
TAGS=
LIBRARYQUALITY=3
SPECTRUMID=CCMSLIB00000425415
SCANS=387
45.307 30.254 
END IONS

BEGIN IONS
PEPMASS=106.05
CHARGE=1+
MSLEVEL=2
SOURCE_INSTRUMENT=Positive-Quattro_QQQ:40eV
FILENAME=hmdb_intermediate.mgf
SEQ=*..*
IONMODE=Positive
ORGANISM=HMDB
NAME=HMDB:HMDB03406-2285 D-Serine M+H
PI=HMDB
DATACOLLECTOR=HMDB
SMILES=N[C@H](CO)C(O)=O
INCHI=InChI=1S/C3H7NO3/c4-2(1-5)3(6)7/h2,5H,1,4H2,(H,6,7)/t2-/m1/s1
INCHIAUX=N/A
PUBMED=N/A
SUBMITUSER=mwang87
TAGS=
LIBRARYQUALITY=3
SPECTRUMID=CCMSLIB00000425418
SCANS=390
31.27 14.445 
42.18 100.0 
43.29 33.256 
43.51 7.802 
45.25 10.111 
END IONS

BEGIN IONS
PEPMASS=133.061
CHARGE=1+
MSLEVEL=2
SOURCE_INSTRUMENT=Positive-Quattro_QQQ:40eV
FILENAME=hmdb_intermediate.mgf
SEQ=*..*
IONMODE=Positive
ORGANISM=HMDB
NAME=HMDB:HMDB00168-268 L-Asparagine M+H
PI=HMDB
DATACOLLECTOR=HMDB
SMILES=N[C@@H](CC(N)=O)C(O)=O
INCHI=InChI=1S/C4H8N2O3/c5-2(4(8)9)1-3(6)7/h2H,1,5H2,(H2,6,7)(H,8,9)/t2-/m0/s1
INCHIAUX=N/A
PUBMED=N/A
SUBMITUSER=mwang87
TAGS=
LIBRARYQUALITY=3
SPECTRUMID=CCMSLIB00000425425
SCANS=397
43.162 41.597 
44.348 41.387 
46.167 30.462 
END IONS

BEGIN IONS
PEPMASS=106.05
CHARGE=1+
MSLEVEL=2
SOURCE_INSTRUMENT=Positive-Quattro_QQQ:25eV
FILENAME=hmdb_intermediate.mgf
SEQ=*..*
IONMODE=Positive
ORGANISM=HMDB
NAME=HMDB:HMDB03406-2284 D-Serine M+H
PI=HMDB
DATACOLLECTOR=HMDB
SMILES=N[C@H](CO)C(O)=O
INCHI=InChI=1S/C3H7NO3/c4-2(1-5)3(6)7/h2,5H,1,4H2,(H,6,7)/t2-/m1/s1
INCHIAUX=N/A
PUBMED=N/A
SUBMITUSER=mwang87
TAGS=
LIBRARYQUALITY=3
SPECTRUMID=CCMSLIB00000425426
SCANS=398
42.18 35.677 
END IONS

BEGIN IONS
PEPMASS=80.9646
CHARGE=1+
MSLEVEL=2
SOURCE_INSTRUMENT=Positive-Quattro_QQQ:10eV
FILENAME=hmdb_intermediate.mgf
SEQ=*..*
IONMODE=Positive
ORGANISM=HMDB
NAME=HMDB:HMDB00240-406 Sulfite M+H
PI=HMDB
DATACOLLECTOR=HMDB
SMILES=[O-]S([O-])=O
INCHI=InChI=1S/H2O3S/c1-4(2)3/h(H2,1,2,3)/p-2
INCHIAUX=N/A
PUBMED=N/A
SUBMITUSER=mwang87
TAGS=
LIBRARYQUALITY=3
SPECTRUMID=CCMSLIB00000425430
SCANS=402
53.282 12.247 
END IONS

BEGIN IONS
PEPMASS=222.098
CHARGE=1+
MSLEVEL=2
SOURCE_INSTRUMENT=Positive-Quattro_QQQ:40eV
FILENAME=hmdb_intermediate.mgf
SEQ=*..*
IONMODE=Positive
ORGANISM=HMDB
NAME=HMDB:HMDB00803-1146 Beta-N-Acetylglucosamine M+H
PI=HMDB
DATACOLLECTOR=HMDB
SMILES=CC(=O)N[C@H]1[C@H](O)O[C@H](CO)[C@@H](O)[C@@H]1O
INCHI=InChI=1S/C8H15NO6/c1-3(11)9-5-7(13)6(12)4(2-10)15-8(5)14/h4-8,10,12-14H,2H2,1H3,(H,9,11)/t4-,5-,6-,7-,8-/m1/s1
INCHIAUX=N/A
PUBMED=N/A
SUBMITUSER=mwang87
TAGS=
LIBRARYQUALITY=3
SPECTRUMID=CCMSLIB00000425431
SCANS=403
41.381 19.614 
43.302 44.309 
53.271 23.171 
END IONS

BEGIN IONS
PEPMASS=160.097
CHARGE=1+
MSLEVEL=2
SOURCE_INSTRUMENT=Positive-Quattro_QQQ:40eV
FILENAME=hmdb_intermediate.mgf
SEQ=*..*
IONMODE=Positive
ORGANISM=HMDB
NAME=HMDB:HMDB00927-1320 Valerylglycine M+H
PI=HMDB
DATACOLLECTOR=HMDB
SMILES=CCCCC(=O)NCC(O)=O
INCHI=InChI=1S/C7H13NO3/c1-2-3-4-6(9)8-5-7(10)11/h2-5H2,1H3,(H,8,9)(H,10,11)
INCHIAUX=N/A
PUBMED=N/A
SUBMITUSER=mwang87
TAGS=
LIBRARYQUALITY=3
SPECTRUMID=CCMSLIB00000425433
SCANS=405
41.667 100.0 
END IONS

BEGIN IONS
PEPMASS=215.165
CHARGE=1+
MSLEVEL=2
SOURCE_INSTRUMENT=Negative-Quattro_QQQ:40eV
FILENAME=hmdb_intermediate.mgf
SEQ=*..*
IONMODE=Negative
ORGANISM=HMDB
NAME=HMDB:HMDB00387-596 3-Hydroxydodecanoic acid M-H
PI=HMDB
DATACOLLECTOR=HMDB
SMILES=CCCCCCCCCC(O)CC(O)=O
INCHI=InChI=1S/C12H24O3/c1-2-3-4-5-6-7-8-9-11(13)10-12(14)15/h11,13H,2-10H2,1H3,(H,14,15)
INCHIAUX=N/A
PUBMED=N/A
SUBMITUSER=mwang87
TAGS=
LIBRARYQUALITY=3
SPECTRUMID=CCMSLIB00000425435
SCANS=407
41.617 37.594 
END IONS

BEGIN IONS
PEPMASS=170.093
CHARGE=1+
MSLEVEL=2
SOURCE_INSTRUMENT=Positive-Quattro_QQQ:40eV
FILENAME=hmdb_intermediate.mgf
SEQ=*..*
IONMODE=Positive
ORGANISM=HMDB
NAME=HMDB:HMDB00479-697 3-Methylhistidine M+H
PI=HMDB
DATACOLLECTOR=HMDB
SMILES=CN1C=NC=C1C[C@H](N)C(O)=O
INCHI=InChI=1S/C7H11N3O2/c1-10-4-9-3-5(10)2-6(8)7(11)12/h3-4,6H,2,8H2,1H3,(H,11,12)/t6-/m0/s1
INCHIAUX=N/A
PUBMED=N/A
SUBMITUSER=mwang87
TAGS=
LIBRARYQUALITY=3
SPECTRUMID=CCMSLIB00000425436
SCANS=408
42.098 19.271 
END IONS

BEGIN IONS
PEPMASS=89.0239
CHARGE=1+
MSLEVEL=2
SOURCE_INSTRUMENT=Negative-Quattro_QQQ:40eV
FILENAME=hmdb_intermediate.mgf
SEQ=*..*
IONMODE=Negative
ORGANISM=HMDB
NAME=HMDB:HMDB00190-303 L-Lactic acid M-H
PI=HMDB
DATACOLLECTOR=HMDB
SMILES=C[C@H](O)C(O)=O
INCHI=InChI=1S/C3H6O3/c1-2(4)3(5)6/h2,4H,1H3,(H,5,6)/t2-/m0/s1
INCHIAUX=N/A
PUBMED=N/A
SUBMITUSER=mwang87
TAGS=
LIBRARYQUALITY=3
SPECTRUMID=CCMSLIB00000425437
SCANS=409
41.655 10.96 
43.564 50.725 
45.48 54.71 
END IONS

BEGIN IONS
PEPMASS=90.0555
CHARGE=1+
MSLEVEL=2
SOURCE_INSTRUMENT=Positive-Quattro_QQQ:40eV
FILENAME=hmdb_intermediate.mgf
SEQ=*..*
IONMODE=Positive
ORGANISM=HMDB
NAME=HMDB:HMDB00056-92 Beta-Alanine M+H
PI=HMDB
DATACOLLECTOR=HMDB
SMILES=NCCC(O)=O
INCHI=InChI=1S/C3H7NO2/c4-2-1-3(5)6/h1-2,4H2,(H,5,6)
INCHIAUX=N/A
PUBMED=N/A
SUBMITUSER=mwang87
TAGS=
LIBRARYQUALITY=3
SPECTRUMID=CCMSLIB00000425440
SCANS=412
43.207 8.09 
45.143 100.0 
END IONS

BEGIN IONS
PEPMASS=103.04
CHARGE=1+
MSLEVEL=2
SOURCE_INSTRUMENT=Negative-Quattro_QQQ:10eV
FILENAME=hmdb_intermediate.mgf
SEQ=*..*
IONMODE=Negative
ORGANISM=HMDB
NAME=HMDB:HMDB00008-10 2-Hydroxybutyric acid M-H
PI=HMDB
DATACOLLECTOR=HMDB
SMILES=CCC(O)C(O)=O
INCHI=InChI=1S/C4H8O3/c1-2-3(5)4(6)7/h3,5H,2H2,1H3,(H,6,7)
INCHIAUX=N/A
PUBMED=N/A
SUBMITUSER=mwang87
TAGS=
LIBRARYQUALITY=3
SPECTRUMID=CCMSLIB00000425441
SCANS=413
45.59 36.923 
END IONS

BEGIN IONS
PEPMASS=147.126
CHARGE=1+
MSLEVEL=2
SOURCE_INSTRUMENT=Positive-Quattro_QQQ:40eV
FILENAME=hmdb_intermediate.mgf
SEQ=*..*
IONMODE=Positive
ORGANISM=HMDB
NAME=HMDB:HMDB00895-1264 Acetylcholine  M+H
PI=HMDB
DATACOLLECTOR=HMDB
SMILES=CC(=O)OCC[N+](C)(C)C
INCHI=InChI=1S/C7H16NO2/c1-7(9)10-6-5-8(2,3)4/h5-6H2,1-4H3/q+1
INCHIAUX=N/A
PUBMED=N/A
SUBMITUSER=mwang87
TAGS=
LIBRARYQUALITY=3
SPECTRUMID=CCMSLIB00000425442
SCANS=414
43.0 100.0 
44.0 36.715 
END IONS

BEGIN IONS
PEPMASS=113.035
CHARGE=1+
MSLEVEL=2
SOURCE_INSTRUMENT=Positive-Quattro_QQQ:25eV
FILENAME=hmdb_intermediate.mgf
SEQ=*..*
IONMODE=Positive
ORGANISM=HMDB
NAME=HMDB:HMDB00300-511 Uracil M+H
PI=HMDB
DATACOLLECTOR=HMDB
SMILES=O=C1NC=CC(=O)N1
INCHI=InChI=1S/C4H4N2O2/c7-3-1-2-5-4(8)6-3/h1-2H,(H2,5,6,7,8)
INCHIAUX=N/A
PUBMED=N/A
SUBMITUSER=mwang87
TAGS=
LIBRARYQUALITY=3
SPECTRUMID=CCMSLIB00000425443
SCANS=415
40.322 47.531 
42.343 31.481 
43.389 25.617 
44.38 7.407 
53.081 11.574 
END IONS

BEGIN IONS
PEPMASS=91.0031
CHARGE=1+
MSLEVEL=2
SOURCE_INSTRUMENT=Positive-Quattro_QQQ:25eV
FILENAME=hmdb_intermediate.mgf
SEQ=*..*
IONMODE=Positive
ORGANISM=HMDB
NAME=HMDB:HMDB02329-2062 Oxalic acid M+H
PI=HMDB
DATACOLLECTOR=HMDB
SMILES=OC(=O)C(O)=O
INCHI=InChI=1S/C2H2O4/c3-1(4)2(5)6/h(H,3,4)(H,5,6)
INCHIAUX=N/A
PUBMED=N/A
SUBMITUSER=mwang87
TAGS=
LIBRARYQUALITY=3
SPECTRUMID=CCMSLIB00000425446
SCANS=418
52.7 69.4444464699 
52.8 69.4444464699 
END IONS

BEGIN IONS
PEPMASS=165.055
CHARGE=1+
MSLEVEL=2
SOURCE_INSTRUMENT=Positive-Quattro_QQQ:40eV
FILENAME=hmdb_intermediate.mgf
SEQ=*..*
IONMODE=Positive
ORGANISM=HMDB
NAME=HMDB:HMDB00205-330 Phenylpyruvic acid M+H
PI=HMDB
DATACOLLECTOR=HMDB
SMILES=OC(=O)C(=O)CC1=CC=CC=C1
INCHI=InChI=1S/C9H8O3/c10-8(9(11)12)6-7-4-2-1-3-5-7/h1-5H,6H2,(H,11,12)
INCHIAUX=N/A
PUBMED=N/A
SUBMITUSER=mwang87
TAGS=
LIBRARYQUALITY=3
SPECTRUMID=CCMSLIB00000425447
SCANS=419
51.0 22.122 
END IONS

BEGIN IONS
PEPMASS=159.041
CHARGE=1+
MSLEVEL=2
SOURCE_INSTRUMENT=Positive-Quattro_QQQ:40eV
FILENAME=hmdb_intermediate.mgf
SEQ=*..*
IONMODE=Positive
ORGANISM=HMDB
NAME=HMDB:HMDB00528-748 4,5-Dihydroorotic acid M+H
PI=HMDB
DATACOLLECTOR=HMDB
SMILES=OC(=O)C1CC(=O)NC(=O)N1
INCHI=InChI=1S/C5H6N2O4/c8-3-1-2(4(9)10)6-5(11)7-3/h2H,1H2,(H,9,10)(H2,6,7,8,11)
INCHIAUX=N/A
PUBMED=N/A
SUBMITUSER=mwang87
TAGS=
LIBRARYQUALITY=3
SPECTRUMID=CCMSLIB00000425448
SCANS=420
43.263 100.0 
44.402 60.714 
45.386 37.649 
46.385 14.583 
53.185 48.214 
END IONS

BEGIN IONS
PEPMASS=201.113
CHARGE=1+
MSLEVEL=2
SOURCE_INSTRUMENT=Negative-Quattro_QQQ:40eV
FILENAME=hmdb_intermediate.mgf
SEQ=*..*
IONMODE=Negative
ORGANISM=HMDB
NAME=HMDB:HMDB00792-1131 Sebacic acid M-H
PI=HMDB
DATACOLLECTOR=HMDB
SMILES=OC(=O)CCCCCCCCC(O)=O
INCHI=InChI=1S/C10H18O4/c11-9(12)7-5-3-1-2-4-6-8-10(13)14/h1-8H2,(H,11,12)(H,13,14)
INCHIAUX=N/A
PUBMED=N/A
SUBMITUSER=mwang87
TAGS=
LIBRARYQUALITY=3
SPECTRUMID=CCMSLIB00000425450
SCANS=422
41.314 25.617 
43.304 6.366 
45.224 14.043 
END IONS

BEGIN IONS
PEPMASS=99.081
CHARGE=1+
MSLEVEL=2
SOURCE_INSTRUMENT=Positive-Quattro_QQQ:40eV
FILENAME=hmdb_intermediate.mgf
SEQ=*..*
IONMODE=Positive
ORGANISM=HMDB
NAME=HMDB:HMDB03315-2241 Cyclohexanone M+H
PI=HMDB
DATACOLLECTOR=HMDB
SMILES=O=C1CCCCC1
INCHI=InChI=1S/C6H10O/c7-6-4-2-1-3-5-6/h1-5H2
INCHIAUX=N/A
PUBMED=N/A
SUBMITUSER=mwang87
TAGS=
LIBRARYQUALITY=3
SPECTRUMID=CCMSLIB00000425451
SCANS=423
27.3 39.164 
29.3 59.558 
31.23 64.306 
39.17 46.887 
41.14 100.0 
43.1 13.411 
53.08 21.039 
END IONS

BEGIN IONS
PEPMASS=190.072
CHARGE=1+
MSLEVEL=2
SOURCE_INSTRUMENT=Positive-Quattro_QQQ:40eV
FILENAME=hmdb_intermediate.mgf
SEQ=*..*
IONMODE=Positive
ORGANISM=HMDB
NAME=HMDB:HMDB01138-1432 N-Acetylglutamic acid M+H
PI=HMDB
DATACOLLECTOR=HMDB
SMILES=CC(=O)NC(CCC(O)=O)C(O)=O
INCHI=InChI=1S/C7H11NO5/c1-4(9)8-5(7(12)13)2-3-6(10)11/h5H,2-3H2,1H3,(H,8,9)(H,10,11)(H,12,13)
INCHIAUX=N/A
PUBMED=N/A
SUBMITUSER=mwang87
TAGS=
LIBRARYQUALITY=3
SPECTRUMID=CCMSLIB00000425452
SCANS=424
41.479 21.196 
41.73 19.569 
43.366 40.422 
43.617 28.581 
END IONS

BEGIN IONS
PEPMASS=149.081
CHARGE=1+
MSLEVEL=2
SOURCE_INSTRUMENT=Positive-Quattro_QQQ:40eV
FILENAME=hmdb_intermediate.mgf
SEQ=*..*
IONMODE=Positive
ORGANISM=HMDB
NAME=HMDB:HMDB00227-378 Mevalonic acid M+H
PI=HMDB
DATACOLLECTOR=HMDB
SMILES=CC(O)(CCO)CC(O)=O
INCHI=InChI=1S/C6H12O4/c1-6(10,2-3-7)4-5(8)9/h7,10H,2-4H2,1H3,(H,8,9)
INCHIAUX=N/A
PUBMED=N/A
SUBMITUSER=mwang87
TAGS=
LIBRARYQUALITY=3
SPECTRUMID=CCMSLIB00000425455
SCANS=427
53.046 12.013 
END IONS

BEGIN IONS
PEPMASS=130.05
CHARGE=1+
MSLEVEL=2
SOURCE_INSTRUMENT=Positive-Quattro_QQQ:25eV
FILENAME=hmdb_intermediate.mgf
SEQ=*..*
IONMODE=Positive
ORGANISM=HMDB
NAME=HMDB:HMDB00267-464 Pyroglutamic acid M+H
PI=HMDB
DATACOLLECTOR=HMDB
SMILES=OC(=O)[C@@H]1CCC(=O)N1
INCHI=InChI=1S/C5H7NO3/c7-4-2-1-3(6-4)5(8)9/h3H,1-2H2,(H,6,7)(H,8,9)/t3-/m0/s1
INCHIAUX=N/A
PUBMED=N/A
SUBMITUSER=mwang87
TAGS=
LIBRARYQUALITY=3
SPECTRUMID=CCMSLIB00000425456
SCANS=428
41.361 28.012 
END IONS

BEGIN IONS
PEPMASS=189.124
CHARGE=1+
MSLEVEL=2
SOURCE_INSTRUMENT=Positive-Quattro_QQQ:40eV
FILENAME=hmdb_intermediate.mgf
SEQ=*..*
IONMODE=Positive
ORGANISM=HMDB
NAME=HMDB:HMDB00446-652 N-Alpha-acetyllysine M+H
PI=HMDB
DATACOLLECTOR=HMDB
SMILES=CC(=O)NC(CCCCN)C(O)=O
INCHI=InChI=1S/C8H16N2O3/c1-6(11)10-7(8(12)13)4-2-3-5-9/h7H,2-5,9H2,1H3,(H,10,11)(H,12,13)
INCHIAUX=N/A
PUBMED=N/A
SUBMITUSER=mwang87
TAGS=
LIBRARYQUALITY=3
SPECTRUMID=CCMSLIB00000425458
SCANS=430
41.0 4.5 
43.0 19.73 
END IONS

BEGIN IONS
PEPMASS=115.003
CHARGE=1+
MSLEVEL=2
SOURCE_INSTRUMENT=Negative-Quattro_QQQ:40eV
FILENAME=hmdb_intermediate.mgf
SEQ=*..*
IONMODE=Negative
ORGANISM=HMDB
NAME=HMDB:HMDB00176-282 Maleic acid M-H
PI=HMDB
DATACOLLECTOR=HMDB
SMILES=OC(=O)\C=C/C(O)=O
INCHI=InChI=1S/C4H4O4/c5-3(6)1-2-4(7)8/h1-2H,(H,5,6)(H,7,8)/b2-1-
INCHIAUX=N/A
PUBMED=N/A
SUBMITUSER=mwang87
TAGS=
LIBRARYQUALITY=3
SPECTRUMID=CCMSLIB00000425460
SCANS=432
45.268 3.966 
END IONS

BEGIN IONS
PEPMASS=77.0603
CHARGE=1+
MSLEVEL=2
SOURCE_INSTRUMENT=Positive-Quattro_QQQ:25eV
FILENAME=hmdb_intermediate.mgf
SEQ=*..*
IONMODE=Positive
ORGANISM=HMDB
NAME=HMDB:HMDB01881-1781 Propylene glycol M+H
PI=HMDB
DATACOLLECTOR=HMDB
SMILES=CC(O)CO
INCHI=InChI=1S/C3H8O2/c1-3(5)2-4/h3-5H,2H2,1H3
INCHIAUX=N/A
PUBMED=N/A
SUBMITUSER=mwang87
TAGS=
LIBRARYQUALITY=3
SPECTRUMID=CCMSLIB00000425461
SCANS=433
19.141 24.287 
26.188 77.184 
29.774 62.661 
31.257 78.48 
32.493 60.589 
33.73 48.66 
39.788 47.624 
41.766 100.0 
43.497 56.7 
44.238 67.072 
45.351 65.254 
45.722 75.627 
END IONS

BEGIN IONS
PEPMASS=45.034
CHARGE=1+
MSLEVEL=2
SOURCE_INSTRUMENT=Positive-Quattro_QQQ:10eV
FILENAME=hmdb_intermediate.mgf
SEQ=*..*
IONMODE=Positive
ORGANISM=HMDB
NAME=HMDB:HMDB00990-1378 Acetaldehyde M+H
PI=HMDB
DATACOLLECTOR=HMDB
SMILES=CC=O
INCHI=InChI=1S/C2H4O/c1-2-3/h2H,1H3
INCHIAUX=N/A
PUBMED=N/A
SUBMITUSER=mwang87
TAGS=
LIBRARYQUALITY=3
SPECTRUMID=CCMSLIB00000425464
SCANS=436
26.776 19.394 
29.909 17.515 
30.661 54.056 
44.071 36.948 
45.199 65.607 
45.826 100.0 
END IONS

BEGIN IONS
PEPMASS=115.051
CHARGE=1+
MSLEVEL=2
SOURCE_INSTRUMENT=Positive-Quattro_QQQ:25eV
FILENAME=hmdb_intermediate.mgf
SEQ=*..*
IONMODE=Positive
ORGANISM=HMDB
NAME=HMDB:HMDB00076-124 Dihydrouracil M+H
PI=HMDB
DATACOLLECTOR=HMDB
SMILES=O=C1CCNC(=O)N1
INCHI=InChI=1S/C4H6N2O2/c7-3-1-2-5-4(8)6-3/h1-2H2,(H2,5,6,7,8)
INCHIAUX=N/A
PUBMED=N/A
SUBMITUSER=mwang87
TAGS=
LIBRARYQUALITY=3
SPECTRUMID=CCMSLIB00000425465
SCANS=437
42.339 6.25 
44.283 20.408 
END IONS

BEGIN IONS
PEPMASS=132.066
CHARGE=1+
MSLEVEL=2
SOURCE_INSTRUMENT=Positive-Quattro_QQQ:25eV
FILENAME=hmdb_intermediate.mgf
SEQ=*..*
IONMODE=Positive
ORGANISM=HMDB
NAME=HMDB:HMDB00725-1018 4-Hydroxyproline M+H
PI=HMDB
DATACOLLECTOR=HMDB
SMILES=O[C@H]1CN[C@@H](C1)C(O)=O
INCHI=InChI=1S/C5H9NO3/c7-3-1-4(5(8)9)6-2-3/h3-4,6-7H,1-2H2,(H,8,9)/t3-,4+/m1/s1
INCHIAUX=N/A
PUBMED=N/A
SUBMITUSER=mwang87
TAGS=
LIBRARYQUALITY=3
SPECTRUMID=CCMSLIB00000425467
SCANS=439
41.323 27.083 
END IONS

BEGIN IONS
PEPMASS=159.139
CHARGE=1+
MSLEVEL=2
SOURCE_INSTRUMENT=Positive-Quattro_QQQ:40eV
FILENAME=hmdb_intermediate.mgf
SEQ=*..*
IONMODE=Positive
ORGANISM=HMDB
NAME=HMDB:HMDB00847-1195 Pelargonic acid M+H
PI=HMDB
DATACOLLECTOR=HMDB
SMILES=CCCCCCCCC(O)=O
INCHI=InChI=1S/C9H18O2/c1-2-3-4-5-6-7-8-9(10)11/h2-8H2,1H3,(H,10,11)
INCHIAUX=N/A
PUBMED=N/A
SUBMITUSER=mwang87
TAGS=
LIBRARYQUALITY=3
SPECTRUMID=CCMSLIB00000425469
SCANS=441
27.0 33.7 
29.0 54.564 
41.0 100.0 
42.0 17.616 
43.0 78.628 
END IONS

BEGIN IONS
PEPMASS=81.0453
CHARGE=1+
MSLEVEL=2
SOURCE_INSTRUMENT=Positive-Quattro_QQQ:25eV
FILENAME=hmdb_intermediate.mgf
SEQ=*..*
IONMODE=Positive
ORGANISM=HMDB
NAME=HMDB:HMDB03361-2266 Pyrimidine M+H
PI=HMDB
DATACOLLECTOR=HMDB
SMILES=C1=CN=CN=C1
INCHI=InChI=1S/C4H4N2/c1-2-5-4-6-3-1/h1-4H
INCHIAUX=N/A
PUBMED=N/A
SUBMITUSER=mwang87
TAGS=
LIBRARYQUALITY=3
SPECTRUMID=CCMSLIB00000425474
SCANS=446
28.18 35.852 
END IONS

BEGIN IONS
PEPMASS=129.019
CHARGE=1+
MSLEVEL=2
SOURCE_INSTRUMENT=Negative-Quattro_QQQ:10eV
FILENAME=hmdb_intermediate.mgf
SEQ=*..*
IONMODE=Negative
ORGANISM=HMDB
NAME=HMDB:HMDB00634-864 Citraconic acid M-H
PI=HMDB
DATACOLLECTOR=HMDB
SMILES=C\C(=C\C(O)=O)C(O)=O
INCHI=InChI=1S/C5H6O4/c1-3(5(8)9)2-4(6)7/h2H,1H3,(H,6,7)(H,8,9)/b3-2-
INCHIAUX=N/A
PUBMED=N/A
SUBMITUSER=mwang87
TAGS=
LIBRARYQUALITY=3
SPECTRUMID=CCMSLIB00000425476
SCANS=448
41.691 15.625 
END IONS

BEGIN IONS
PEPMASS=111.008
CHARGE=1+
MSLEVEL=2
SOURCE_INSTRUMENT=Negative-Quattro_QQQ:25eV
FILENAME=hmdb_intermediate.mgf
SEQ=*..*
IONMODE=Negative
ORGANISM=HMDB
NAME=HMDB:HMDB00617-832 2-Furoic acid M-H
PI=HMDB
DATACOLLECTOR=HMDB
SMILES=OC(=O)C1=CC=CO1
INCHI=InChI=1S/C5H4O3/c6-5(7)4-2-1-3-8-4/h1-3H,(H,6,7)
INCHIAUX=N/A
PUBMED=N/A
SUBMITUSER=mwang87
TAGS=
LIBRARYQUALITY=3
SPECTRUMID=CCMSLIB00000425477
SCANS=449
41.266 32.813 
49.194 43.304 
END IONS

BEGIN IONS
PEPMASS=100.022
CHARGE=1+
MSLEVEL=2
SOURCE_INSTRUMENT=Positive-Quattro_QQQ:40eV
FILENAME=hmdb_intermediate.mgf
SEQ=*..*
IONMODE=Positive
ORGANISM=HMDB
NAME=HMDB:HMDB05843-2462 Allyl isothiocyanate M+H
PI=HMDB
DATACOLLECTOR=HMDB
SMILES=C=CCN=C=S
INCHI=InChI=1S/C4H5NS/c1-2-3-5-4-6/h2H,1,3H2
INCHIAUX=N/A
PUBMED=N/A
SUBMITUSER=mwang87
TAGS=
LIBRARYQUALITY=3
SPECTRUMID=CCMSLIB00000425478
SCANS=450
39.21 79.407 
39.5 87.69 
41.1 100.0 
END IONS

BEGIN IONS
PEPMASS=159.066
CHARGE=1+
MSLEVEL=2
SOURCE_INSTRUMENT=Positive-Quattro_QQQ:40eV
FILENAME=hmdb_intermediate.mgf
SEQ=*..*
IONMODE=Positive
ORGANISM=HMDB
NAME=HMDB:HMDB00635-869 Succinylacetone M+H
PI=HMDB
DATACOLLECTOR=HMDB
SMILES=CC(=O)CC(=O)CCC(O)=O
INCHI=InChI=1S/C7H10O4/c1-5(8)4-6(9)2-3-7(10)11/h2-4H2,1H3,(H,10,11)
INCHIAUX=N/A
PUBMED=N/A
SUBMITUSER=mwang87
TAGS=
LIBRARYQUALITY=3
SPECTRUMID=CCMSLIB00000425479
SCANS=451
43.18 12.991 
END IONS

BEGIN IONS
PEPMASS=389.378
CHARGE=1+
MSLEVEL=2
SOURCE_INSTRUMENT=Positive-Quattro_QQQ:10eV
FILENAME=hmdb_intermediate.mgf
SEQ=*..*
IONMODE=Positive
ORGANISM=HMDB
NAME=HMDB:HMDB00908-1295 5alpha-Cholestanol M+H
PI=HMDB
DATACOLLECTOR=HMDB
SMILES=[H][C@@]1(CC[C@@]2([H])[C@]3([H])CC[C@@]4([H])C[C@@H](O)CC[C@]4(C)[C@@]3([H])CC[C@]12C)[C@H](C)CCCC(C)C
INCHI=InChI=1S/C27H48O/c1-18(2)7-6-8-19(3)23-11-12-24-22-10-9-20-17-21(28)13-15-26(20,4)25(22)14-16-27(23,24)5/h18-25,28H,6-17H2,1-5H3/t19-,20+,21+,22+,23-,24+,25+,26+,27-/m1/s1
INCHIAUX=N/A
PUBMED=N/A
SUBMITUSER=mwang87
TAGS=
LIBRARYQUALITY=3
SPECTRUMID=CCMSLIB00000425480
SCANS=452
46.0 35.952 
END IONS

BEGIN IONS
PEPMASS=122.061
CHARGE=1+
MSLEVEL=2
SOURCE_INSTRUMENT=Positive-Quattro_QQQ:25eV
FILENAME=hmdb_intermediate.mgf
SEQ=*..*
IONMODE=Positive
ORGANISM=HMDB
NAME=HMDB:HMDB04461-2389 Benzamide M+H
PI=HMDB
DATACOLLECTOR=HMDB
SMILES=NC(=O)C1=CC=CC=C1
INCHI=InChI=1S/C7H7NO/c8-7(9)6-4-2-1-3-5-6/h1-5H,(H2,8,9)
INCHIAUX=N/A
PUBMED=N/A
SUBMITUSER=mwang87
TAGS=
LIBRARYQUALITY=3
SPECTRUMID=CCMSLIB00000425488
SCANS=460
51.071 24.75 
END IONS

BEGIN IONS
PEPMASS=138.079
CHARGE=1+
MSLEVEL=2
SOURCE_INSTRUMENT=Positive-Quattro_QQQ:40eV
FILENAME=hmdb_intermediate.mgf
SEQ=*..*
IONMODE=Positive
ORGANISM=HMDB
NAME=HMDB:HMDB00699-974 1-Methylnicotinamide M+H
PI=HMDB
DATACOLLECTOR=HMDB
SMILES=C[N+]1=CC=CC(=C1)C(N)=O
INCHI=InChI=1S/C7H8N2O/c1-9-4-2-3-6(5-9)7(8)10/h2-5H,1H3,(H-,8,10)/p+1
INCHIAUX=N/A
PUBMED=N/A
SUBMITUSER=mwang87
TAGS=
LIBRARYQUALITY=3
SPECTRUMID=CCMSLIB00000425496
SCANS=468
39.0 19.573 
41.0 27.578 
42.0 14.91 
51.0 35.894 
52.0 50.893 
53.0 44.763 
END IONS

BEGIN IONS
PEPMASS=198.003
CHARGE=1+
MSLEVEL=2
SOURCE_INSTRUMENT=Positive-Quattro_QQQ:25eV
FILENAME=hmdb_intermediate.mgf
SEQ=*..*
IONMODE=Positive
ORGANISM=HMDB
NAME=HMDB:HMDB03966-2353 Selenomethionine M+H
PI=HMDB
DATACOLLECTOR=HMDB
SMILES=C[Se]CCC(N)C(O)=O
INCHI=InChI=1S/C5H11NO2Se/c1-9-3-2-4(6)5(7)8/h4H,2-3,6H2,1H3,(H,7,8)
INCHIAUX=N/A
PUBMED=N/A
SUBMITUSER=mwang87
TAGS=
LIBRARYQUALITY=3
SPECTRUMID=CCMSLIB00000425499
SCANS=471
53.0 2.42 
END IONS

BEGIN IONS
PEPMASS=197.066
CHARGE=1+
MSLEVEL=2
SOURCE_INSTRUMENT=Positive-Quattro_QQQ:25eV
FILENAME=hmdb_intermediate.mgf
SEQ=*..*
IONMODE=Positive
ORGANISM=HMDB
NAME=HMDB:HMDB03290-2231 Gulonic acid M+H
PI=HMDB
DATACOLLECTOR=HMDB
SMILES=OC[C@@H](O)[C@H](O)[C@@H](O)[C@@H](O)C(O)=O
INCHI=InChI=1S/C6H12O7/c7-1-2(8)3(9)4(10)5(11)6(12)13/h2-5,7-11H,1H2,(H,12,13)/t2-,3+,4-,5-/m1/s1
INCHIAUX=N/A
PUBMED=N/A
SUBMITUSER=mwang87
TAGS=
LIBRARYQUALITY=3
SPECTRUMID=CCMSLIB00000425500
SCANS=472
40.0 60.0 
END IONS

BEGIN IONS
PEPMASS=139.051
CHARGE=1+
MSLEVEL=2
SOURCE_INSTRUMENT=Positive-Quattro_QQQ:40eV
FILENAME=hmdb_intermediate.mgf
SEQ=*..*
IONMODE=Positive
ORGANISM=HMDB
NAME=HMDB:HMDB00301-515 Urocanic acid M+H
PI=HMDB
DATACOLLECTOR=HMDB
SMILES=OC(=O)\C=C\C1=CNC=N1
INCHI=InChI=1S/C6H6N2O2/c9-6(10)2-1-5-3-7-4-8-5/h1-4H,(H,7,8)(H,9,10)/b2-1+
INCHIAUX=N/A
PUBMED=N/A
SUBMITUSER=mwang87
TAGS=
LIBRARYQUALITY=3
SPECTRUMID=CCMSLIB00000425501
SCANS=473
41.289 26.115 
42.405 5.414 
52.137 5.812 
END IONS

BEGIN IONS
PEPMASS=170.022
CHARGE=1+
MSLEVEL=2
SOURCE_INSTRUMENT=Positive-Quattro_QQQ:10eV
FILENAME=hmdb_intermediate.mgf
SEQ=*..*
IONMODE=Positive
ORGANISM=HMDB
NAME=HMDB:HMDB00370-585 2-Amino-3-phosphonopropionic acid M+H
PI=HMDB
DATACOLLECTOR=HMDB
SMILES=NC(CP(O)(O)=O)C(O)=O
INCHI=InChI=1S/C3H8NO5P/c4-2(3(5)6)1-10(7,8)9/h2H,1,4H2,(H,5,6)(H2,7,8,9)
INCHIAUX=N/A
PUBMED=N/A
SUBMITUSER=mwang87
TAGS=
LIBRARYQUALITY=3
SPECTRUMID=CCMSLIB00000425503
SCANS=475
42.0 5.367 
43.0 16.613 
44.0 8.127 
47.0 3.934 
END IONS

BEGIN IONS
PEPMASS=130.05
CHARGE=1+
MSLEVEL=2
SOURCE_INSTRUMENT=Positive-Quattro_QQQ:40eV
FILENAME=hmdb_intermediate.mgf
SEQ=*..*
IONMODE=Positive
ORGANISM=HMDB
NAME=HMDB:HMDB00267-465 Pyroglutamic acid M+H
PI=HMDB
DATACOLLECTOR=HMDB
SMILES=OC(=O)[C@@H]1CCC(=O)N1
INCHI=InChI=1S/C5H7NO3/c7-4-2-1-3(6-4)5(8)9/h3H,1-2H2,(H,6,7)(H,8,9)/t3-/m0/s1
INCHIAUX=N/A
PUBMED=N/A
SUBMITUSER=mwang87
TAGS=
LIBRARYQUALITY=3
SPECTRUMID=CCMSLIB00000425507
SCANS=479
41.337 47.348 
44.249 15.909 
END IONS

BEGIN IONS
PEPMASS=169.036
CHARGE=1+
MSLEVEL=2
SOURCE_INSTRUMENT=Positive-Quattro_QQQ:40eV
FILENAME=hmdb_intermediate.mgf
SEQ=*..*
IONMODE=Positive
ORGANISM=HMDB
NAME=HMDB:HMDB00289-491 Uric acid M+H
PI=HMDB
DATACOLLECTOR=HMDB
SMILES=O=C1NC2=C(N1)C(=O)NC(=O)N2
INCHI=InChI=1S/C5H4N4O3/c10-3-1-2(7-4(11)6-1)8-5(12)9-3/h(H4,6,7,8,9,10,11,12)
INCHIAUX=N/A
PUBMED=N/A
SUBMITUSER=mwang87
TAGS=
LIBRARYQUALITY=3
SPECTRUMID=CCMSLIB00000425508
SCANS=480
43.328 74.02 
44.381 24.51 
53.208 100.0 
END IONS

BEGIN IONS
PEPMASS=33.034
CHARGE=1+
MSLEVEL=2
SOURCE_INSTRUMENT=Positive-Quattro_QQQ:25eV
FILENAME=hmdb_intermediate.mgf
SEQ=*..*
IONMODE=Positive
ORGANISM=HMDB
NAME=HMDB:HMDB01875-1769 Methanol M+H
PI=HMDB
DATACOLLECTOR=HMDB
SMILES=CO
INCHI=InChI=1S/CH4O/c1-2/h2H,1H3
INCHIAUX=N/A
PUBMED=N/A
SUBMITUSER=mwang87
TAGS=
LIBRARYQUALITY=3
SPECTRUMID=CCMSLIB00000425511
SCANS=483
33.481 100.0 
END IONS

BEGIN IONS
PEPMASS=103.076
CHARGE=1+
MSLEVEL=2
SOURCE_INSTRUMENT=Positive-Quattro_QQQ:40eV
FILENAME=hmdb_intermediate.mgf
SEQ=*..*
IONMODE=Positive
ORGANISM=HMDB
NAME=HMDB:HMDB00718-1007 Isovaleric acid M+H
PI=HMDB
DATACOLLECTOR=HMDB
SMILES=CC(C)CC(O)=O
INCHI=InChI=1S/C5H10O2/c1-4(2)3-5(6)7/h4H,3H2,1-2H3,(H,6,7)
INCHIAUX=N/A
PUBMED=N/A
SUBMITUSER=mwang87
TAGS=
LIBRARYQUALITY=3
SPECTRUMID=CCMSLIB00000425515
SCANS=487
38.0 14.917 
39.0 23.306 
40.0 50.315 
41.0 100.0 
42.0 73.288 
43.0 88.841 
44.0 11.659 
45.0 10.501 
END IONS

BEGIN IONS
PEPMASS=202.144
CHARGE=1+
MSLEVEL=2
SOURCE_INSTRUMENT=Positive-Quattro_QQQ:40eV
FILENAME=hmdb_intermediate.mgf
SEQ=*..*
IONMODE=Positive
ORGANISM=HMDB
NAME=HMDB:HMDB00832-1183 Capryloylglycine M+H
PI=HMDB
DATACOLLECTOR=HMDB
SMILES=CCCCCCCC(=O)NCC(O)=O
INCHI=InChI=1S/C10H19NO3/c1-2-3-4-5-6-7-9(12)11-8-10(13)14/h2-8H2,1H3,(H,11,12)(H,13,14)
INCHIAUX=N/A
PUBMED=N/A
SUBMITUSER=mwang87
TAGS=
LIBRARYQUALITY=3
SPECTRUMID=CCMSLIB00000425517
SCANS=489
52.125 8.258 
END IONS

BEGIN IONS
PEPMASS=157.061
CHARGE=1+
MSLEVEL=2
SOURCE_INSTRUMENT=Positive-Quattro_QQQ:40eV
FILENAME=hmdb_intermediate.mgf
SEQ=*..*
IONMODE=Positive
ORGANISM=HMDB
NAME=HMDB:HMDB00544-766 5-Hydroxymethyl-4-methyluracil M+H
PI=HMDB
DATACOLLECTOR=HMDB
SMILES=CC1=C(CO)C(=O)NC(=O)N1
INCHI=InChI=1S/C6H8N2O3/c1-3-4(2-9)5(10)8-6(11)7-3/h9H,2H2,1H3,(H2,7,8,10,11)
INCHIAUX=N/A
PUBMED=N/A
SUBMITUSER=mwang87
TAGS=
LIBRARYQUALITY=3
SPECTRUMID=CCMSLIB00000425519
SCANS=491
42.319 100.0 
53.272 3.004 
END IONS

BEGIN IONS
PEPMASS=185.045
CHARGE=1+
MSLEVEL=2
SOURCE_INSTRUMENT=Positive-Quattro_QQQ:25eV
FILENAME=hmdb_intermediate.mgf
SEQ=*..*
IONMODE=Positive
ORGANISM=HMDB
NAME=HMDB:HMDB01866-1748 3,4-Dihydroxymandelic acid M+H
PI=HMDB
DATACOLLECTOR=HMDB
SMILES=OC(C(O)=O)C1=CC=C(O)C(O)=C1
INCHI=InChI=1S/C8H8O5/c9-5-2-1-4(3-6(5)10)7(11)8(12)13/h1-3,7,9-11H,(H,12,13)
INCHIAUX=N/A
PUBMED=N/A
SUBMITUSER=mwang87
TAGS=
LIBRARYQUALITY=3
SPECTRUMID=CCMSLIB00000425521
SCANS=493
42.254 25.072 
43.999 13.529 
END IONS

BEGIN IONS
PEPMASS=262.14
CHARGE=1+
MSLEVEL=2
SOURCE_INSTRUMENT=Positive-Quattro_QQQ:40eV
FILENAME=hmdb_intermediate.mgf
SEQ=*..*
IONMODE=Positive
ORGANISM=HMDB
NAME=HMDB:HMDB04987-2426 Alpha-Aspartyl-lysine M+H
PI=HMDB
DATACOLLECTOR=HMDB
SMILES=NCCCC[C@H](NC(=O)[C@@H](N)CC(O)=O)C(O)=O
INCHI=InChI=1S/C10H19N3O5/c11-4-2-1-3-7(10(17)18)13-9(16)6(12)5-8(14)15/h6-7H,1-5,11-12H2,(H,13,16)(H,14,15)(H,17,18)/t6-,7-/m0/s1
INCHIAUX=N/A
PUBMED=N/A
SUBMITUSER=mwang87
TAGS=
LIBRARYQUALITY=3
SPECTRUMID=CCMSLIB00000425529
SCANS=501
43.0 6.323 
END IONS

BEGIN IONS
PEPMASS=415.394
CHARGE=1+
MSLEVEL=2
SOURCE_INSTRUMENT=Positive-Quattro_QQQ:40eV
FILENAME=hmdb_intermediate.mgf
SEQ=*..*
IONMODE=Positive
ORGANISM=HMDB
NAME=HMDB:HMDB00852-1204 Beta-Sitosterol M+H
PI=HMDB
DATACOLLECTOR=HMDB
SMILES=[H][C@@]1(CC[C@@]2([H])[C@]3([H])CC=C4C[C@@H](O)CC[C@]4(C)[C@@]3([H])CC[C@]12C)[C@H](C)CC[C@@H](CC)C(C)C
INCHI=InChI=1S/C29H50O/c1-7-21(19(2)3)9-8-20(4)25-12-13-26-24-11-10-22-18-23(30)14-16-28(22,5)27(24)15-17-29(25,26)6/h10,19-21,23-27,30H,7-9,11-18H2,1-6H3/t20-,21-,23+,24+,25-,26+,27+,28+,29-/m1/s1
INCHIAUX=N/A
PUBMED=N/A
SUBMITUSER=mwang87
TAGS=
LIBRARYQUALITY=3
SPECTRUMID=CCMSLIB00000425530
SCANS=502
43.319 48.592 
END IONS

BEGIN IONS
PEPMASS=62.0606
CHARGE=1+
MSLEVEL=2
SOURCE_INSTRUMENT=Positive-Quattro_QQQ:25eV
FILENAME=hmdb_intermediate.mgf
SEQ=*..*
IONMODE=Positive
ORGANISM=HMDB
NAME=HMDB:HMDB00149-225 Ethanolamine M+H
PI=HMDB
DATACOLLECTOR=HMDB
SMILES=NCCO
INCHI=InChI=1S/C2H7NO/c3-1-2-4/h4H,1-3H2
INCHIAUX=N/A
PUBMED=N/A
SUBMITUSER=mwang87
TAGS=
LIBRARYQUALITY=3
SPECTRUMID=CCMSLIB00000425531
SCANS=503
27.0 20.027 
29.0 14.435 
44.0 35.999 
45.0 34.705 
END IONS

BEGIN IONS
PEPMASS=174.113
CHARGE=1+
MSLEVEL=2
SOURCE_INSTRUMENT=Positive-Quattro_QQQ:10eV
FILENAME=hmdb_intermediate.mgf
SEQ=*..*
IONMODE=Positive
ORGANISM=HMDB
NAME=HMDB:HMDB00701-978 Hexanoylglycine M+H
PI=HMDB
DATACOLLECTOR=HMDB
SMILES=CCCCCC(=O)NCC(O)=O
INCHI=InChI=1S/C8H15NO3/c1-2-3-4-5-7(10)9-6-8(11)12/h2-6H2,1H3,(H,9,10)(H,11,12)
INCHIAUX=N/A
PUBMED=N/A
SUBMITUSER=mwang87
TAGS=
LIBRARYQUALITY=3
SPECTRUMID=CCMSLIB00000425532
SCANS=504
43.648 5.361 
END IONS

BEGIN IONS
PEPMASS=103.04
CHARGE=1+
MSLEVEL=2
SOURCE_INSTRUMENT=Negative-Quattro_QQQ:40eV
FILENAME=hmdb_intermediate.mgf
SEQ=*..*
IONMODE=Negative
ORGANISM=HMDB
NAME=HMDB:HMDB00008-12 2-Hydroxybutyric acid M-H
PI=HMDB
DATACOLLECTOR=HMDB
SMILES=CCC(O)C(O)=O
INCHI=InChI=1S/C4H8O3/c1-2-3(5)4(6)7/h3,5H,2H2,1H3,(H,6,7)
INCHIAUX=N/A
PUBMED=N/A
SUBMITUSER=mwang87
TAGS=
LIBRARYQUALITY=3
SPECTRUMID=CCMSLIB00000425534
SCANS=506
45.426 100.0 
END IONS

BEGIN IONS
PEPMASS=129.019
CHARGE=1+
MSLEVEL=2
SOURCE_INSTRUMENT=Negative-Quattro_QQQ:10eV
FILENAME=hmdb_intermediate.mgf
SEQ=*..*
IONMODE=Negative
ORGANISM=HMDB
NAME=HMDB:HMDB61185-837 2-Pentendioate M-H
PI=HMDB
DATACOLLECTOR=HMDB
SMILES=OC(=O)CC=CC(O)=O
INCHI=InChI=1S/C5H6O4/c6-4(7)2-1-3-5(8)9/h1-2H,3H2,(H,6,7)(H,8,9)/b2-1+
INCHIAUX=N/A
PUBMED=N/A
SUBMITUSER=mwang87
TAGS=
LIBRARYQUALITY=3
SPECTRUMID=CCMSLIB00000425537
SCANS=509
41.317 16.447 
END IONS

BEGIN IONS
PEPMASS=136.043
CHARGE=1+
MSLEVEL=2
SOURCE_INSTRUMENT=Positive-Quattro_QQQ:25eV
FILENAME=hmdb_intermediate.mgf
SEQ=*..*
IONMODE=Positive
ORGANISM=HMDB
NAME=HMDB:HMDB00742-1054 Homocysteine M+H
PI=HMDB
DATACOLLECTOR=HMDB
SMILES=NC(CCS)C(O)=O
INCHI=InChI=1S/C4H9NO2S/c5-3(1-2-8)4(6)7/h3,8H,1-2,5H2,(H,6,7)
INCHIAUX=N/A
PUBMED=N/A
SUBMITUSER=mwang87
TAGS=
LIBRARYQUALITY=3
SPECTRUMID=CCMSLIB00000425538
SCANS=510
44.359 22.283 
47.224 35.217 
END IONS

BEGIN IONS
PEPMASS=121.05
CHARGE=1+
MSLEVEL=2
SOURCE_INSTRUMENT=Positive-Quattro_QQQ:25eV
FILENAME=hmdb_intermediate.mgf
SEQ=*..*
IONMODE=Positive
ORGANISM=HMDB
NAME=HMDB:HMDB02649-2120 Erythrose M+H
PI=HMDB
DATACOLLECTOR=HMDB
SMILES=O[C@@H]1COC(O)[C@@H]1O
INCHI=InChI=1S/C4H8O4/c5-2-1-8-4(7)3(2)6/h2-7H,1H2/t2-,3-,4?/m1/s1
INCHIAUX=N/A
PUBMED=N/A
SUBMITUSER=mwang87
TAGS=
LIBRARYQUALITY=3
SPECTRUMID=CCMSLIB00000425546
SCANS=518
42.0 95.308 
43.0 47.728 
END IONS

BEGIN IONS
PEPMASS=89.0239
CHARGE=1+
MSLEVEL=2
SOURCE_INSTRUMENT=Negative-Quattro_QQQ:25eV
FILENAME=hmdb_intermediate.mgf
SEQ=*..*
IONMODE=Negative
ORGANISM=HMDB
NAME=HMDB:HMDB01311-1514 D-Lactic acid M-H
PI=HMDB
DATACOLLECTOR=HMDB
SMILES=C[C@@H](O)C(O)=O
INCHI=InChI=1S/C3H6O3/c1-2(4)3(5)6/h2,4H,1H3,(H,5,6)/t2-/m1/s1
INCHIAUX=N/A
PUBMED=N/A
SUBMITUSER=mwang87
TAGS=
LIBRARYQUALITY=3
SPECTRUMID=CCMSLIB00000425549
SCANS=521
17.0 48.72 
41.0 10.484 
43.0 100.0 
45.0 80.617 
END IONS

BEGIN IONS
PEPMASS=181.071
CHARGE=1+
MSLEVEL=2
SOURCE_INSTRUMENT=Positive-Quattro_QQQ:40eV
FILENAME=hmdb_intermediate.mgf
SEQ=*..*
IONMODE=Positive
ORGANISM=HMDB
NAME=HMDB:HMDB00660-902 D-Fructose M+H
PI=HMDB
DATACOLLECTOR=HMDB
SMILES=OC[C@H]1O[C@](O)(CO)[C@@H](O)[C@@H]1O
INCHI=InChI=1S/C6H12O6/c7-1-3-4(9)5(10)6(11,2-8)12-3/h3-5,7-11H,1-2H2/t3-,4-,5+,6-/m1/s1
INCHIAUX=N/A
PUBMED=N/A
SUBMITUSER=mwang87
TAGS=
LIBRARYQUALITY=3
SPECTRUMID=CCMSLIB00000425551
SCANS=523
41.0 22.867 
45.0 47.956 
END IONS

BEGIN IONS
PEPMASS=91.0031
CHARGE=1+
MSLEVEL=2
SOURCE_INSTRUMENT=Positive-Quattro_QQQ:40eV
FILENAME=hmdb_intermediate.mgf
SEQ=*..*
IONMODE=Positive
ORGANISM=HMDB
NAME=HMDB:HMDB02329-2063 Oxalic acid M+H
PI=HMDB
DATACOLLECTOR=HMDB
SMILES=OC(=O)C(O)=O
INCHI=InChI=1S/C2H2O4/c3-1(4)2(5)6/h(H,3,4)(H,5,6)
INCHIAUX=N/A
PUBMED=N/A
SUBMITUSER=mwang87
TAGS=
LIBRARYQUALITY=3
SPECTRUMID=CCMSLIB00000425552
SCANS=524
38.0 100.0 
END IONS

BEGIN IONS
PEPMASS=91.0759
CHARGE=1+
MSLEVEL=2
SOURCE_INSTRUMENT=Positive-Quattro_QQQ:40eV
FILENAME=hmdb_intermediate.mgf
SEQ=*..*
IONMODE=Positive
ORGANISM=HMDB
NAME=HMDB:HMDB03156-2205 2,3-Butanediol M+H
PI=HMDB
DATACOLLECTOR=HMDB
SMILES=CC(O)C(C)O
INCHI=InChI=1S/C4H10O2/c1-3(5)4(2)6/h3-6H,1-2H3
INCHIAUX=N/A
PUBMED=N/A
SUBMITUSER=mwang87
TAGS=
LIBRARYQUALITY=3
SPECTRUMID=CCMSLIB00000425555
SCANS=527
23.0 17.302 
38.0 64.225 
39.0 100.0 
40.0 15.61 
41.0 11.577 
51.0 13.978 
END IONS

BEGIN IONS
PEPMASS=119.082
CHARGE=1+
MSLEVEL=2
SOURCE_INSTRUMENT=Positive-Quattro_QQQ:25eV
FILENAME=hmdb_intermediate.mgf
SEQ=*..*
IONMODE=Positive
ORGANISM=HMDB
NAME=HMDB:HMDB02362-2084 2,4-Diaminobutyric acid M+H
PI=HMDB
DATACOLLECTOR=HMDB
SMILES=NCCC(N)C(O)=O
INCHI=InChI=1S/C4H10N2O2/c5-2-1-3(6)4(7)8/h3H,1-2,5-6H2,(H,7,8)
INCHIAUX=N/A
PUBMED=N/A
SUBMITUSER=mwang87
TAGS=
LIBRARYQUALITY=3
SPECTRUMID=CCMSLIB00000425560
SCANS=532
44.0 42.331 
46.0 7.994 
END IONS

BEGIN IONS
PEPMASS=143.107
CHARGE=1+
MSLEVEL=2
SOURCE_INSTRUMENT=Negative-Quattro_QQQ:25eV
FILENAME=hmdb_intermediate.mgf
SEQ=*..*
IONMODE=Negative
ORGANISM=HMDB
NAME=HMDB:HMDB00482-699 Caprylic acid M-H
PI=HMDB
DATACOLLECTOR=HMDB
SMILES=CCCCCCCC(O)=O
INCHI=InChI=1S/C8H16O2/c1-2-3-4-5-6-7-8(9)10/h2-7H2,1H3,(H,9,10)
INCHIAUX=N/A
PUBMED=N/A
SUBMITUSER=mwang87
TAGS=
LIBRARYQUALITY=3
SPECTRUMID=CCMSLIB00000425561
SCANS=533
45.602 7.237 
END IONS

BEGIN IONS
PEPMASS=238.094
CHARGE=1+
MSLEVEL=2
SOURCE_INSTRUMENT=Positive-Quattro_QQQ:25eV
FILENAME=hmdb_intermediate.mgf
SEQ=*..*
IONMODE=Positive
ORGANISM=HMDB
NAME=HMDB:HMDB00468-681 Biopterin M+H
PI=HMDB
DATACOLLECTOR=HMDB
SMILES=C[C@H](O)[C@H](O)C1=NC2=C(NC(N)=NC2=O)N=C1
INCHI=InChI=1S/C9H11N5O3/c1-3(15)6(16)4-2-11-7-5(12-4)8(17)14-9(10)13-7/h2-3,6,15-16H,1H3,(H3,10,11,13,14,17)/t3-,6-/m0/s1
INCHIAUX=N/A
PUBMED=N/A
SUBMITUSER=mwang87
TAGS=
LIBRARYQUALITY=3
SPECTRUMID=CCMSLIB00000425564
SCANS=536
43.323 11.087 
END IONS

BEGIN IONS
PEPMASS=132.066
CHARGE=1+
MSLEVEL=2
SOURCE_INSTRUMENT=Positive-Quattro_QQQ:40eV
FILENAME=hmdb_intermediate.mgf
SEQ=*..*
IONMODE=Positive
ORGANISM=HMDB
NAME=HMDB:HMDB00725-1019 4-Hydroxyproline M+H
PI=HMDB
DATACOLLECTOR=HMDB
SMILES=O[C@H]1CN[C@@H](C1)C(O)=O
INCHI=InChI=1S/C5H9NO3/c7-3-1-4(5(8)9)6-2-3/h3-4,6-7H,1-2H2,(H,8,9)/t3-,4+/m1/s1
INCHIAUX=N/A
PUBMED=N/A
SUBMITUSER=mwang87
TAGS=
LIBRARYQUALITY=3
SPECTRUMID=CCMSLIB00000425567
SCANS=539
41.323 83.333 
42.493 6.315 
43.383 7.227 
END IONS

BEGIN IONS
PEPMASS=153.019
CHARGE=1+
MSLEVEL=2
SOURCE_INSTRUMENT=Negative-Quattro_QQQ:25eV
FILENAME=hmdb_intermediate.mgf
SEQ=*..*
IONMODE=Negative
ORGANISM=HMDB
NAME=HMDB:HMDB00152-234 Gentisic acid M-H
PI=HMDB
DATACOLLECTOR=HMDB
SMILES=OC(=O)C1=CC(O)=CC=C1O
INCHI=InChI=1S/C7H6O4/c8-4-1-2-6(9)5(3-4)7(10)11/h1-3,8-9H,(H,10,11)
INCHIAUX=N/A
PUBMED=N/A
SUBMITUSER=mwang87
TAGS=
LIBRARYQUALITY=3
SPECTRUMID=CCMSLIB00000425570
SCANS=542
53.253 9.248 
END IONS

BEGIN IONS
PEPMASS=80.9646
CHARGE=1+
MSLEVEL=2
SOURCE_INSTRUMENT=Positive-Quattro_QQQ:40eV
FILENAME=hmdb_intermediate.mgf
SEQ=*..*
IONMODE=Positive
ORGANISM=HMDB
NAME=HMDB:HMDB00240-408 Sulfite M+H
PI=HMDB
DATACOLLECTOR=HMDB
SMILES=[O-]S([O-])=O
INCHI=InChI=1S/H2O3S/c1-4(2)3/h(H2,1,2,3)/p-2
INCHIAUX=N/A
PUBMED=N/A
SUBMITUSER=mwang87
TAGS=
LIBRARYQUALITY=3
SPECTRUMID=CCMSLIB00000425573
SCANS=545
53.406 74.932 
END IONS

BEGIN IONS
PEPMASS=151.04
CHARGE=1+
MSLEVEL=2
SOURCE_INSTRUMENT=Negative-Quattro_QQQ:25eV
FILENAME=hmdb_intermediate.mgf
SEQ=*..*
IONMODE=Negative
ORGANISM=HMDB
NAME=HMDB:HMDB00440-642 3-Hydroxyphenylacetic acid M-H
PI=HMDB
DATACOLLECTOR=HMDB
SMILES=OC(=O)CC1=CC=CC(O)=C1
INCHI=InChI=1S/C8H8O3/c9-7-3-1-2-6(4-7)5-8(10)11/h1-4,9H,5H2,(H,10,11)
INCHIAUX=N/A
PUBMED=N/A
SUBMITUSER=mwang87
TAGS=
LIBRARYQUALITY=3
SPECTRUMID=CCMSLIB00000425578
SCANS=550
41.64 9.0 
END IONS

BEGIN IONS
PEPMASS=178.054
CHARGE=1+
MSLEVEL=2
SOURCE_INSTRUMENT=Positive-Quattro_QQQ:40eV
FILENAME=hmdb_intermediate.mgf
SEQ=*..*
IONMODE=Positive
ORGANISM=HMDB
NAME=HMDB:HMDB01015-1389 N-Formyl-L-methionine M+H
PI=HMDB
DATACOLLECTOR=HMDB
SMILES=CSCC[C@@H](NC=O)C(O)=O
INCHI=InChI=1S/C6H11NO3S/c1-11-3-2-5(6(9)10)7-4-8/h4-5H,2-3H2,1H3,(H,7,8)(H,9,10)/t5-/m1/s1
INCHIAUX=N/A
PUBMED=N/A
SUBMITUSER=mwang87
TAGS=
LIBRARYQUALITY=3
SPECTRUMID=CCMSLIB00000425582
SCANS=554
28.37 15.577 
END IONS

BEGIN IONS
PEPMASS=159.102
CHARGE=1+
MSLEVEL=2
SOURCE_INSTRUMENT=Negative-Quattro_QQQ:25eV
FILENAME=hmdb_intermediate.mgf
SEQ=*..*
IONMODE=Negative
ORGANISM=HMDB
NAME=HMDB:HMDB00711-994 Hydroxyoctanoic acid M-H
PI=HMDB
DATACOLLECTOR=HMDB
SMILES=CCCCCCC(O)C(O)=O
INCHI=InChI=1S/C8H16O3/c1-2-3-4-5-6-7(9)8(10)11/h7,9H,2-6H2,1H3,(H,10,11)
INCHIAUX=N/A
PUBMED=N/A
SUBMITUSER=mwang87
TAGS=
LIBRARYQUALITY=3
SPECTRUMID=CCMSLIB00000425585
SCANS=557
45.58 100.0 
END IONS

BEGIN IONS
PEPMASS=145.014
CHARGE=1+
MSLEVEL=2
SOURCE_INSTRUMENT=Negative-Quattro_QQQ:40eV
FILENAME=hmdb_intermediate.mgf
SEQ=*..*
IONMODE=Negative
ORGANISM=HMDB
NAME=HMDB:HMDB00208-339 Oxoglutaric acid M-H
PI=HMDB
DATACOLLECTOR=HMDB
SMILES=OC(=O)CCC(=O)C(O)=O
INCHI=InChI=1S/C5H6O5/c6-3(5(9)10)1-2-4(7)8/h1-2H2,(H,7,8)(H,9,10)
INCHIAUX=N/A
PUBMED=N/A
SUBMITUSER=mwang87
TAGS=
LIBRARYQUALITY=3
SPECTRUMID=CCMSLIB00000425587
SCANS=559
45.203 12.302 
END IONS

BEGIN IONS
PEPMASS=118.05
CHARGE=1+
MSLEVEL=2
SOURCE_INSTRUMENT=Positive-Quattro_QQQ:25eV
FILENAME=hmdb_intermediate.mgf
SEQ=*..*
IONMODE=Positive
ORGANISM=HMDB
NAME=HMDB:HMDB00532-753 Acetylglycine M+H
PI=HMDB
DATACOLLECTOR=HMDB
SMILES=CC(=O)NCC(O)=O
INCHI=InChI=1S/C4H7NO3/c1-3(6)5-2-4(7)8/h2H2,1H3,(H,5,6)(H,7,8)
INCHIAUX=N/A
PUBMED=N/A
SUBMITUSER=mwang87
TAGS=
LIBRARYQUALITY=3
SPECTRUMID=CCMSLIB00000425588
SCANS=560
43.26 100.0 
48.233 3.09 
END IONS

BEGIN IONS
PEPMASS=109.065
CHARGE=1+
MSLEVEL=2
SOURCE_INSTRUMENT=Positive-Quattro_QQQ:25eV
FILENAME=hmdb_intermediate.mgf
SEQ=*..*
IONMODE=Positive
ORGANISM=HMDB
NAME=HMDB:HMDB01858-1730 p-Cresol M+H
PI=HMDB
DATACOLLECTOR=HMDB
SMILES=CC1=CC=C(O)C=C1
INCHI=InChI=1S/C7H8O/c1-6-2-4-7(8)5-3-6/h2-5,8H,1H3
INCHIAUX=N/A
PUBMED=N/A
SUBMITUSER=mwang87
TAGS=
LIBRARYQUALITY=3
SPECTRUMID=CCMSLIB00000425589
SCANS=561
39.0 12.241 
40.0 17.554 
41.0 11.429 
END IONS

BEGIN IONS
PEPMASS=181.071
CHARGE=1+
MSLEVEL=2
SOURCE_INSTRUMENT=Positive-Quattro_QQQ:40eV
FILENAME=hmdb_intermediate.mgf
SEQ=*..*
IONMODE=Positive
ORGANISM=HMDB
NAME=HMDB:HMDB00143-217 D-Galactose M+H
PI=HMDB
DATACOLLECTOR=HMDB
SMILES=OC[C@H]1O[C@H](O)[C@H](O)[C@@H](O)[C@H]1O
INCHI=InChI=1S/C6H12O6/c7-1-2-3(8)4(9)5(10)6(11)12-2/h2-11H,1H2/t2-,3+,4+,5-,6+/m1/s1
INCHIAUX=N/A
PUBMED=N/A
SUBMITUSER=mwang87
TAGS=
LIBRARYQUALITY=3
SPECTRUMID=CCMSLIB00000425594
SCANS=566
41.0 21.696 
45.0 44.231 
END IONS

BEGIN IONS
PEPMASS=181.05
CHARGE=1+
MSLEVEL=2
SOURCE_INSTRUMENT=Positive-Quattro_QQQ:25eV
FILENAME=hmdb_intermediate.mgf
SEQ=*..*
IONMODE=Positive
ORGANISM=HMDB
NAME=HMDB:HMDB01879-1778 Aspirin M+H
PI=HMDB
DATACOLLECTOR=HMDB
SMILES=CC(=O)OC1=CC=CC=C1C(O)=O
INCHI=InChI=1S/C9H8O4/c1-6(10)13-8-5-3-2-4-7(8)9(11)12/h2-5H,1H3,(H,11,12)
INCHIAUX=N/A
PUBMED=N/A
SUBMITUSER=mwang87
TAGS=
LIBRARYQUALITY=3
SPECTRUMID=CCMSLIB00000425595
SCANS=567
41.0 4.084 
END IONS

BEGIN IONS
PEPMASS=45.034
CHARGE=1+
MSLEVEL=2
SOURCE_INSTRUMENT=Positive-Quattro_QQQ:25eV
FILENAME=hmdb_intermediate.mgf
SEQ=*..*
IONMODE=Positive
ORGANISM=HMDB
NAME=HMDB:HMDB00990-1379 Acetaldehyde M+H
PI=HMDB
DATACOLLECTOR=HMDB
SMILES=CC=O
INCHI=InChI=1S/C2H4O/c1-2-3/h2H,1H3
INCHIAUX=N/A
PUBMED=N/A
SUBMITUSER=mwang87
TAGS=
LIBRARYQUALITY=3
SPECTRUMID=CCMSLIB00000425600
SCANS=572
4.593 11.639 
29.408 37.77 
30.16 100.0 
30.536 58.398 
42.818 17.598 
43.946 37.996 
44.948 53.928 
45.575 16.566 
END IONS

BEGIN IONS
PEPMASS=132.102
CHARGE=1+
MSLEVEL=2
SOURCE_INSTRUMENT=Positive-Quattro_QQQ:40eV
FILENAME=hmdb_intermediate.mgf
SEQ=*..*
IONMODE=Positive
ORGANISM=HMDB
NAME=HMDB:HMDB01645-1671 L-Norleucine M+H
PI=HMDB
DATACOLLECTOR=HMDB
SMILES=CCCC[C@H](N)C(O)=O
INCHI=InChI=1S/C6H13NO2/c1-2-3-4-5(7)6(8)9/h5H,2-4,7H2,1H3,(H,8,9)/t5-/m0/s1
INCHIAUX=N/A
PUBMED=N/A
SUBMITUSER=mwang87
TAGS=
LIBRARYQUALITY=3
SPECTRUMID=CCMSLIB00000425601
SCANS=573
41.297 100.0 
43.295 57.862 
44.442 12.579 
45.355 5.385 
END IONS

BEGIN IONS
PEPMASS=331.227
CHARGE=1+
MSLEVEL=2
SOURCE_INSTRUMENT=Positive-Quattro_QQQ:25eV
FILENAME=hmdb_intermediate.mgf
SEQ=*..*
IONMODE=Positive
ORGANISM=HMDB
NAME=HMDB:HMDB00920-1307 11a-Hydroxyprogesterone M+H
PI=HMDB
DATACOLLECTOR=HMDB
SMILES=[H][C@@]12CCC(C(C)=O)[C@@]1(C)C[C@@H](O)[C@@]1([H])[C@@]2([H])CCC2=CC(=O)CC[C@]12C
INCHI=InChI=1S/C21H30O3/c1-12(22)16-6-7-17-15-5-4-13-10-14(23)8-9-20(13,2)19(15)18(24)11-21(16,17)3/h10,15-19,24H,4-9,11H2,1-3H3/t15-,16?,17-,18+,19+,20-,21+/m0/s1
INCHIAUX=N/A
PUBMED=N/A
SUBMITUSER=mwang87
TAGS=
LIBRARYQUALITY=3
SPECTRUMID=CCMSLIB00000425602
SCANS=574
43.555 78.537 
END IONS

BEGIN IONS
PEPMASS=138.079
CHARGE=1+
MSLEVEL=2
SOURCE_INSTRUMENT=Positive-Quattro_QQQ:25eV
FILENAME=hmdb_intermediate.mgf
SEQ=*..*
IONMODE=Positive
ORGANISM=HMDB
NAME=HMDB:HMDB00699-973 1-Methylnicotinamide M+H
PI=HMDB
DATACOLLECTOR=HMDB
SMILES=C[N+]1=CC=CC(=C1)C(N)=O
INCHI=InChI=1S/C7H8N2O/c1-9-4-2-3-6(5-9)7(8)10/h2-5H,1H3,(H-,8,10)/p+1
INCHIAUX=N/A
PUBMED=N/A
SUBMITUSER=mwang87
TAGS=
LIBRARYQUALITY=3
SPECTRUMID=CCMSLIB00000425603
SCANS=575
53.0 20.954 
END IONS

BEGIN IONS
PEPMASS=287.056
CHARGE=1+
MSLEVEL=2
SOURCE_INSTRUMENT=Positive-Quattro_QQQ:40eV
FILENAME=hmdb_intermediate.mgf
SEQ=*..*
IONMODE=Positive
ORGANISM=HMDB
NAME=HMDB:HMDB05801-2450 Kaempferol M+H
PI=HMDB
DATACOLLECTOR=HMDB
SMILES=OC1=CC=C(C=C1)C1=C(O)C(=O)C2=C(O1)C=C(O)C=C2O
INCHI=InChI=1S/C15H10O6/c16-8-3-1-7(2-4-8)15-14(20)13(19)12-10(18)5-9(17)6-11(12)21-15/h1-6,16-18,20H
INCHIAUX=N/A
PUBMED=N/A
SUBMITUSER=mwang87
TAGS=
LIBRARYQUALITY=3
SPECTRUMID=CCMSLIB00000425612
SCANS=584
43.0 7.975 
END IONS

BEGIN IONS
PEPMASS=76.0399
CHARGE=1+
MSLEVEL=2
SOURCE_INSTRUMENT=Positive-Quattro_QQQ:25eV
FILENAME=hmdb_intermediate.mgf
SEQ=*..*
IONMODE=Positive
ORGANISM=HMDB
NAME=HMDB:HMDB00123-181 Glycine M+H
PI=HMDB
DATACOLLECTOR=HMDB
SMILES=NCC(O)=O
INCHI=InChI=1S/C2H5NO2/c3-1-2(4)5/h1,3H2,(H,4,5)
INCHIAUX=N/A
PUBMED=N/A
SUBMITUSER=mwang87
TAGS=
LIBRARYQUALITY=3
SPECTRUMID=CCMSLIB00000425613
SCANS=585
30.375 100.0 
31.522 10.18 
END IONS

BEGIN IONS
PEPMASS=114.067
CHARGE=1+
MSLEVEL=2
SOURCE_INSTRUMENT=Positive-Quattro_QQQ:25eV
FILENAME=hmdb_intermediate.mgf
SEQ=*..*
IONMODE=Positive
ORGANISM=HMDB
NAME=HMDB:HMDB00562-786 Creatinine M+H
PI=HMDB
DATACOLLECTOR=HMDB
SMILES=CN1CC(=O)NC1=N
INCHI=InChI=1S/C4H7N3O/c1-7-2-3(8)6-4(7)5/h2H2,1H3,(H2,5,6,8)
INCHIAUX=N/A
PUBMED=N/A
SUBMITUSER=mwang87
TAGS=
LIBRARYQUALITY=3
SPECTRUMID=CCMSLIB00000425615
SCANS=587
44.138 100.0 
END IONS

BEGIN IONS
PEPMASS=114.067
CHARGE=1+
MSLEVEL=2
SOURCE_INSTRUMENT=Positive-Quattro_QQQ:10eV
FILENAME=hmdb_intermediate.mgf
SEQ=*..*
IONMODE=Positive
ORGANISM=HMDB
NAME=HMDB:HMDB00562-785 Creatinine M+H
PI=HMDB
DATACOLLECTOR=HMDB
SMILES=CN1CC(=O)NC1=N
INCHI=InChI=1S/C4H7N3O/c1-7-2-3(8)6-4(7)5/h2H2,1H3,(H2,5,6,8)
INCHIAUX=N/A
PUBMED=N/A
SUBMITUSER=mwang87
TAGS=
LIBRARYQUALITY=3
SPECTRUMID=CCMSLIB00000425616
SCANS=588
44.302 33.725 
END IONS

BEGIN IONS
PEPMASS=169.098
CHARGE=1+
MSLEVEL=2
SOURCE_INSTRUMENT=Positive-Quattro_QQQ:40eV
FILENAME=hmdb_intermediate.mgf
SEQ=*..*
IONMODE=Positive
ORGANISM=HMDB
NAME=HMDB:HMDB01431-1576 Pyridoxamine M+H
PI=HMDB
DATACOLLECTOR=HMDB
SMILES=CC1=C(O)C(CN)=C(CO)C=N1
INCHI=InChI=1S/C8H12N2O2/c1-5-8(12)7(2-9)6(4-11)3-10-5/h3,11-12H,2,4,9H2,1H3
INCHIAUX=N/A
PUBMED=N/A
SUBMITUSER=mwang87
TAGS=
LIBRARYQUALITY=3
SPECTRUMID=CCMSLIB00000425617
SCANS=589
51.279 5.063 
53.262 11.173 
END IONS

BEGIN IONS
PEPMASS=129.066
CHARGE=1+
MSLEVEL=2
SOURCE_INSTRUMENT=Positive-Quattro_QQQ:40eV
FILENAME=hmdb_intermediate.mgf
SEQ=*..*
IONMODE=Positive
ORGANISM=HMDB
NAME=HMDB:HMDB00079-131 Dihydrothymine M+H
PI=HMDB
DATACOLLECTOR=HMDB
SMILES=CC1CNC(=O)NC1=O
INCHI=InChI=1S/C5H8N2O2/c1-3-2-6-5(9)7-4(3)8/h3H,2H2,1H3,(H2,6,7,8,9)
INCHIAUX=N/A
PUBMED=N/A
SUBMITUSER=mwang87
TAGS=
LIBRARYQUALITY=3
SPECTRUMID=CCMSLIB00000425618
SCANS=590
41.338 100.0 
43.282 11.411 
44.281 23.548 
END IONS

BEGIN IONS
PEPMASS=160.097
CHARGE=1+
MSLEVEL=2
SOURCE_INSTRUMENT=Positive-Quattro_QQQ:25eV
FILENAME=hmdb_intermediate.mgf
SEQ=*..*
IONMODE=Positive
ORGANISM=HMDB
NAME=HMDB:HMDB00927-1319 Valerylglycine M+H
PI=HMDB
DATACOLLECTOR=HMDB
SMILES=CCCCC(=O)NCC(O)=O
INCHI=InChI=1S/C7H13NO3/c1-2-3-4-6(9)8-5-7(10)11/h2-5H2,1H3,(H,8,9)(H,10,11)
INCHIAUX=N/A
PUBMED=N/A
SUBMITUSER=mwang87
TAGS=
LIBRARYQUALITY=3
SPECTRUMID=CCMSLIB00000425619
SCANS=591
41.659 28.182 
END IONS

BEGIN IONS
PEPMASS=99.0446
CHARGE=1+
MSLEVEL=2
SOURCE_INSTRUMENT=Negative-Quattro_QQQ:25eV
FILENAME=hmdb_intermediate.mgf
SEQ=*..*
IONMODE=Negative
ORGANISM=HMDB
NAME=HMDB:HMDB00509-729 Senecioic acid M-H
PI=HMDB
DATACOLLECTOR=HMDB
SMILES=CC(C)=CC(O)=O
INCHI=InChI=1S/C5H8O2/c1-4(2)3-5(6)7/h3H,1-2H3,(H,6,7)
INCHIAUX=N/A
PUBMED=N/A
SUBMITUSER=mwang87
TAGS=
LIBRARYQUALITY=3
SPECTRUMID=CCMSLIB00000425622
SCANS=594
41.651 9.33 
END IONS

BEGIN IONS
PEPMASS=171.029
CHARGE=1+
MSLEVEL=2
SOURCE_INSTRUMENT=Positive-Quattro_QQQ:40eV
FILENAME=hmdb_intermediate.mgf
SEQ=*..*
IONMODE=Positive
ORGANISM=HMDB
NAME=HMDB:HMDB05807-2456 Gallic acid M+H
PI=HMDB
DATACOLLECTOR=HMDB
SMILES=OC(=O)C1=CC(O)=C(O)C(O)=C1
INCHI=InChI=1S/C7H6O5/c8-4-1-3(7(11)12)2-5(9)6(4)10/h1-2,8-10H,(H,11,12)
INCHIAUX=N/A
PUBMED=N/A
SUBMITUSER=mwang87
TAGS=
LIBRARYQUALITY=3
SPECTRUMID=CCMSLIB00000425625
SCANS=597
41.0 11.012 
45.0 8.207 
51.0 70.878 
52.0 11.147 
53.0 82.024 
END IONS

BEGIN IONS
PEPMASS=60.0813
CHARGE=1+
MSLEVEL=2
SOURCE_INSTRUMENT=Positive-Quattro_QQQ:10eV
FILENAME=hmdb_intermediate.mgf
SEQ=*..*
IONMODE=Positive
ORGANISM=HMDB
NAME=HMDB:HMDB00906-1292 Trimethylamine M+H
PI=HMDB
DATACOLLECTOR=HMDB
SMILES=CN(C)C
INCHI=InChI=1S/C3H9N/c1-4(2)3/h1-3H3
INCHIAUX=N/A
PUBMED=N/A
SUBMITUSER=mwang87
TAGS=
LIBRARYQUALITY=3
SPECTRUMID=CCMSLIB00000425628
SCANS=600
44.0 21.137 
END IONS

BEGIN IONS
PEPMASS=365.233
CHARGE=1+
MSLEVEL=2
SOURCE_INSTRUMENT=Positive-Quattro_QQQ:25eV
FILENAME=hmdb_intermediate.mgf
SEQ=*..*
IONMODE=Positive
ORGANISM=HMDB
NAME=HMDB:HMDB00903-1284 Tetrahydrocortisone M+H
PI=HMDB
DATACOLLECTOR=HMDB
SMILES=[H][C@@]12CC[C@](O)(C(=O)CO)[C@@]1(C)CC(=O)[C@@]1([H])[C@@]2([H])CC[C@@]2([H])C[C@@H](O)CC[C@]12C
INCHI=InChI=1S/C21H32O5/c1-19-7-5-13(23)9-12(19)3-4-14-15-6-8-21(26,17(25)11-22)20(15,2)10-16(24)18(14)19/h12-15,18,22-23,26H,3-11H2,1-2H3/t12-,13-,14-,15-,18+,19-,20-,21-/m0/s1
INCHIAUX=N/A
PUBMED=N/A
SUBMITUSER=mwang87
TAGS=
LIBRARYQUALITY=3
SPECTRUMID=CCMSLIB00000425633
SCANS=605
43.579 14.535 
END IONS

BEGIN IONS
PEPMASS=116.071
CHARGE=1+
MSLEVEL=2
SOURCE_INSTRUMENT=Positive-Quattro_QQQ:25eV
FILENAME=hmdb_intermediate.mgf
SEQ=*..*
IONMODE=Positive
ORGANISM=HMDB
NAME=HMDB:HMDB00162-255 L-Proline M+H
PI=HMDB
DATACOLLECTOR=HMDB
SMILES=OC(=O)[C@@H]1CCCN1
INCHI=InChI=1S/C5H9NO2/c7-5(8)4-2-1-3-6-4/h4,6H,1-3H2,(H,7,8)/t4-/m0/s1
INCHIAUX=N/A
PUBMED=N/A
SUBMITUSER=mwang87
TAGS=
LIBRARYQUALITY=3
SPECTRUMID=CCMSLIB00000425637
SCANS=609
43.334 4.206 
END IONS

BEGIN IONS
PEPMASS=73.0653
CHARGE=1+
MSLEVEL=2
SOURCE_INSTRUMENT=Positive-Quattro_QQQ:25eV
FILENAME=hmdb_intermediate.mgf
SEQ=*..*
IONMODE=Positive
ORGANISM=HMDB
NAME=HMDB:HMDB03543-2323 Butanal M+H
PI=HMDB
DATACOLLECTOR=HMDB
SMILES=CCCC=O
INCHI=InChI=1S/C4H8O/c1-2-3-4-5/h4H,2-3H2,1H3
INCHIAUX=N/A
PUBMED=N/A
SUBMITUSER=mwang87
TAGS=
LIBRARYQUALITY=3
SPECTRUMID=CCMSLIB00000425639
SCANS=611
31.0 26.887 
43.0 100.0 
44.0 23.606 
45.0 28.741 
53.0 10.055 
END IONS

BEGIN IONS
PEPMASS=159.052
CHARGE=1+
MSLEVEL=2
SOURCE_INSTRUMENT=Positive-Quattro_QQQ:40eV
FILENAME=hmdb_intermediate.mgf
SEQ=*..*
IONMODE=Positive
ORGANISM=HMDB
NAME=HMDB:HMDB00462-673 Allantoin M+H
PI=HMDB
DATACOLLECTOR=HMDB
SMILES=NC(=O)NC1NC(=O)NC1=O
INCHI=InChI=1S/C4H6N4O3/c5-3(10)6-1-2(9)8-4(11)7-1/h1H,(H3,5,6,10)(H2,7,8,9,11)
INCHIAUX=N/A
PUBMED=N/A
SUBMITUSER=mwang87
TAGS=
LIBRARYQUALITY=3
SPECTRUMID=CCMSLIB00000425641
SCANS=613
44.268 100.0 
45.431 11.413 
END IONS

BEGIN IONS
PEPMASS=122.097
CHARGE=1+
MSLEVEL=2
SOURCE_INSTRUMENT=Positive-Quattro_QQQ:25eV
FILENAME=hmdb_intermediate.mgf
SEQ=*..*
IONMODE=Positive
ORGANISM=HMDB
NAME=HMDB:HMDB02017-1948 1-Phenylethylamine M+H
PI=HMDB
DATACOLLECTOR=HMDB
SMILES=CC(N)C1=CC=CC=C1
INCHI=InChI=1S/C8H11N/c1-7(9)8-5-3-2-4-6-8/h2-7H,9H2,1H3
INCHIAUX=N/A
PUBMED=N/A
SUBMITUSER=mwang87
TAGS=
LIBRARYQUALITY=3
SPECTRUMID=CCMSLIB00000425650
SCANS=622
43.25 17.827 
51.27 26.177 
END IONS

BEGIN IONS
PEPMASS=171.139
CHARGE=1+
MSLEVEL=2
SOURCE_INSTRUMENT=Positive-Quattro_QQQ:40eV
FILENAME=hmdb_intermediate.mgf
SEQ=*..*
IONMODE=Positive
ORGANISM=HMDB
NAME=HMDB:HMDB04980-2417 cis-4-Decenoic acid M+H
PI=HMDB
DATACOLLECTOR=HMDB
SMILES=CCCCC\C=C/CCC(O)=O
INCHI=InChI=1S/C10H18O2/c1-2-3-4-5-6-7-8-9-10(11)12/h6-7H,2-5,8-9H2,1H3,(H,11,12)/b7-6-
INCHIAUX=N/A
PUBMED=N/A
SUBMITUSER=mwang87
TAGS=
LIBRARYQUALITY=3
SPECTRUMID=CCMSLIB00000425658
SCANS=630
41.0 71.371 
42.0 33.466 
43.0 100.0 
44.0 69.761 
END IONS

BEGIN IONS
PEPMASS=89.1079
CHARGE=1+
MSLEVEL=2
SOURCE_INSTRUMENT=Positive-Quattro_QQQ:25eV
FILENAME=hmdb_intermediate.mgf
SEQ=*..*
IONMODE=Positive
ORGANISM=HMDB
NAME=HMDB:HMDB01414-1569 Putrescine M+H
PI=HMDB
DATACOLLECTOR=HMDB
SMILES=NCCCCN
INCHI=InChI=1S/C4H12N2/c5-3-1-2-4-6/h1-6H2
INCHIAUX=N/A
PUBMED=N/A
SUBMITUSER=mwang87
TAGS=
LIBRARYQUALITY=3
SPECTRUMID=CCMSLIB00000425662
SCANS=634
44.261 7.552 
END IONS

BEGIN IONS
PEPMASS=152.071
CHARGE=1+
MSLEVEL=2
SOURCE_INSTRUMENT=Positive-Quattro_QQQ:40eV
FILENAME=hmdb_intermediate.mgf
SEQ=*..*
IONMODE=Positive
ORGANISM=HMDB
NAME=HMDB:HMDB01859-1734 Acetaminophen M+H
PI=HMDB
DATACOLLECTOR=HMDB
SMILES=CC(=O)NC1=CC=C(O)C=C1
INCHI=InChI=1S/C8H9NO2/c1-6(10)9-7-2-4-8(11)5-3-7/h2-5,11H,1H3,(H,9,10)
INCHIAUX=N/A
PUBMED=N/A
SUBMITUSER=mwang87
TAGS=
LIBRARYQUALITY=3
SPECTRUMID=CCMSLIB00000425668
SCANS=640
39.317 39.448 
39.693 26.89 
43.327 73.833 
43.577 65.113 
END IONS

BEGIN IONS
PEPMASS=133.014
CHARGE=1+
MSLEVEL=2
SOURCE_INSTRUMENT=Negative-Quattro_QQQ:25eV
FILENAME=hmdb_intermediate.mgf
SEQ=*..*
IONMODE=Negative
ORGANISM=HMDB
NAME=HMDB:HMDB00744-1057 Malic acid M-H
PI=HMDB
DATACOLLECTOR=HMDB
SMILES=OC(CC(O)=O)C(O)=O
INCHI=InChI=1S/C4H6O5/c5-2(4(8)9)1-3(6)7/h2,5H,1H2,(H,6,7)(H,8,9)
INCHIAUX=N/A
PUBMED=N/A
SUBMITUSER=mwang87
TAGS=
LIBRARYQUALITY=3
SPECTRUMID=CCMSLIB00000425671
SCANS=643
43.248 39.306 
45.207 17.197 
END IONS

BEGIN IONS
PEPMASS=75.0082
CHARGE=1+
MSLEVEL=2
SOURCE_INSTRUMENT=Negative-Quattro_QQQ:40eV
FILENAME=hmdb_intermediate.mgf
SEQ=*..*
IONMODE=Negative
ORGANISM=HMDB
NAME=HMDB:HMDB00115-167 Glycolic acid M-H
PI=HMDB
DATACOLLECTOR=HMDB
SMILES=OCC(O)=O
INCHI=InChI=1S/C2H4O3/c3-1-2(4)5/h3H,1H2,(H,4,5)
INCHIAUX=N/A
PUBMED=N/A
SUBMITUSER=mwang87
TAGS=
LIBRARYQUALITY=3
SPECTRUMID=CCMSLIB00000425672
SCANS=644
45.234 18.199 
47.294 6.25 
END IONS

BEGIN IONS
PEPMASS=183.087
CHARGE=1+
MSLEVEL=2
SOURCE_INSTRUMENT=Positive-Quattro_QQQ:25eV
FILENAME=hmdb_intermediate.mgf
SEQ=*..*
IONMODE=Positive
ORGANISM=HMDB
NAME=HMDB:HMDB00247-422 Sorbitol M+H
PI=HMDB
DATACOLLECTOR=HMDB
SMILES=OC[C@H](O)[C@@H](O)[C@H](O)[C@H](O)CO
INCHI=InChI=1S/C6H14O6/c7-1-3(9)5(11)6(12)4(10)2-8/h3-12H,1-2H2/t3-,4+,5-,6-/m1/s1
INCHIAUX=N/A
PUBMED=N/A
SUBMITUSER=mwang87
TAGS=
LIBRARYQUALITY=3
SPECTRUMID=CCMSLIB00000425673
SCANS=645
41.363 10.347 
43.33 30.556 
45.321 19.167 
53.269 9.722 
END IONS

BEGIN IONS
PEPMASS=131.071
CHARGE=1+
MSLEVEL=2
SOURCE_INSTRUMENT=Negative-Quattro_QQQ:40eV
FILENAME=hmdb_intermediate.mgf
SEQ=*..*
IONMODE=Negative
ORGANISM=HMDB
NAME=HMDB:HMDB01624-1665 2-Hydroxycaproic acid M-H
PI=HMDB
DATACOLLECTOR=HMDB
SMILES=CCCCC(O)C(O)=O
INCHI=InChI=1S/C6H12O3/c1-2-3-4-5(7)6(8)9/h5,7H,2-4H2,1H3,(H,8,9)
INCHIAUX=N/A
PUBMED=N/A
SUBMITUSER=mwang87
TAGS=
LIBRARYQUALITY=3
SPECTRUMID=CCMSLIB00000425674
SCANS=646
45.49 100.0 
END IONS

BEGIN IONS
PEPMASS=315.232
CHARGE=1+
MSLEVEL=2
SOURCE_INSTRUMENT=Positive-Quattro_QQQ:40eV
FILENAME=hmdb_intermediate.mgf
SEQ=*..*
IONMODE=Positive
ORGANISM=HMDB
NAME=HMDB:HMDB01830-1686 Progesterone M+H
PI=HMDB
DATACOLLECTOR=HMDB
SMILES=[H][C@@]12CC[C@H](C(C)=O)[C@@]1(C)CC[C@@]1([H])[C@@]2([H])CCC2=CC(=O)CC[C@]12C
INCHI=InChI=1S/C21H30O2/c1-13(22)17-6-7-18-16-5-4-14-12-15(23)8-10-20(14,2)19(16)9-11-21(17,18)3/h12,16-19H,4-11H2,1-3H3/t16-,17+,18-,19-,20-,21+/m0/s1
INCHIAUX=N/A
PUBMED=N/A
SUBMITUSER=mwang87
TAGS=
LIBRARYQUALITY=3
SPECTRUMID=CCMSLIB00000425680
SCANS=652
43.587 15.625 
END IONS

BEGIN IONS
PEPMASS=175.024
CHARGE=1+
MSLEVEL=2
SOURCE_INSTRUMENT=Positive-Quattro_QQQ:10eV
FILENAME=hmdb_intermediate.mgf
SEQ=*..*
IONMODE=Positive
ORGANISM=HMDB
NAME=HMDB:HMDB00958-1360 trans-Aconitic acid M+H
PI=HMDB
DATACOLLECTOR=HMDB
SMILES=OC(=O)C\C(=C/C(O)=O)C(O)=O
INCHI=InChI=1S/C6H6O6/c7-4(8)1-3(6(11)12)2-5(9)10/h1H,2H2,(H,7,8)(H,9,10)(H,11,12)/b3-1+
INCHIAUX=N/A
PUBMED=N/A
SUBMITUSER=mwang87
TAGS=
LIBRARYQUALITY=3
SPECTRUMID=CCMSLIB00000425683
SCANS=655
41.393 4.358 
END IONS

BEGIN IONS
PEPMASS=123.066
CHARGE=1+
MSLEVEL=2
SOURCE_INSTRUMENT=Positive-Quattro_QQQ:25eV
FILENAME=hmdb_intermediate.mgf
SEQ=*..*
IONMODE=Positive
ORGANISM=HMDB
NAME=HMDB:HMDB02994-2180 Erythritol M+H
PI=HMDB
DATACOLLECTOR=HMDB
SMILES=OC[C@H](O)[C@H](O)CO
INCHI=InChI=1S/C4H10O4/c5-1-3(7)4(8)2-6/h3-8H,1-2H2/t3-,4+
INCHIAUX=N/A
PUBMED=N/A
SUBMITUSER=mwang87
TAGS=
LIBRARYQUALITY=3
SPECTRUMID=CCMSLIB00000425686
SCANS=658
30.0 36.524 
31.0 47.896 
41.0 87.496 
42.0 44.568 
43.0 100.0 
44.0 37.662 
45.0 42.851 
END IONS

BEGIN IONS
PEPMASS=133.065
CHARGE=1+
MSLEVEL=2
SOURCE_INSTRUMENT=Positive-Quattro_QQQ:40eV
FILENAME=hmdb_intermediate.mgf
SEQ=*..*
IONMODE=Positive
ORGANISM=HMDB
NAME=HMDB:HMDB03441-2312 Cinnamaldehyde M+H
PI=HMDB
DATACOLLECTOR=HMDB
SMILES=O=C\C=C\C1=CC=CC=C1
INCHI=InChI=1S/C9H8O/c10-8-4-7-9-5-2-1-3-6-9/h1-8H/b7-4+
INCHIAUX=N/A
PUBMED=N/A
SUBMITUSER=mwang87
TAGS=
LIBRARYQUALITY=3
SPECTRUMID=CCMSLIB00000425692
SCANS=664
27.0 13.531 
31.0 21.025 
39.0 4.665 
51.0 42.022 
END IONS

BEGIN IONS
PEPMASS=138.055
CHARGE=1+
MSLEVEL=2
SOURCE_INSTRUMENT=Positive-Quattro_QQQ:40eV
FILENAME=hmdb_intermediate.mgf
SEQ=*..*
IONMODE=Positive
ORGANISM=HMDB
NAME=HMDB:HMDB00875-1237 Trigonelline M+H
PI=HMDB
DATACOLLECTOR=HMDB
SMILES=C[N+]1=CC(=CC=C1)C([O-])=O
INCHI=InChI=1S/C7H7NO2/c1-8-4-2-3-6(5-8)7(9)10/h2-5H,1H3
INCHIAUX=N/A
PUBMED=N/A
SUBMITUSER=mwang87
TAGS=
LIBRARYQUALITY=3
SPECTRUMID=CCMSLIB00000425694
SCANS=666
39.419 24.053 
39.544 32.416 
41.416 23.165 
41.665 25.034 
42.539 16.164 
51.4 30.509 
52.149 52.126 
52.523 49.883 
END IONS

BEGIN IONS
PEPMASS=122.097
CHARGE=1+
MSLEVEL=2
SOURCE_INSTRUMENT=Positive-Quattro_QQQ:10eV
FILENAME=hmdb_intermediate.mgf
SEQ=*..*
IONMODE=Positive
ORGANISM=HMDB
NAME=HMDB:HMDB02017-1947 1-Phenylethylamine M+H
PI=HMDB
DATACOLLECTOR=HMDB
SMILES=CC(N)C1=CC=CC=C1
INCHI=InChI=1S/C8H11N/c1-7(9)8-5-3-2-4-6-8/h2-7H,9H2,1H3
INCHIAUX=N/A
PUBMED=N/A
SUBMITUSER=mwang87
TAGS=
LIBRARYQUALITY=3
SPECTRUMID=CCMSLIB00000425696
SCANS=668
43.15 18.293 
END IONS

BEGIN IONS
PEPMASS=118.05
CHARGE=1+
MSLEVEL=2
SOURCE_INSTRUMENT=Positive-Quattro_QQQ:40eV
FILENAME=hmdb_intermediate.mgf
SEQ=*..*
IONMODE=Positive
ORGANISM=HMDB
NAME=HMDB:HMDB00532-754 Acetylglycine M+H
PI=HMDB
DATACOLLECTOR=HMDB
SMILES=CC(=O)NCC(O)=O
INCHI=InChI=1S/C4H7NO3/c1-3(6)5-2-4(7)8/h2H2,1H3,(H,5,6)(H,7,8)
INCHIAUX=N/A
PUBMED=N/A
SUBMITUSER=mwang87
TAGS=
LIBRARYQUALITY=3
SPECTRUMID=CCMSLIB00000425703
SCANS=675
43.205 100.0 
END IONS

BEGIN IONS
PEPMASS=115.112
CHARGE=1+
MSLEVEL=2
SOURCE_INSTRUMENT=Positive-Quattro_QQQ:40eV
FILENAME=hmdb_intermediate.mgf
SEQ=*..*
IONMODE=Positive
ORGANISM=HMDB
NAME=HMDB:HMDB04814-2408 4-Heptanone M+H
PI=HMDB
DATACOLLECTOR=HMDB
SMILES=CCCC(=O)CCC
INCHI=InChI=1S/C7H14O/c1-3-5-7(8)6-4-2/h3-6H2,1-2H3
INCHIAUX=N/A
PUBMED=N/A
SUBMITUSER=mwang87
TAGS=
LIBRARYQUALITY=3
SPECTRUMID=CCMSLIB00000425704
SCANS=676
27.37 58.247 
29.4 100.0 
29.5 18.343 
31.4 43.26 
39.24 25.314 
41.31 47.077 
43.2 30.298 
43.56 17.539 
END IONS

BEGIN IONS
PEPMASS=165.076
CHARGE=1+
MSLEVEL=2
SOURCE_INSTRUMENT=Positive-Quattro_QQQ:25eV
FILENAME=hmdb_intermediate.mgf
SEQ=*..*
IONMODE=Positive
ORGANISM=HMDB
NAME=HMDB:HMDB02712-2126 1,5-Anhydrosorbitol M+H
PI=HMDB
DATACOLLECTOR=HMDB
SMILES=OC[C@H]1OC[C@H](O)[C@@H](O)[C@@H]1O
INCHI=InChI=1S/C6H12O5/c7-1-4-6(10)5(9)3(8)2-11-4/h3-10H,1-2H2/t3-,4+,5+,6+/m0/s1
INCHIAUX=N/A
PUBMED=N/A
SUBMITUSER=mwang87
TAGS=
LIBRARYQUALITY=3
SPECTRUMID=CCMSLIB00000425705
SCANS=677
41.0 3.483 
43.0 3.355 
45.0 3.41 
END IONS

BEGIN IONS
PEPMASS=75.0922
CHARGE=1+
MSLEVEL=2
SOURCE_INSTRUMENT=Positive-Quattro_QQQ:25eV
FILENAME=hmdb_intermediate.mgf
SEQ=*..*
IONMODE=Positive
ORGANISM=HMDB
NAME=HMDB:HMDB00002-5 1,3-Diaminopropane M+H
PI=HMDB
DATACOLLECTOR=HMDB
SMILES=NCCCN
INCHI=InChI=1S/C3H10N2/c4-2-1-3-5/h1-5H2
INCHIAUX=N/A
PUBMED=N/A
SUBMITUSER=mwang87
TAGS=
LIBRARYQUALITY=3
SPECTRUMID=CCMSLIB00000425710
SCANS=682
30.381 100.0 
41.312 29.514 
43.217 21.701 
END IONS

BEGIN IONS
PEPMASS=118.062
CHARGE=1+
MSLEVEL=2
SOURCE_INSTRUMENT=Positive-Quattro_QQQ:25eV
FILENAME=hmdb_intermediate.mgf
SEQ=*..*
IONMODE=Positive
ORGANISM=HMDB
NAME=HMDB:HMDB00128-195 Guanidoacetic acid M+H
PI=HMDB
DATACOLLECTOR=HMDB
SMILES=NC(=N)NCC(O)=O
INCHI=InChI=1S/C3H7N3O2/c4-3(5)6-1-2(7)8/h1H2,(H,7,8)(H4,4,5,6)
INCHIAUX=N/A
PUBMED=N/A
SUBMITUSER=mwang87
TAGS=
LIBRARYQUALITY=3
SPECTRUMID=CCMSLIB00000425711
SCANS=683
43.322 100.0 
44.462 8.574 
END IONS

BEGIN IONS
PEPMASS=159.066
CHARGE=1+
MSLEVEL=2
SOURCE_INSTRUMENT=Positive-Quattro_QQQ:25eV
FILENAME=hmdb_intermediate.mgf
SEQ=*..*
IONMODE=Positive
ORGANISM=HMDB
NAME=HMDB:HMDB00635-868 Succinylacetone M+H
PI=HMDB
DATACOLLECTOR=HMDB
SMILES=CC(=O)CC(=O)CCC(O)=O
INCHI=InChI=1S/C7H10O4/c1-5(8)4-6(9)2-3-7(10)11/h2-4H2,1H3,(H,10,11)
INCHIAUX=N/A
PUBMED=N/A
SUBMITUSER=mwang87
TAGS=
LIBRARYQUALITY=3
SPECTRUMID=CCMSLIB00000425716
SCANS=688
43.2 58.105 
END IONS

BEGIN IONS
PEPMASS=142.027
CHARGE=1+
MSLEVEL=2
SOURCE_INSTRUMENT=Positive-Quattro_QQQ:25eV
FILENAME=hmdb_intermediate.mgf
SEQ=*..*
IONMODE=Positive
ORGANISM=HMDB
NAME=HMDB:HMDB60152-371 O-Phosphoethanolamine M+H
PI=HMDB
DATACOLLECTOR=HMDB
SMILES=NCCOP(O)(O)=O
INCHI=InChI=1S/C2H8NO4P/c3-1-2-7-8(4,5)6/h1-3H2,(H2,4,5,6)
INCHIAUX=N/A
PUBMED=N/A
SUBMITUSER=mwang87
TAGS=
LIBRARYQUALITY=3
SPECTRUMID=CCMSLIB00000425720
SCANS=692
44.621 100.0 
END IONS

BEGIN IONS
PEPMASS=94.0657
CHARGE=1+
MSLEVEL=2
SOURCE_INSTRUMENT=Positive-Quattro_QQQ:40eV
FILENAME=hmdb_intermediate.mgf
SEQ=*..*
IONMODE=Positive
ORGANISM=HMDB
NAME=HMDB:HMDB03012-2184 Aniline M+H
PI=HMDB
DATACOLLECTOR=HMDB
SMILES=NC1=CC=CC=C1
INCHI=InChI=1S/C6H7N/c7-6-4-2-1-3-5-6/h1-5H,7H2
INCHIAUX=N/A
PUBMED=N/A
SUBMITUSER=mwang87
TAGS=
LIBRARYQUALITY=3
SPECTRUMID=CCMSLIB00000425721
SCANS=693
51.0 100.0 
END IONS

BEGIN IONS
PEPMASS=132.102
CHARGE=1+
MSLEVEL=2
SOURCE_INSTRUMENT=Positive-Quattro_QQQ:25eV
FILENAME=hmdb_intermediate.mgf
SEQ=*..*
IONMODE=Positive
ORGANISM=HMDB
NAME=HMDB:HMDB01645-1670 L-Norleucine M+H
PI=HMDB
DATACOLLECTOR=HMDB
SMILES=CCCC[C@H](N)C(O)=O
INCHI=InChI=1S/C6H13NO2/c1-2-3-4-5(7)6(8)9/h5H,2-4,7H2,1H3,(H,8,9)/t5-/m0/s1
INCHIAUX=N/A
PUBMED=N/A
SUBMITUSER=mwang87
TAGS=
LIBRARYQUALITY=3
SPECTRUMID=CCMSLIB00000425723
SCANS=695
41.313 38.478 
43.318 30.435 
44.426 5.761 
END IONS

BEGIN IONS
PEPMASS=229.082
CHARGE=1+
MSLEVEL=2
SOURCE_INSTRUMENT=Positive-Quattro_QQQ:25eV
FILENAME=hmdb_intermediate.mgf
SEQ=*..*
IONMODE=Positive
ORGANISM=HMDB
NAME=HMDB:HMDB00012-20 Deoxyuridine M+H
PI=HMDB
DATACOLLECTOR=HMDB
SMILES=OC[C@H]1O[C@H](C[C@@H]1O)N1C=CC(=O)NC1=O
INCHI=InChI=1S/C9H12N2O5/c12-4-6-5(13)3-8(16-6)11-2-1-7(14)10-9(11)15/h1-2,5-6,8,12-13H,3-4H2,(H,10,14,15)/t5-,6+,8+/m0/s1
INCHIAUX=N/A
PUBMED=N/A
SUBMITUSER=mwang87
TAGS=
LIBRARYQUALITY=3
SPECTRUMID=CCMSLIB00000425727
SCANS=699
43.356 16.5 
45.323 10.3 
END IONS

BEGIN IONS
PEPMASS=425.436
CHARGE=1+
MSLEVEL=2
SOURCE_INSTRUMENT=Positive-Quattro_QQQ:40eV
FILENAME=hmdb_intermediate.mgf
SEQ=*..*
IONMODE=Positive
ORGANISM=HMDB
NAME=HMDB:HMDB02348-2072 Octacosanoic acid M+H
PI=HMDB
DATACOLLECTOR=HMDB
SMILES=CCCCCCCCCCCCCCCCCCCCCCCCCCCC(O)=O
INCHI=InChI=1S/C28H56O2/c1-2-3-4-5-6-7-8-9-10-11-12-13-14-15-16-17-18-19-20-21-22-23-24-25-26-27-28(29)30/h2-27H2,1H3,(H,29,30)
INCHIAUX=N/A
PUBMED=N/A
SUBMITUSER=mwang87
TAGS=
LIBRARYQUALITY=3
SPECTRUMID=CCMSLIB00000425728
SCANS=700
23.0 49.526 
END IONS

BEGIN IONS
PEPMASS=115.112
CHARGE=1+
MSLEVEL=2
SOURCE_INSTRUMENT=Positive-Quattro_QQQ:40eV
FILENAME=hmdb_intermediate.mgf
SEQ=*..*
IONMODE=Positive
ORGANISM=HMDB
NAME=HMDB:HMDB03671-2342 2-Heptanone M+H
PI=HMDB
DATACOLLECTOR=HMDB
SMILES=CCCCCC(C)=O
INCHI=InChI=1S/C7H14O/c1-3-4-5-6-7(2)8/h3-6H2,1-2H3
INCHIAUX=N/A
PUBMED=N/A
SUBMITUSER=mwang87
TAGS=
LIBRARYQUALITY=3
SPECTRUMID=CCMSLIB00000425732
SCANS=704
29.33 19.714 
53.37 20.082 
END IONS

BEGIN IONS
PEPMASS=107.05
CHARGE=1+
MSLEVEL=2
SOURCE_INSTRUMENT=Positive-Quattro_QQQ:25eV
FILENAME=hmdb_intermediate.mgf
SEQ=*..*
IONMODE=Positive
ORGANISM=HMDB
NAME=HMDB:HMDB06115-2473 Benzaldehyde M+H
PI=HMDB
DATACOLLECTOR=HMDB
SMILES=O=CC1=CC=CC=C1
INCHI=InChI=1S/C7H6O/c8-6-7-4-2-1-3-5-7/h1-6H
INCHIAUX=N/A
PUBMED=N/A
SUBMITUSER=mwang87
TAGS=
LIBRARYQUALITY=3
SPECTRUMID=CCMSLIB00000425733
SCANS=705
45.0 9.543 
51.0 7.71 
END IONS

BEGIN IONS
PEPMASS=141.092
CHARGE=1+
MSLEVEL=2
SOURCE_INSTRUMENT=Negative-Quattro_QQQ:25eV
FILENAME=hmdb_intermediate.mgf
SEQ=*..*
IONMODE=Negative
ORGANISM=HMDB
NAME=HMDB:HMDB01568-1655 trans-2-Octenoic acid M-H
PI=HMDB
DATACOLLECTOR=HMDB
SMILES=CCCCC\C=C\C(O)=O
INCHI=InChI=1S/C8H14O2/c1-2-3-4-5-6-7-8(9)10/h6-7H,2-5H2,1H3,(H,9,10)/b7-6+
INCHIAUX=N/A
PUBMED=N/A
SUBMITUSER=mwang87
TAGS=
LIBRARYQUALITY=3
SPECTRUMID=CCMSLIB00000425734
SCANS=706
40.203 4.5 
41.303 5.167 
END IONS

BEGIN IONS
PEPMASS=73.029
CHARGE=1+
MSLEVEL=2
SOURCE_INSTRUMENT=Positive-Quattro_QQQ:25eV
FILENAME=hmdb_intermediate.mgf
SEQ=*..*
IONMODE=Positive
ORGANISM=HMDB
NAME=HMDB:HMDB01167-1443 Pyruvaldehyde M+H
PI=HMDB
DATACOLLECTOR=HMDB
SMILES=CC(=O)C=O
INCHI=InChI=1S/C3H4O2/c1-3(5)2-4/h2H,1H3
INCHIAUX=N/A
PUBMED=N/A
SUBMITUSER=mwang87
TAGS=
LIBRARYQUALITY=3
SPECTRUMID=CCMSLIB00000425745
SCANS=717
39.0 19.945 
41.0 41.969 
43.0 70.842 
45.0 100.0 
END IONS

BEGIN IONS
PEPMASS=173.06
CHARGE=1+
MSLEVEL=2
SOURCE_INSTRUMENT=Positive-Quattro_QQQ:40eV
FILENAME=hmdb_intermediate.mgf
SEQ=*..*
IONMODE=Positive
ORGANISM=HMDB
NAME=HMDB:HMDB01892-1803 Menadione M+H
PI=HMDB
DATACOLLECTOR=HMDB
SMILES=CC1=CC(=O)C2=CC=CC=C2C1=O
INCHI=InChI=1S/C11H8O2/c1-7-6-10(12)8-4-2-3-5-9(8)11(7)13/h2-6H,1H3
INCHIAUX=N/A
PUBMED=N/A
SUBMITUSER=mwang87
TAGS=
LIBRARYQUALITY=3
SPECTRUMID=CCMSLIB00000425746
SCANS=718
51.244 12.486 
51.621 15.612 
END IONS

BEGIN IONS
PEPMASS=157.061
CHARGE=1+
MSLEVEL=2
SOURCE_INSTRUMENT=Positive-Quattro_QQQ:25eV
FILENAME=hmdb_intermediate.mgf
SEQ=*..*
IONMODE=Positive
ORGANISM=HMDB
NAME=HMDB:HMDB00544-765 5-Hydroxymethyl-4-methyluracil M+H
PI=HMDB
DATACOLLECTOR=HMDB
SMILES=CC1=C(CO)C(=O)NC(=O)N1
INCHI=InChI=1S/C6H8N2O3/c1-3-4(2-9)5(10)8-6(11)7-3/h9H,2H2,1H3,(H2,7,8,10,11)
INCHIAUX=N/A
PUBMED=N/A
SUBMITUSER=mwang87
TAGS=
LIBRARYQUALITY=3
SPECTRUMID=CCMSLIB00000425754
SCANS=726
42.342 86.184 
END IONS

BEGIN IONS
PEPMASS=131.071
CHARGE=1+
MSLEVEL=2
SOURCE_INSTRUMENT=Negative-Quattro_QQQ:25eV
FILENAME=hmdb_intermediate.mgf
SEQ=*..*
IONMODE=Negative
ORGANISM=HMDB
NAME=HMDB:HMDB01624-1664 2-Hydroxycaproic acid M-H
PI=HMDB
DATACOLLECTOR=HMDB
SMILES=CCCCC(O)C(O)=O
INCHI=InChI=1S/C6H12O3/c1-2-3-4-5(7)6(8)9/h5,7H,2-4H2,1H3,(H,8,9)
INCHIAUX=N/A
PUBMED=N/A
SUBMITUSER=mwang87
TAGS=
LIBRARYQUALITY=3
SPECTRUMID=CCMSLIB00000425756
SCANS=728
45.583 100.0 
END IONS

BEGIN IONS
PEPMASS=109.065
CHARGE=1+
MSLEVEL=2
SOURCE_INSTRUMENT=Positive-Quattro_QQQ:25eV
FILENAME=hmdb_intermediate.mgf
SEQ=*..*
IONMODE=Positive
ORGANISM=HMDB
NAME=HMDB:HMDB02055-1972 o-Cresol M+H
PI=HMDB
DATACOLLECTOR=HMDB
SMILES=CC1=CC=CC=C1O
INCHI=InChI=1S/C7H8O/c1-6-4-2-3-5-7(6)8/h2-5,8H,1H3
INCHIAUX=N/A
PUBMED=N/A
SUBMITUSER=mwang87
TAGS=
LIBRARYQUALITY=3
SPECTRUMID=CCMSLIB00000425757
SCANS=729
38.0 10.518 
39.0 8.089 
40.0 14.092 
41.0 10.716 
END IONS

BEGIN IONS
PEPMASS=155.144
CHARGE=1+
MSLEVEL=2
SOURCE_INSTRUMENT=Positive-Quattro_QQQ:25eV
FILENAME=hmdb_intermediate.mgf
SEQ=*..*
IONMODE=Positive
ORGANISM=HMDB
NAME=HMDB:HMDB04472-2392 Eucalyptol M+H
PI=HMDB
DATACOLLECTOR=HMDB
SMILES=CC12CCC(CC1)C(C)(C)O2
INCHI=InChI=1S/C10H18O/c1-9(2)8-4-6-10(3,11-9)7-5-8/h8H,4-7H2,1-3H3
INCHIAUX=N/A
PUBMED=N/A
SUBMITUSER=mwang87
TAGS=
LIBRARYQUALITY=3
SPECTRUMID=CCMSLIB00000425758
SCANS=730
41.0 6.902 
END IONS

BEGIN IONS
PEPMASS=87.0446
CHARGE=1+
MSLEVEL=2
SOURCE_INSTRUMENT=Positive-Quattro_QQQ:10eV
FILENAME=hmdb_intermediate.mgf
SEQ=*..*
IONMODE=Positive
ORGANISM=HMDB
NAME=HMDB:HMDB03407-2286 Diacetyl M+H
PI=HMDB
DATACOLLECTOR=HMDB
SMILES=CC(=O)C(C)=O
INCHI=InChI=1S/C4H6O2/c1-3(5)4(2)6/h1-2H3
INCHIAUX=N/A
PUBMED=N/A
SUBMITUSER=mwang87
TAGS=
LIBRARYQUALITY=3
SPECTRUMID=CCMSLIB00000425764
SCANS=736
42.0 21.977 
43.0 9.616 
44.0 6.648 
45.0 19.925 
END IONS

BEGIN IONS
PEPMASS=121.065
CHARGE=1+
MSLEVEL=2
SOURCE_INSTRUMENT=Positive-Quattro_QQQ:40eV
FILENAME=hmdb_intermediate.mgf
SEQ=*..*
IONMODE=Positive
ORGANISM=HMDB
NAME=HMDB:HMDB06236-2480 Phenylacetaldehyde M+H
PI=HMDB
DATACOLLECTOR=HMDB
SMILES=O=CCC1=CC=CC=C1
INCHI=InChI=1S/C8H8O/c9-7-6-8-4-2-1-3-5-8/h1-5,7H,6H2
INCHIAUX=N/A
PUBMED=N/A
SUBMITUSER=mwang87
TAGS=
LIBRARYQUALITY=3
SPECTRUMID=CCMSLIB00000425767
SCANS=739
51.0 70.02 
END IONS

BEGIN IONS
PEPMASS=78.0377
CHARGE=1+
MSLEVEL=2
SOURCE_INSTRUMENT=Positive-Quattro_QQQ:40eV
FILENAME=hmdb_intermediate.mgf
SEQ=*..*
IONMODE=Positive
ORGANISM=HMDB
NAME=HMDB:HMDB60150-2178 Cysteamine M+H
PI=HMDB
DATACOLLECTOR=HMDB
SMILES=NCCS
INCHI=InChI=1S/C2H7NS/c3-1-2-4/h4H,1-3H2
INCHIAUX=N/A
PUBMED=N/A
SUBMITUSER=mwang87
TAGS=
LIBRARYQUALITY=3
SPECTRUMID=CCMSLIB00000425768
SCANS=740
18.0 32.46 
19.0 14.789 
27.0 100.0 
28.0 23.725 
35.0 54.918 
45.0 22.948 
END IONS

BEGIN IONS
PEPMASS=201.185
CHARGE=1+
MSLEVEL=2
SOURCE_INSTRUMENT=Positive-Quattro_QQQ:40eV
FILENAME=hmdb_intermediate.mgf
SEQ=*..*
IONMODE=Positive
ORGANISM=HMDB
NAME=HMDB:HMDB00638-872 Dodecanoic acid M+H
PI=HMDB
DATACOLLECTOR=HMDB
SMILES=CCCCCCCCCCCC(O)=O
INCHI=InChI=1S/C12H24O2/c1-2-3-4-5-6-7-8-9-10-11-12(13)14/h2-11H2,1H3,(H,13,14)
INCHIAUX=N/A
PUBMED=N/A
SUBMITUSER=mwang87
TAGS=
LIBRARYQUALITY=3
SPECTRUMID=CCMSLIB00000425770
SCANS=742
29.0 47.051 
30.0 43.663 
41.0 88.908 
42.0 50.681 
43.0 92.964 
44.0 58.727 
END IONS

BEGIN IONS
PEPMASS=73.0653
CHARGE=1+
MSLEVEL=2
SOURCE_INSTRUMENT=Positive-Quattro_QQQ:25eV
FILENAME=hmdb_intermediate.mgf
SEQ=*..*
IONMODE=Positive
ORGANISM=HMDB
NAME=HMDB:HMDB00474-693 Butanone M+H
PI=HMDB
DATACOLLECTOR=HMDB
SMILES=CCC(C)=O
INCHI=InChI=1S/C4H8O/c1-3-4(2)5/h3H2,1-2H3
INCHIAUX=N/A
PUBMED=N/A
SUBMITUSER=mwang87
TAGS=
LIBRARYQUALITY=3
SPECTRUMID=CCMSLIB00000425771
SCANS=743
31.0 24.881 
43.0 58.463 
44.0 10.869 
45.0 34.225 
END IONS

BEGIN IONS
PEPMASS=33.034
CHARGE=1+
MSLEVEL=2
SOURCE_INSTRUMENT=Positive-Quattro_QQQ:40eV
FILENAME=hmdb_intermediate.mgf
SEQ=*..*
IONMODE=Positive
ORGANISM=HMDB
NAME=HMDB:HMDB01875-1770 Methanol M+H
PI=HMDB
DATACOLLECTOR=HMDB
SMILES=CO
INCHI=InChI=1S/CH4O/c1-2/h2H,1H3
INCHIAUX=N/A
PUBMED=N/A
SUBMITUSER=mwang87
TAGS=
LIBRARYQUALITY=3
SPECTRUMID=CCMSLIB00000425772
SCANS=744
19.852 100.0 
END IONS

BEGIN IONS
PEPMASS=143.107
CHARGE=1+
MSLEVEL=2
SOURCE_INSTRUMENT=Negative-Quattro_QQQ:40eV
FILENAME=hmdb_intermediate.mgf
SEQ=*..*
IONMODE=Negative
ORGANISM=HMDB
NAME=HMDB:HMDB00482-700 Caprylic acid M-H
PI=HMDB
DATACOLLECTOR=HMDB
SMILES=CCCCCCCC(O)=O
INCHI=InChI=1S/C8H16O2/c1-2-3-4-5-6-7-8(9)10/h2-7H2,1H3,(H,9,10)
INCHIAUX=N/A
PUBMED=N/A
SUBMITUSER=mwang87
TAGS=
LIBRARYQUALITY=3
SPECTRUMID=CCMSLIB00000425773
SCANS=745
45.594 6.391 
END IONS

BEGIN IONS
PEPMASS=109.065
CHARGE=1+
MSLEVEL=2
SOURCE_INSTRUMENT=Positive-Quattro_QQQ:40eV
FILENAME=hmdb_intermediate.mgf
SEQ=*..*
IONMODE=Positive
ORGANISM=HMDB
NAME=HMDB:HMDB02055-1973 o-Cresol M+H
PI=HMDB
DATACOLLECTOR=HMDB
SMILES=CC1=CC=CC=C1O
INCHI=InChI=1S/C7H8O/c1-6-4-2-3-5-7(6)8/h2-5,8H,1H3
INCHIAUX=N/A
PUBMED=N/A
SUBMITUSER=mwang87
TAGS=
LIBRARYQUALITY=3
SPECTRUMID=CCMSLIB00000425775
SCANS=747
38.0 38.805 
39.0 53.565 
40.0 27.595 
41.0 14.289 
51.0 15.037 
52.0 10.28 
END IONS

BEGIN IONS
PEPMASS=60.0562
CHARGE=1+
MSLEVEL=2
SOURCE_INSTRUMENT=Positive-Quattro_QQQ:10eV
FILENAME=hmdb_intermediate.mgf
SEQ=*..*
IONMODE=Positive
ORGANISM=HMDB
NAME=HMDB:HMDB01842-1690 Guanidine M+H
PI=HMDB
DATACOLLECTOR=HMDB
SMILES=NC(N)=N
INCHI=InChI=1S/CH5N3/c2-1(3)4/h(H5,2,3,4)
INCHIAUX=N/A
PUBMED=N/A
SUBMITUSER=mwang87
TAGS=
LIBRARYQUALITY=3
SPECTRUMID=CCMSLIB00000425776
SCANS=748
43.0 21.577 
END IONS

BEGIN IONS
PEPMASS=197.067
CHARGE=1+
MSLEVEL=2
SOURCE_INSTRUMENT=Positive-Quattro_QQQ:25eV
FILENAME=hmdb_intermediate.mgf
SEQ=*..*
IONMODE=Positive
ORGANISM=HMDB
NAME=HMDB:HMDB01982-1924 3,7-Dimethyluric acid M+H
PI=HMDB
DATACOLLECTOR=HMDB
SMILES=CN1C(=O)NC2=C1C(=O)NC(=O)N2C
INCHI=InChI=1S/C7H8N4O3/c1-10-3-4(8-6(10)13)11(2)7(14)9-5(3)12/h1-2H3,(H,8,13)(H,9,12,14)
INCHIAUX=N/A
PUBMED=N/A
SUBMITUSER=mwang87
TAGS=
LIBRARYQUALITY=3
SPECTRUMID=CCMSLIB00000425778
SCANS=750
42.0 80.19 
END IONS

BEGIN IONS
PEPMASS=100.022
CHARGE=1+
MSLEVEL=2
SOURCE_INSTRUMENT=Positive-Quattro_QQQ:25eV
FILENAME=hmdb_intermediate.mgf
SEQ=*..*
IONMODE=Positive
ORGANISM=HMDB
NAME=HMDB:HMDB05843-2461 Allyl isothiocyanate M+H
PI=HMDB
DATACOLLECTOR=HMDB
SMILES=C=CCN=C=S
INCHI=InChI=1S/C4H5NS/c1-2-3-5-4-6/h2H,1,3H2
INCHIAUX=N/A
PUBMED=N/A
SUBMITUSER=mwang87
TAGS=
LIBRARYQUALITY=3
SPECTRUMID=CCMSLIB00000425783
SCANS=755
39.28 32.89 
41.28 100.0 
41.54 48.385 
45.11 36.09 
END IONS

BEGIN IONS
PEPMASS=191.019
CHARGE=1+
MSLEVEL=2
SOURCE_INSTRUMENT=Negative-Quattro_QQQ:40eV
FILENAME=hmdb_intermediate.mgf
SEQ=*..*
IONMODE=Negative
ORGANISM=HMDB
NAME=HMDB:HMDB01874-1767 D-threo-Isocitric acid M-H
PI=HMDB
DATACOLLECTOR=HMDB
SMILES=O[C@H]([C@H](CC(O)=O)C(O)=O)C(O)=O
INCHI=InChI=1S/C6H8O7/c7-3(8)1-2(5(10)11)4(9)6(12)13/h2,4,9H,1H2,(H,7,8)(H,10,11)(H,12,13)/t2-,4+/m0/s1
INCHIAUX=N/A
PUBMED=N/A
SUBMITUSER=mwang87
TAGS=
LIBRARYQUALITY=3
SPECTRUMID=CCMSLIB00000425784
SCANS=756
42.379 8.281 
43.376 27.088 
43.75 23.304 
END IONS

BEGIN IONS
PEPMASS=163.061
CHARGE=1+
MSLEVEL=2
SOURCE_INSTRUMENT=Positive-Quattro_QQQ:40eV
FILENAME=hmdb_intermediate.mgf
SEQ=*..*
IONMODE=Positive
ORGANISM=HMDB
NAME=HMDB:HMDB00355-569 3-Hydroxymethylglutaric acid M+H
PI=HMDB
DATACOLLECTOR=HMDB
SMILES=CC(O)(CC(O)=O)CC(O)=O
INCHI=InChI=1S/C6H10O5/c1-6(11,2-4(7)8)3-5(9)10/h11H,2-3H2,1H3,(H,7,8)(H,9,10)
INCHIAUX=N/A
PUBMED=N/A
SUBMITUSER=mwang87
TAGS=
LIBRARYQUALITY=3
SPECTRUMID=CCMSLIB00000425787
SCANS=759
50.891 25.123 
END IONS

BEGIN IONS
PEPMASS=153.076
CHARGE=1+
MSLEVEL=2
SOURCE_INSTRUMENT=Positive-Quattro_QQQ:25eV
FILENAME=hmdb_intermediate.mgf
SEQ=*..*
IONMODE=Positive
ORGANISM=HMDB
NAME=HMDB:HMDB01851-1715 L-Arabitol M+H
PI=HMDB
DATACOLLECTOR=HMDB
SMILES=OC[C@H](O)C(O)[C@@H](O)CO
INCHI=InChI=1S/C5H12O5/c6-1-3(8)5(10)4(9)2-7/h3-10H,1-2H2/t3-,4-/m0/s1
INCHIAUX=N/A
PUBMED=N/A
SUBMITUSER=mwang87
TAGS=
LIBRARYQUALITY=3
SPECTRUMID=CCMSLIB00000425789
SCANS=761
41.0 40.48 
42.0 57.385 
43.0 55.811 
44.0 41.705 
45.0 39.775 
END IONS

BEGIN IONS
PEPMASS=112.087
CHARGE=1+
MSLEVEL=2
SOURCE_INSTRUMENT=Positive-Quattro_QQQ:25eV
FILENAME=hmdb_intermediate.mgf
SEQ=*..*
IONMODE=Positive
ORGANISM=HMDB
NAME=HMDB:HMDB00870-1224 Histamine M+H
PI=HMDB
DATACOLLECTOR=HMDB
SMILES=NCCC1=CNC=N1
INCHI=InChI=1S/C5H9N3/c6-2-1-5-3-7-4-8-5/h3-4H,1-2,6H2,(H,7,8)
INCHIAUX=N/A
PUBMED=N/A
SUBMITUSER=mwang87
TAGS=
LIBRARYQUALITY=3
SPECTRUMID=CCMSLIB00000425791
SCANS=763
41.332 57.872 
END IONS

BEGIN IONS
PEPMASS=44.9851
CHARGE=1+
MSLEVEL=2
SOURCE_INSTRUMENT=Negative-Quattro_QQQ:10eV
FILENAME=hmdb_intermediate.mgf
SEQ=*..*
IONMODE=Negative
ORGANISM=HMDB
NAME=HMDB:HMDB02786-2131 Nitrite M-H
PI=HMDB
DATACOLLECTOR=HMDB
SMILES=[O-]N=O
INCHI=InChI=1S/HNO2/c2-1-3/h(H,2,3)/p-1
INCHIAUX=N/A
PUBMED=N/A
SUBMITUSER=mwang87
TAGS=
LIBRARYQUALITY=3
SPECTRUMID=CCMSLIB00000425793
SCANS=765
43.0 8.459 
44.0 100.0 
45.0 42.785 
46.0 18.045 
END IONS

BEGIN IONS
PEPMASS=159.041
CHARGE=1+
MSLEVEL=2
SOURCE_INSTRUMENT=Positive-Quattro_QQQ:40eV
FILENAME=hmdb_intermediate.mgf
SEQ=*..*
IONMODE=Positive
ORGANISM=HMDB
NAME=HMDB:HMDB03349-2258 L-Dihydroorotic acid M+H
PI=HMDB
DATACOLLECTOR=HMDB
SMILES=OC(=O)[C@@H]1CC(=O)NC(=O)N1
INCHI=InChI=1S/C5H6N2O4/c8-3-1-2(4(9)10)6-5(11)7-3/h2H,1H2,(H,9,10)(H2,6,7,8,11)/t2-/m0/s1
INCHIAUX=N/A
PUBMED=N/A
SUBMITUSER=mwang87
TAGS=
LIBRARYQUALITY=3
SPECTRUMID=CCMSLIB00000425795
SCANS=767
27.0 26.952 
28.0 82.524 
42.0 17.63 
43.0 100.0 
44.0 82.211 
45.0 50.236 
46.0 21.312 
53.0 64.848 
END IONS

BEGIN IONS
PEPMASS=409.295
CHARGE=1+
MSLEVEL=2
SOURCE_INSTRUMENT=Positive-Quattro_QQQ:40eV
FILENAME=hmdb_intermediate.mgf
SEQ=*..*
IONMODE=Positive
ORGANISM=HMDB
NAME=HMDB:HMDB00364-581 3a,6a,7b-Trihydroxy-5b-cholanoic acid M+H
PI=HMDB
DATACOLLECTOR=HMDB
SMILES=[H][C@@]12CC[C@H]([C@H](C)CCC(O)=O)[C@@]1(C)CC[C@@]1([H])[C@@]2([H])[C@@H](O)[C@H](O)[C@]2([H])C[C@H](O)CC[C@]12C
INCHI=InChI=1S/C24H40O5/c1-13(4-7-19(26)27)15-5-6-16-20-17(9-11-23(15,16)2)24(3)10-8-14(25)12-18(24)21(28)22(20)29/h13-18,20-22,25,28-29H,4-12H2,1-3H3,(H,26,27)/t13-,14-,15-,16+,17+,18+,20+,21-,22-,23-,24-/m1/s1
INCHIAUX=N/A
PUBMED=N/A
SUBMITUSER=mwang87
TAGS=
LIBRARYQUALITY=3
SPECTRUMID=CCMSLIB00000425798
SCANS=770
23.14 41.801 
23.7 75.658 
41.22 31.059 
43.47 33.601 
END IONS

BEGIN IONS
PEPMASS=103.04
CHARGE=1+
MSLEVEL=2
SOURCE_INSTRUMENT=Negative-Quattro_QQQ:25eV
FILENAME=hmdb_intermediate.mgf
SEQ=*..*
IONMODE=Negative
ORGANISM=HMDB
NAME=HMDB:HMDB00729-1024 Alpha-Hydroxyisobutyric acid M-H
PI=HMDB
DATACOLLECTOR=HMDB
SMILES=CC(C)(O)C(O)=O
INCHI=InChI=1S/C4H8O3/c1-4(2,7)3(5)6/h7H,1-2H3,(H,5,6)
INCHIAUX=N/A
PUBMED=N/A
SUBMITUSER=mwang87
TAGS=
LIBRARYQUALITY=3
SPECTRUMID=CCMSLIB00000425803
SCANS=775
41.625 31.944 
45.52 49.167 
END IONS

BEGIN IONS
PEPMASS=185.154
CHARGE=1+
MSLEVEL=2
SOURCE_INSTRUMENT=Negative-Quattro_QQQ:25eV
FILENAME=hmdb_intermediate.mgf
SEQ=*..*
IONMODE=Negative
ORGANISM=HMDB
NAME=HMDB:HMDB00947-1343 Undecanoic acid M-H
PI=HMDB
DATACOLLECTOR=HMDB
SMILES=CCCCCCCCCCC(O)=O
INCHI=InChI=1S/C11H22O2/c1-2-3-4-5-6-7-8-9-10-11(12)13/h2-10H2,1H3,(H,12,13)
INCHIAUX=N/A
PUBMED=N/A
SUBMITUSER=mwang87
TAGS=
LIBRARYQUALITY=3
SPECTRUMID=CCMSLIB00000425804
SCANS=776
45.234 8.41 
END IONS

BEGIN IONS
PEPMASS=195.088
CHARGE=1+
MSLEVEL=2
SOURCE_INSTRUMENT=Positive-Quattro_QQQ:40eV
FILENAME=hmdb_intermediate.mgf
SEQ=*..*
IONMODE=Positive
ORGANISM=HMDB
NAME=HMDB:HMDB01847-1704 Caffeine M+H
PI=HMDB
DATACOLLECTOR=HMDB
SMILES=CN1C=NC2=C1C(=O)N(C)C(=O)N2C
INCHI=InChI=1S/C8H10N4O2/c1-10-4-9-6-5(10)7(13)12(3)8(14)11(6)2/h4H,1-3H3
INCHIAUX=N/A
PUBMED=N/A
SUBMITUSER=mwang87
TAGS=
LIBRARYQUALITY=3
SPECTRUMID=CCMSLIB00000425808
SCANS=780
41.479 6.218 
42.485 100.0 
42.611 94.836 
END IONS

BEGIN IONS
PEPMASS=45.034
CHARGE=1+
MSLEVEL=2
SOURCE_INSTRUMENT=Positive-Quattro_QQQ:40eV
FILENAME=hmdb_intermediate.mgf
SEQ=*..*
IONMODE=Positive
ORGANISM=HMDB
NAME=HMDB:HMDB00990-1380 Acetaldehyde M+H
PI=HMDB
DATACOLLECTOR=HMDB
SMILES=CC=O
INCHI=InChI=1S/C2H4O/c1-2-3/h2H,1H3
INCHIAUX=N/A
PUBMED=N/A
SUBMITUSER=mwang87
TAGS=
LIBRARYQUALITY=3
SPECTRUMID=CCMSLIB00000425810
SCANS=782
29.157 53.415 
30.285 100.0 
30.536 47.892 
31.538 50.723 
40.186 35.717 
41.439 31.75 
42.442 29.909 
43.194 20.99 
44.071 40.669 
45.074 82.582 
46.202 67.291 
48.082 69.982 
END IONS

BEGIN IONS
PEPMASS=189.124
CHARGE=1+
MSLEVEL=2
SOURCE_INSTRUMENT=Positive-Quattro_QQQ:25eV
FILENAME=hmdb_intermediate.mgf
SEQ=*..*
IONMODE=Positive
ORGANISM=HMDB
NAME=HMDB:HMDB00759-1090 Glycyl-L-leucine M+H
PI=HMDB
DATACOLLECTOR=HMDB
SMILES=CC(C)C[C@H](NC(=O)CN)C(O)=O
INCHI=InChI=1S/C8H16N2O3/c1-5(2)3-6(8(12)13)10-7(11)4-9/h5-6H,3-4,9H2,1-2H3,(H,10,11)(H,12,13)/t6-/m0/s1
INCHIAUX=N/A
PUBMED=N/A
SUBMITUSER=mwang87
TAGS=
LIBRARYQUALITY=3
SPECTRUMID=CCMSLIB00000425812
SCANS=784
43.376 2.643 
44.391 3.571 
END IONS

BEGIN IONS
PEPMASS=118.087
CHARGE=1+
MSLEVEL=2
SOURCE_INSTRUMENT=Positive-Quattro_QQQ:40eV
FILENAME=hmdb_intermediate.mgf
SEQ=*..*
IONMODE=Positive
ORGANISM=HMDB
NAME=HMDB:HMDB00043-74 Betaine M+H
PI=HMDB
DATACOLLECTOR=HMDB
SMILES=C[N+](C)(C)CC([O-])=O
INCHI=InChI=1S/C5H11NO2/c1-6(2,3)4-5(7)8/h4H2,1-3H3
INCHIAUX=N/A
PUBMED=N/A
SUBMITUSER=mwang87
TAGS=
LIBRARYQUALITY=3
SPECTRUMID=CCMSLIB00000425815
SCANS=787
42.341 5.06 
43.402 6.399 
END IONS

BEGIN IONS
PEPMASS=151.112
CHARGE=1+
MSLEVEL=2
SOURCE_INSTRUMENT=Positive-Quattro_QQQ:40eV
FILENAME=hmdb_intermediate.mgf
SEQ=*..*
IONMODE=Positive
ORGANISM=HMDB
NAME=HMDB:HMDB01878-1776 Thymol M+H
PI=HMDB
DATACOLLECTOR=HMDB
SMILES=CC(C)C1=C(O)C=C(C)C=C1
INCHI=InChI=1S/C10H14O/c1-7(2)9-5-4-8(3)6-10(9)11/h4-7,11H,1-3H3
INCHIAUX=N/A
PUBMED=N/A
SUBMITUSER=mwang87
TAGS=
LIBRARYQUALITY=3
SPECTRUMID=CCMSLIB00000425817
SCANS=789
52.032 26.345 
52.531 62.255 
END IONS

BEGIN IONS
PEPMASS=142.027
CHARGE=1+
MSLEVEL=2
SOURCE_INSTRUMENT=Positive-Quattro_QQQ:25eV
FILENAME=hmdb_intermediate.mgf
SEQ=*..*
IONMODE=Positive
ORGANISM=HMDB
NAME=HMDB:HMDB60151-371 O-Phosphoethanolamine M+H
PI=HMDB
DATACOLLECTOR=HMDB
SMILES=NCCOP(O)(O)=O
INCHI=InChI=1S/C2H8NO4P/c3-1-2-7-8(4,5)6/h1-3H2,(H2,4,5,6)
INCHIAUX=N/A
PUBMED=N/A
SUBMITUSER=mwang87
TAGS=
LIBRARYQUALITY=3
SPECTRUMID=CCMSLIB00000425818
SCANS=790
44.621 100.0 
END IONS

BEGIN IONS
PEPMASS=90.0555
CHARGE=1+
MSLEVEL=2
SOURCE_INSTRUMENT=Positive-Quattro_QQQ:25eV
FILENAME=hmdb_intermediate.mgf
SEQ=*..*
IONMODE=Positive
ORGANISM=HMDB
NAME=HMDB:HMDB00161-252 L-Alanine M+H
PI=HMDB
DATACOLLECTOR=HMDB
SMILES=C[C@H](N)C(O)=O
INCHI=InChI=1S/C3H7NO2/c1-2(4)3(5)6/h2H,4H2,1H3,(H,5,6)/t2-/m0/s1
INCHIAUX=N/A
PUBMED=N/A
SUBMITUSER=mwang87
TAGS=
LIBRARYQUALITY=3
SPECTRUMID=CCMSLIB00000425820
SCANS=792
44.294 100.0 
45.441 5.61 
END IONS

BEGIN IONS
PEPMASS=89.0239
CHARGE=1+
MSLEVEL=2
SOURCE_INSTRUMENT=Negative-Quattro_QQQ:10eV
FILENAME=hmdb_intermediate.mgf
SEQ=*..*
IONMODE=Negative
ORGANISM=HMDB
NAME=HMDB:HMDB00190-301 L-Lactic acid M-H
PI=HMDB
DATACOLLECTOR=HMDB
SMILES=C[C@H](O)C(O)=O
INCHI=InChI=1S/C3H6O3/c1-2(4)3(5)6/h2,4H,1H3,(H,5,6)/t2-/m0/s1
INCHIAUX=N/A
PUBMED=N/A
SUBMITUSER=mwang87
TAGS=
LIBRARYQUALITY=3
SPECTRUMID=CCMSLIB00000425823
SCANS=795
43.642 44.755 
45.597 41.084 
END IONS

BEGIN IONS
PEPMASS=132.066
CHARGE=1+
MSLEVEL=2
SOURCE_INSTRUMENT=Positive-Quattro_QQQ:40eV
FILENAME=hmdb_intermediate.mgf
SEQ=*..*
IONMODE=Positive
ORGANISM=HMDB
NAME=HMDB:HMDB00766-1106 N-Acetyl-L-alanine M+H
PI=HMDB
DATACOLLECTOR=HMDB
SMILES=C[C@H](NC(C)=O)C(O)=O
INCHI=InChI=1S/C5H9NO3/c1-3(5(8)9)6-4(2)7/h3H,1-2H3,(H,6,7)(H,8,9)/t3-/m0/s1
INCHIAUX=N/A
PUBMED=N/A
SUBMITUSER=mwang87
TAGS=
LIBRARYQUALITY=3
SPECTRUMID=CCMSLIB00000425824
SCANS=796
43.195 100.0 
44.397 98.485 
45.443 5.185 
END IONS

BEGIN IONS
PEPMASS=147.077
CHARGE=1+
MSLEVEL=2
SOURCE_INSTRUMENT=Positive-Quattro_QQQ:40eV
FILENAME=hmdb_intermediate.mgf
SEQ=*..*
IONMODE=Positive
ORGANISM=HMDB
NAME=HMDB:HMDB03423-2303 D-Glutamine M+H
PI=HMDB
DATACOLLECTOR=HMDB
SMILES=N[C@H](CCC(N)=O)C(O)=O
INCHI=InChI=1S/C5H10N2O3/c6-3(5(9)10)1-2-4(7)8/h3H,1-2,6H2,(H2,7,8)(H,9,10)/t3-/m1/s1
INCHIAUX=N/A
PUBMED=N/A
SUBMITUSER=mwang87
TAGS=
LIBRARYQUALITY=3
SPECTRUMID=CCMSLIB00000425834
SCANS=806
41.22 40.752 
END IONS

BEGIN IONS
PEPMASS=415.394
CHARGE=1+
MSLEVEL=2
SOURCE_INSTRUMENT=Positive-Quattro_QQQ:25eV
FILENAME=hmdb_intermediate.mgf
SEQ=*..*
IONMODE=Positive
ORGANISM=HMDB
NAME=HMDB:HMDB00852-1203 Beta-Sitosterol M+H
PI=HMDB
DATACOLLECTOR=HMDB
SMILES=[H][C@@]1(CC[C@@]2([H])[C@]3([H])CC=C4C[C@@H](O)CC[C@]4(C)[C@@]3([H])CC[C@]12C)[C@H](C)CC[C@@H](CC)C(C)C
INCHI=InChI=1S/C29H50O/c1-7-21(19(2)3)9-8-20(4)25-12-13-26-24-11-10-22-18-23(30)14-16-28(22,5)27(24)15-17-29(25,26)6/h10,19-21,23-27,30H,7-9,11-18H2,1-6H3/t20-,21-,23+,24+,25-,26+,27+,28+,29-/m1/s1
INCHIAUX=N/A
PUBMED=N/A
SUBMITUSER=mwang87
TAGS=
LIBRARYQUALITY=3
SPECTRUMID=CCMSLIB00000425835
SCANS=807
43.351 21.134 
END IONS

BEGIN IONS
PEPMASS=104.071
CHARGE=1+
MSLEVEL=2
SOURCE_INSTRUMENT=Positive-Quattro_QQQ:10eV
FILENAME=hmdb_intermediate.mgf
SEQ=*..*
IONMODE=Positive
ORGANISM=HMDB
NAME=HMDB:HMDB00112-162 Gamma-Aminobutyric acid M+H
PI=HMDB
DATACOLLECTOR=HMDB
SMILES=NCCCC(O)=O
INCHI=InChI=1S/C4H9NO2/c5-3-1-2-4(6)7/h1-3,5H2,(H,6,7)
INCHIAUX=N/A
PUBMED=N/A
SUBMITUSER=mwang87
TAGS=
LIBRARYQUALITY=3
SPECTRUMID=CCMSLIB00000425837
SCANS=809
43.291 22.817 
45.281 17.031 
END IONS

BEGIN IONS
PEPMASS=137.046
CHARGE=1+
MSLEVEL=2
SOURCE_INSTRUMENT=Positive-Quattro_QQQ:40eV
FILENAME=hmdb_intermediate.mgf
SEQ=*..*
IONMODE=Positive
ORGANISM=HMDB
NAME=HMDB:HMDB00157-244 Hypoxanthine M+H
PI=HMDB
DATACOLLECTOR=HMDB
SMILES=OC1=NC=NC2=C1NC=N2
INCHI=InChI=1S/C5H4N4O/c10-5-3-4(7-1-6-3)8-2-9-5/h1-2H,(H2,6,7,8,9,10)
INCHIAUX=N/A
PUBMED=N/A
SUBMITUSER=mwang87
TAGS=
LIBRARYQUALITY=3
SPECTRUMID=CCMSLIB00000425840
SCANS=812
40.337 11.986 
END IONS

BEGIN IONS
PEPMASS=289.217
CHARGE=1+
MSLEVEL=2
SOURCE_INSTRUMENT=Positive-Quattro_QQQ:40eV
FILENAME=hmdb_intermediate.mgf
SEQ=*..*
IONMODE=Positive
ORGANISM=HMDB
NAME=HMDB:HMDB00628-857 Epitestosterone M+H
PI=HMDB
DATACOLLECTOR=HMDB
SMILES=[H][C@@]12CC[C@@H](O)[C@@]1(C)CC[C@@]1([H])[C@@]2([H])CCC2=CC(=O)CC[C@]12C
INCHI=InChI=1S/C19H28O2/c1-18-9-7-13(20)11-12(18)3-4-14-15-5-6-17(21)19(15,2)10-8-16(14)18/h11,14-17,21H,3-10H2,1-2H3/t14-,15-,16-,17+,18-,19-/m0/s1
INCHIAUX=N/A
PUBMED=N/A
SUBMITUSER=mwang87
TAGS=
LIBRARYQUALITY=3
SPECTRUMID=CCMSLIB00000425844
SCANS=816
41.571 7.417 
43.566 10.5 
END IONS

BEGIN IONS
PEPMASS=59.0497
CHARGE=1+
MSLEVEL=2
SOURCE_INSTRUMENT=Positive-Quattro_QQQ:40eV
FILENAME=hmdb_intermediate.mgf
SEQ=*..*
IONMODE=Positive
ORGANISM=HMDB
NAME=HMDB:HMDB01659-1674 Acetone M+H
PI=HMDB
DATACOLLECTOR=HMDB
SMILES=CC(C)=O
INCHI=InChI=1S/C3H6O/c1-3(2)4/h1-2H3
INCHIAUX=N/A
PUBMED=N/A
SUBMITUSER=mwang87
TAGS=
LIBRARYQUALITY=3
SPECTRUMID=CCMSLIB00000425848
SCANS=820
29.0 30.274 
30.0 27.756 
31.0 38.719 
41.0 26.089 
42.0 74.115 
43.0 68.052 
END IONS

BEGIN IONS
PEPMASS=181.071
CHARGE=1+
MSLEVEL=2
SOURCE_INSTRUMENT=Positive-Quattro_QQQ:10eV
FILENAME=hmdb_intermediate.mgf
SEQ=*..*
IONMODE=Positive
ORGANISM=HMDB
NAME=HMDB:HMDB03449-2316 Beta-D-Galactose M+H
PI=HMDB
DATACOLLECTOR=HMDB
SMILES=OC[C@H]1O[C@@H](O)[C@H](O)[C@@H](O)[C@H]1O
INCHI=InChI=1S/C6H12O6/c7-1-2-3(8)4(9)5(10)6(11)12-2/h2-11H,1H2/t2-,3+,4+,5-,6-/m1/s1
INCHIAUX=N/A
PUBMED=N/A
SUBMITUSER=mwang87
TAGS=
LIBRARYQUALITY=3
SPECTRUMID=CCMSLIB00000425849
SCANS=821
40.0 30.6748466258 
END IONS

BEGIN IONS
PEPMASS=130.998
CHARGE=1+
MSLEVEL=2
SOURCE_INSTRUMENT=Negative-Quattro_QQQ:25eV
FILENAME=hmdb_intermediate.mgf
SEQ=*..*
IONMODE=Negative
ORGANISM=HMDB
NAME=HMDB:HMDB00223-368 Oxalacetic acid M-H
PI=HMDB
DATACOLLECTOR=HMDB
SMILES=OC(=O)CC(=O)C(O)=O
INCHI=InChI=1S/C4H4O5/c5-2(4(8)9)1-3(6)7/h1H2,(H,6,7)(H,8,9)
INCHIAUX=N/A
PUBMED=N/A
SUBMITUSER=mwang87
TAGS=
LIBRARYQUALITY=3
SPECTRUMID=CCMSLIB00000425851
SCANS=823
41.642 27.347 
43.613 100.0 
END IONS

BEGIN IONS
PEPMASS=74.0718
CHARGE=1+
MSLEVEL=2
SOURCE_INSTRUMENT=Positive-Quattro_QQQ:25eV
FILENAME=hmdb_intermediate.mgf
SEQ=*..*
IONMODE=Positive
ORGANISM=HMDB
NAME=HMDB:HMDB01522-1623 Methylguanidine M+H
PI=HMDB
DATACOLLECTOR=HMDB
SMILES=CNC(N)=N
INCHI=InChI=1S/C2H7N3/c1-5-2(3)4/h1H3,(H4,3,4,5)
INCHIAUX=N/A
PUBMED=N/A
SUBMITUSER=mwang87
TAGS=
LIBRARYQUALITY=3
SPECTRUMID=CCMSLIB00000425855
SCANS=827
30.436 9.414 
32.396 5.518 
43.248 35.146 
END IONS

BEGIN IONS
PEPMASS=87.0446
CHARGE=1+
MSLEVEL=2
SOURCE_INSTRUMENT=Positive-Quattro_QQQ:25eV
FILENAME=hmdb_intermediate.mgf
SEQ=*..*
IONMODE=Positive
ORGANISM=HMDB
NAME=HMDB:HMDB03407-2287 Diacetyl M+H
PI=HMDB
DATACOLLECTOR=HMDB
SMILES=CC(=O)C(C)=O
INCHI=InChI=1S/C4H6O2/c1-3(5)4(2)6/h1-2H3
INCHIAUX=N/A
PUBMED=N/A
SUBMITUSER=mwang87
TAGS=
LIBRARYQUALITY=3
SPECTRUMID=CCMSLIB00000425861
SCANS=833
43.0 100.0 
45.0 52.601 
49.0 78.639 
END IONS

BEGIN IONS
PEPMASS=139.051
CHARGE=1+
MSLEVEL=2
SOURCE_INSTRUMENT=Positive-Quattro_QQQ:25eV
FILENAME=hmdb_intermediate.mgf
SEQ=*..*
IONMODE=Positive
ORGANISM=HMDB
NAME=HMDB:HMDB00301-514 Urocanic acid M+H
PI=HMDB
DATACOLLECTOR=HMDB
SMILES=OC(=O)\C=C\C1=CNC=N1
INCHI=InChI=1S/C6H6N2O2/c9-6(10)2-1-5-3-7-4-8-5/h1-4H,(H,7,8)(H,9,10)/b2-1+
INCHIAUX=N/A
PUBMED=N/A
SUBMITUSER=mwang87
TAGS=
LIBRARYQUALITY=3
SPECTRUMID=CCMSLIB00000425863
SCANS=835
41.328 6.12 
END IONS

BEGIN IONS
PEPMASS=276.11
CHARGE=1+
MSLEVEL=2
SOURCE_INSTRUMENT=Positive-Quattro_QQQ:40eV
FILENAME=hmdb_intermediate.mgf
SEQ=*..*
IONMODE=Positive
ORGANISM=HMDB
NAME=HMDB:HMDB01786-1683 Ethenodeoxyadenosine M+H
PI=HMDB
DATACOLLECTOR=HMDB
SMILES=OC[C@H]1O[C@H](C[C@@H]1O)N1C=NC2=C1N=CN1C=CN=C21
INCHI=InChI=1S/C12H13N5O3/c18-4-8-7(19)3-9(20-8)17-6-14-10-11-13-1-2-16(11)5-15-12(10)17/h1-2,5-9,18-19H,3-4H2/t7-,8+,9+/m0/s1
INCHIAUX=N/A
PUBMED=N/A
SUBMITUSER=mwang87
TAGS=
LIBRARYQUALITY=3
SPECTRUMID=CCMSLIB00000425871
SCANS=843
42.554 4.954 
43.661 3.426 
45.554 3.148 
END IONS

BEGIN IONS
PEPMASS=85.0653
CHARGE=1+
MSLEVEL=2
SOURCE_INSTRUMENT=Positive-Quattro_QQQ:10eV
FILENAME=hmdb_intermediate.mgf
SEQ=*..*
IONMODE=Positive
ORGANISM=HMDB
NAME=HMDB:HMDB01184-1451 Methyl propenyl ketone M+H
PI=HMDB
DATACOLLECTOR=HMDB
SMILES=C\C=C\C(C)=O
INCHI=InChI=1S/C5H8O/c1-3-4-5(2)6/h3-4H,1-2H3/b4-3+
INCHIAUX=N/A
PUBMED=N/A
SUBMITUSER=mwang87
TAGS=
LIBRARYQUALITY=3
SPECTRUMID=CCMSLIB00000425874
SCANS=846
43.162 25.197 
END IONS

BEGIN IONS
PEPMASS=209.03
CHARGE=1+
MSLEVEL=2
SOURCE_INSTRUMENT=Negative-Quattro_QQQ:25eV
FILENAME=hmdb_intermediate.mgf
SEQ=*..*
IONMODE=Negative
ORGANISM=HMDB
NAME=HMDB:HMDB00663-907 Glucaric acid M-H
PI=HMDB
DATACOLLECTOR=HMDB
SMILES=O[C@@H]([C@H](O)[C@@H](O)C(O)=O)[C@H](O)C(O)=O
INCHI=InChI=1S/C6H10O8/c7-1(3(9)5(11)12)2(8)4(10)6(13)14/h1-4,7-10H,(H,11,12)(H,13,14)/t1-,2-,3-,4+/m0/s1
INCHIAUX=N/A
PUBMED=N/A
SUBMITUSER=mwang87
TAGS=
LIBRARYQUALITY=3
SPECTRUMID=CCMSLIB00000425875
SCANS=847
43.648 14.5734770521 
END IONS

BEGIN IONS
PEPMASS=60.0562
CHARGE=1+
MSLEVEL=2
SOURCE_INSTRUMENT=Positive-Quattro_QQQ:40eV
FILENAME=hmdb_intermediate.mgf
SEQ=*..*
IONMODE=Positive
ORGANISM=HMDB
NAME=HMDB:HMDB01842-1692 Guanidine M+H
PI=HMDB
DATACOLLECTOR=HMDB
SMILES=NC(N)=N
INCHI=InChI=1S/CH5N3/c2-1(3)4/h(H5,2,3,4)
INCHIAUX=N/A
PUBMED=N/A
SUBMITUSER=mwang87
TAGS=
LIBRARYQUALITY=3
SPECTRUMID=CCMSLIB00000425876
SCANS=848
28.0 7.093 
43.0 100.0 
44.0 16.502 
END IONS

BEGIN IONS
PEPMASS=143.046
CHARGE=1+
MSLEVEL=2
SOURCE_INSTRUMENT=Positive-Quattro_QQQ:40eV
FILENAME=hmdb_intermediate.mgf
SEQ=*..*
IONMODE=Positive
ORGANISM=HMDB
NAME=HMDB:HMDB00469-685 5-Hydroxymethyluracil M+H
PI=HMDB
DATACOLLECTOR=HMDB
SMILES=OCC1=CNC(=O)NC1=O
INCHI=InChI=1S/C5H6N2O3/c8-2-3-1-6-5(10)7-4(3)9/h1,8H,2H2,(H2,6,7,9,10)
INCHIAUX=N/A
PUBMED=N/A
SUBMITUSER=mwang87
TAGS=
LIBRARYQUALITY=3
SPECTRUMID=CCMSLIB00000425879
SCANS=851
53.219 7.219 
END IONS

BEGIN IONS
PEPMASS=141.066
CHARGE=1+
MSLEVEL=2
SOURCE_INSTRUMENT=Positive-Quattro_QQQ:40eV
FILENAME=hmdb_intermediate.mgf
SEQ=*..*
IONMODE=Positive
ORGANISM=HMDB
NAME=HMDB:HMDB02820-2142 Methylimidazoleacetic acid M+H
PI=HMDB
DATACOLLECTOR=HMDB
SMILES=CN1C=NC(CC(O)=O)=C1
INCHI=InChI=1S/C6H8N2O2/c1-8-3-5(7-4-8)2-6(9)10/h3-4H,2H2,1H3,(H,9,10)
INCHIAUX=N/A
PUBMED=N/A
SUBMITUSER=mwang87
TAGS=
LIBRARYQUALITY=3
SPECTRUMID=CCMSLIB00000425883
SCANS=855
42.0 100.0 
END IONS

BEGIN IONS
PEPMASS=285.083
CHARGE=1+
MSLEVEL=2
SOURCE_INSTRUMENT=Positive-Quattro_QQQ:40eV
FILENAME=hmdb_intermediate.mgf
SEQ=*..*
IONMODE=Positive
ORGANISM=HMDB
NAME=HMDB:HMDB00299-509 Xanthosine M+H
PI=HMDB
DATACOLLECTOR=HMDB
SMILES=OC[C@H]1O[C@H]([C@H](O)[C@@H]1O)N1C=NC2=C1N=C(O)N=C2O
INCHI=InChI=1S/C10H12N4O6/c15-1-3-5(16)6(17)9(20-3)14-2-11-4-7(14)12-10(19)13-8(4)18/h2-3,5-6,9,15-17H,1H2,(H2,12,13,18,19)/t3-,5-,6-,9-/m1/s1
INCHIAUX=N/A
PUBMED=N/A
SUBMITUSER=mwang87
TAGS=
LIBRARYQUALITY=3
SPECTRUMID=CCMSLIB00000425889
SCANS=861
41.344 14.625 
43.327 21.375 
45.31 17.625 
END IONS

BEGIN IONS
PEPMASS=161.045
CHARGE=1+
MSLEVEL=2
SOURCE_INSTRUMENT=Negative-Quattro_QQQ:40eV
FILENAME=hmdb_intermediate.mgf
SEQ=*..*
IONMODE=Negative
ORGANISM=HMDB
NAME=HMDB:HMDB00321-536 2-Hydroxyadipic acid M-H
PI=HMDB
DATACOLLECTOR=HMDB
SMILES=OC(CCCC(O)=O)C(O)=O
INCHI=InChI=1S/C6H10O5/c7-4(6(10)11)2-1-3-5(8)9/h4,7H,1-3H2,(H,8,9)(H,10,11)
INCHIAUX=N/A
PUBMED=N/A
SUBMITUSER=mwang87
TAGS=
LIBRARYQUALITY=3
SPECTRUMID=CCMSLIB00000425890
SCANS=862
41.651 44.333 
43.63 100.0 
45.562 53.333 
END IONS

BEGIN IONS
PEPMASS=215.128
CHARGE=1+
MSLEVEL=2
SOURCE_INSTRUMENT=Negative-Quattro_QQQ:40eV
FILENAME=hmdb_intermediate.mgf
SEQ=*..*
IONMODE=Negative
ORGANISM=HMDB
NAME=HMDB:HMDB00888-1252 Undecanedioic acid M-H
PI=HMDB
DATACOLLECTOR=HMDB
SMILES=OC(=O)CCCCCCCCCC(O)=O
INCHI=InChI=1S/C11H20O4/c12-10(13)8-6-4-2-1-3-5-7-9-11(14)15/h1-9H2,(H,12,13)(H,14,15)
INCHIAUX=N/A
PUBMED=N/A
SUBMITUSER=mwang87
TAGS=
LIBRARYQUALITY=3
SPECTRUMID=CCMSLIB00000425897
SCANS=869
41.609 40.417 
43.611 15.0 
45.52 43.75 
END IONS

BEGIN IONS
PEPMASS=146.082
CHARGE=1+
MSLEVEL=2
SOURCE_INSTRUMENT=Positive-Quattro_QQQ:25eV
FILENAME=hmdb_intermediate.mgf
SEQ=*..*
IONMODE=Positive
ORGANISM=HMDB
NAME=HMDB:HMDB00808-1156 N-Butyrylglycine M+H
PI=HMDB
DATACOLLECTOR=HMDB
SMILES=CCCC(=O)NCC(O)=O
INCHI=InChI=1S/C6H11NO3/c1-2-3-5(8)7-4-6(9)10/h2-4H2,1H3,(H,7,8)(H,9,10)
INCHIAUX=N/A
PUBMED=N/A
SUBMITUSER=mwang87
TAGS=
LIBRARYQUALITY=3
SPECTRUMID=CCMSLIB00000425899
SCANS=871
41.684 10.079 
43.662 100.0 
END IONS

BEGIN IONS
PEPMASS=187.097
CHARGE=1+
MSLEVEL=2
SOURCE_INSTRUMENT=Negative-Quattro_QQQ:40eV
FILENAME=hmdb_intermediate.mgf
SEQ=*..*
IONMODE=Negative
ORGANISM=HMDB
NAME=HMDB:HMDB00784-1121 Azelaic acid M-H
PI=HMDB
DATACOLLECTOR=HMDB
SMILES=OC(=O)CCCCCCCC(O)=O
INCHI=InChI=1S/C9H16O4/c10-8(11)6-4-2-1-3-5-7-9(12)13/h1-7H2,(H,10,11)(H,12,13)
INCHIAUX=N/A
PUBMED=N/A
SUBMITUSER=mwang87
TAGS=
LIBRARYQUALITY=3
SPECTRUMID=CCMSLIB00000425901
SCANS=873
41.277 33.908 
45.179 8.728 
END IONS

BEGIN IONS
PEPMASS=209.03
CHARGE=1+
MSLEVEL=2
SOURCE_INSTRUMENT=Negative-Quattro_QQQ:40eV
FILENAME=hmdb_intermediate.mgf
SEQ=*..*
IONMODE=Negative
ORGANISM=HMDB
NAME=HMDB:HMDB00639-875 Galactaric acid M-H
PI=HMDB
DATACOLLECTOR=HMDB
SMILES=O[C@@H]([C@@H](O)[C@H](O)C(O)=O)[C@@H](O)C(O)=O
INCHI=InChI=1S/C6H10O8/c7-1(3(9)5(11)12)2(8)4(10)6(13)14/h1-4,7-10H,(H,11,12)(H,13,14)/t1-,2+,3+,4-
INCHIAUX=N/A
PUBMED=N/A
SUBMITUSER=mwang87
TAGS=
LIBRARYQUALITY=3
SPECTRUMID=CCMSLIB00000425904
SCANS=876
41.638 15.882 
43.624 71.765 
45.564 20.588 
47.566 6.066 
END IONS

BEGIN IONS
PEPMASS=103.04
CHARGE=1+
MSLEVEL=2
SOURCE_INSTRUMENT=Negative-Quattro_QQQ:10eV
FILENAME=hmdb_intermediate.mgf
SEQ=*..*
IONMODE=Negative
ORGANISM=HMDB
NAME=HMDB:HMDB00729-1023 Alpha-Hydroxyisobutyric acid M-H
PI=HMDB
DATACOLLECTOR=HMDB
SMILES=CC(C)(O)C(O)=O
INCHI=InChI=1S/C4H8O3/c1-4(2,7)3(5)6/h7H,1-2H3,(H,5,6)
INCHIAUX=N/A
PUBMED=N/A
SUBMITUSER=mwang87
TAGS=
LIBRARYQUALITY=3
SPECTRUMID=CCMSLIB00000425910
SCANS=882
45.574 28.041 
END IONS

BEGIN IONS
PEPMASS=155.009
CHARGE=1+
MSLEVEL=2
SOURCE_INSTRUMENT=Negative-Quattro_QQQ:40eV
FILENAME=hmdb_intermediate.mgf
SEQ=*..*
IONMODE=Negative
ORGANISM=HMDB
NAME=HMDB:HMDB00226-375 Orotic acid M-H
PI=HMDB
DATACOLLECTOR=HMDB
SMILES=OC(=O)C1=CC(=O)NC(=O)N1
INCHI=InChI=1S/C5H4N2O4/c8-3-1-2(4(9)10)6-5(11)7-3/h1H,(H,9,10)(H2,6,7,8,11)
INCHIAUX=N/A
PUBMED=N/A
SUBMITUSER=mwang87
TAGS=
LIBRARYQUALITY=3
SPECTRUMID=CCMSLIB00000425912
SCANS=884
40.361 34.322 
42.201 100.0 
END IONS

BEGIN IONS
PEPMASS=126.103
CHARGE=1+
MSLEVEL=2
SOURCE_INSTRUMENT=Positive-Quattro_QQQ:40eV
FILENAME=hmdb_intermediate.mgf
SEQ=*..*
IONMODE=Positive
ORGANISM=HMDB
NAME=HMDB:HMDB01861-1740 3-Methylhistamine M+H
PI=HMDB
DATACOLLECTOR=HMDB
SMILES=CN1C=NC=C1CCN
INCHI=InChI=1S/C6H11N3/c1-9-5-8-4-6(9)2-3-7/h4-5H,2-3,7H2,1H3
INCHIAUX=N/A
PUBMED=N/A
SUBMITUSER=mwang87
TAGS=
LIBRARYQUALITY=3
SPECTRUMID=CCMSLIB00000425916
SCANS=888
53.264 15.309 
END IONS

BEGIN IONS
PEPMASS=537.446
CHARGE=1+
MSLEVEL=2
SOURCE_INSTRUMENT=Positive-Quattro_QQQ:40eV
FILENAME=hmdb_intermediate.mgf
SEQ=*..*
IONMODE=Positive
ORGANISM=HMDB
NAME=HMDB:HMDB00561-784 B-Carotene M+H
PI=HMDB
DATACOLLECTOR=HMDB
SMILES=C\C(\C=C\C=C(/C)\C=C\C1=C(C)CCCC1(C)C)=C/C=C/C=C(\C)/C=C/C=C(\C)/C=C/C1=C(C)CCCC1(C)C
INCHI=InChI=1S/C40H56/c1-31(19-13-21-33(3)25-27-37-35(5)23-15-29-39(37,7)8)17-11-12-18-32(2)20-14-22-34(4)26-28-38-36(6)24-16-30-40(38,9)10/h11-14,17-22,25-28H,15-16,23-24,29-30H2,1-10H3/b12-11+,19-13+,20-14+,27-25+,28-26+,31-17+,32-18+,33-21+,34-22+
INCHIAUX=N/A
PUBMED=N/A
SUBMITUSER=mwang87
TAGS=
LIBRARYQUALITY=3
SPECTRUMID=CCMSLIB00000425921
SCANS=893
52.585 10.574 
END IONS

BEGIN IONS
PEPMASS=59.0497
CHARGE=1+
MSLEVEL=2
SOURCE_INSTRUMENT=Positive-Quattro_QQQ:10eV
FILENAME=hmdb_intermediate.mgf
SEQ=*..*
IONMODE=Positive
ORGANISM=HMDB
NAME=HMDB:HMDB01659-1672 Acetone M+H
PI=HMDB
DATACOLLECTOR=HMDB
SMILES=CC(C)=O
INCHI=InChI=1S/C3H6O/c1-3(2)4/h1-2H3
INCHIAUX=N/A
PUBMED=N/A
SUBMITUSER=mwang87
TAGS=
LIBRARYQUALITY=3
SPECTRUMID=CCMSLIB00000425922
SCANS=894
31.0 25.173 
41.0 8.32 
END IONS

BEGIN IONS
PEPMASS=124.04
CHARGE=1+
MSLEVEL=2
SOURCE_INSTRUMENT=Positive-Quattro_QQQ:25eV
FILENAME=hmdb_intermediate.mgf
SEQ=*..*
IONMODE=Positive
ORGANISM=HMDB
NAME=HMDB:HMDB01488-1605 Nicotinic acid M+H
PI=HMDB
DATACOLLECTOR=HMDB
SMILES=OC(=O)C1=CN=CC=C1
INCHI=InChI=1S/C6H5NO2/c8-6(9)5-2-1-3-7-4-5/h1-4H,(H,8,9)
INCHIAUX=N/A
PUBMED=N/A
SUBMITUSER=mwang87
TAGS=
LIBRARYQUALITY=3
SPECTRUMID=CCMSLIB00000425923
SCANS=895
53.205 37.897 
END IONS

BEGIN IONS
PEPMASS=91.0759
CHARGE=1+
MSLEVEL=2
SOURCE_INSTRUMENT=Positive-Quattro_QQQ:25eV
FILENAME=hmdb_intermediate.mgf
SEQ=*..*
IONMODE=Positive
ORGANISM=HMDB
NAME=HMDB:HMDB03156-2204 2,3-Butanediol M+H
PI=HMDB
DATACOLLECTOR=HMDB
SMILES=CC(O)C(C)O
INCHI=InChI=1S/C4H10O2/c1-3(5)4(2)6/h3-6H,1-2H3
INCHIAUX=N/A
PUBMED=N/A
SUBMITUSER=mwang87
TAGS=
LIBRARYQUALITY=3
SPECTRUMID=CCMSLIB00000425929
SCANS=901
38.0 14.489 
39.0 26.495 
41.0 20.89 
END IONS

BEGIN IONS
PEPMASS=120.066
CHARGE=1+
MSLEVEL=2
SOURCE_INSTRUMENT=Positive-Quattro_QQQ:25eV
FILENAME=hmdb_intermediate.mgf
SEQ=*..*
IONMODE=Positive
ORGANISM=HMDB
NAME=HMDB:HMDB00167-264 L-Threonine M+H
PI=HMDB
DATACOLLECTOR=HMDB
SMILES=C[C@@H](O)[C@H](N)C(O)=O
INCHI=InChI=1S/C4H9NO3/c1-2(6)3(5)4(7)8/h2-3,6H,5H2,1H3,(H,7,8)/t2-,3+/m1/s1
INCHIAUX=N/A
PUBMED=N/A
SUBMITUSER=mwang87
TAGS=
LIBRARYQUALITY=3
SPECTRUMID=CCMSLIB00000425930
SCANS=902
46.233 3.771 
END IONS

BEGIN IONS
PEPMASS=129.066
CHARGE=1+
MSLEVEL=2
SOURCE_INSTRUMENT=Positive-Quattro_QQQ:25eV
FILENAME=hmdb_intermediate.mgf
SEQ=*..*
IONMODE=Positive
ORGANISM=HMDB
NAME=HMDB:HMDB00079-130 Dihydrothymine M+H
PI=HMDB
DATACOLLECTOR=HMDB
SMILES=CC1CNC(=O)NC1=O
INCHI=InChI=1S/C5H8N2O2/c1-3-2-6-5(9)7-4(3)8/h3H,2H2,1H3,(H2,6,7,8,9)
INCHIAUX=N/A
PUBMED=N/A
SUBMITUSER=mwang87
TAGS=
LIBRARYQUALITY=3
SPECTRUMID=CCMSLIB00000425931
SCANS=903
41.353 100.0 
43.352 4.143 
44.344 4.964 
END IONS

BEGIN IONS
PEPMASS=99.0446
CHARGE=1+
MSLEVEL=2
SOURCE_INSTRUMENT=Negative-Quattro_QQQ:40eV
FILENAME=hmdb_intermediate.mgf
SEQ=*..*
IONMODE=Negative
ORGANISM=HMDB
NAME=HMDB:HMDB01470-1594 Tiglic acid M-H
PI=HMDB
DATACOLLECTOR=HMDB
SMILES=C\C=C(/C)C(O)=O
INCHI=InChI=1S/C5H8O2/c1-3-4(2)5(6)7/h3H,1-2H3,(H,6,7)/b4-3+
INCHIAUX=N/A
PUBMED=N/A
SUBMITUSER=mwang87
TAGS=
LIBRARYQUALITY=3
SPECTRUMID=CCMSLIB00000425936
SCANS=908
39.711 7.835 
END IONS

BEGIN IONS
PEPMASS=159.066
CHARGE=1+
MSLEVEL=2
SOURCE_INSTRUMENT=Negative-Quattro_QQQ:40eV
FILENAME=hmdb_intermediate.mgf
SEQ=*..*
IONMODE=Negative
ORGANISM=HMDB
NAME=HMDB:HMDB00555-778 3-Methyladipic acid M-H
PI=HMDB
DATACOLLECTOR=HMDB
SMILES=C[C@@H](CCC(O)=O)CC(O)=O
INCHI=InChI=1S/C7H12O4/c1-5(4-7(10)11)2-3-6(8)9/h5H,2-4H2,1H3,(H,8,9)(H,10,11)/t5-/m0/s1
INCHIAUX=N/A
PUBMED=N/A
SUBMITUSER=mwang87
TAGS=
LIBRARYQUALITY=3
SPECTRUMID=CCMSLIB00000425940
SCANS=912
41.63 25.335 
END IONS

BEGIN IONS
PEPMASS=152.071
CHARGE=1+
MSLEVEL=2
SOURCE_INSTRUMENT=Positive-Quattro_QQQ:10eV
FILENAME=hmdb_intermediate.mgf
SEQ=*..*
IONMODE=Positive
ORGANISM=HMDB
NAME=HMDB:HMDB01859-1732 Acetaminophen M+H
PI=HMDB
DATACOLLECTOR=HMDB
SMILES=CC(=O)NC1=CC=C(O)C=C1
INCHI=InChI=1S/C8H9NO2/c1-6(10)9-7-2-4-8(11)5-3-7/h2-5,11H,1H3,(H,9,10)
INCHIAUX=N/A
PUBMED=N/A
SUBMITUSER=mwang87
TAGS=
LIBRARYQUALITY=3
SPECTRUMID=CCMSLIB00000425941
SCANS=913
43.953 14.863 
END IONS

BEGIN IONS
PEPMASS=91.0395
CHARGE=1+
MSLEVEL=2
SOURCE_INSTRUMENT=Positive-Quattro_QQQ:40eV
FILENAME=hmdb_intermediate.mgf
SEQ=*..*
IONMODE=Positive
ORGANISM=HMDB
NAME=HMDB:HMDB01051-1405 Glyceraldehyde M+H
PI=HMDB
DATACOLLECTOR=HMDB
SMILES=OCC(O)C=O
INCHI=InChI=1S/C3H6O3/c4-1-3(6)2-5/h1,3,5-6H,2H2
INCHIAUX=N/A
PUBMED=N/A
SUBMITUSER=mwang87
TAGS=
LIBRARYQUALITY=3
SPECTRUMID=CCMSLIB00000425943
SCANS=915
42.418 46.976 
43.316 87.097 
45.299 35.685 
END IONS

BEGIN IONS
PEPMASS=122.028
CHARGE=1+
MSLEVEL=2
SOURCE_INSTRUMENT=Positive-Quattro_QQQ:25eV
FILENAME=hmdb_intermediate.mgf
SEQ=*..*
IONMODE=Positive
ORGANISM=HMDB
NAME=HMDB:HMDB00574-801 L-Cysteine M+H
PI=HMDB
DATACOLLECTOR=HMDB
SMILES=N[C@@H](CS)C(O)=O
INCHI=InChI=1S/C3H7NO2S/c4-2(1-7)3(5)6/h2,7H,1,4H2,(H,5,6)/t2-/m0/s1
INCHIAUX=N/A
PUBMED=N/A
SUBMITUSER=mwang87
TAGS=
LIBRARYQUALITY=3
SPECTRUMID=CCMSLIB00000425945
SCANS=917
42.322 4.585 
43.368 10.197 
END IONS

BEGIN IONS
PEPMASS=157.014
CHARGE=1+
MSLEVEL=2
SOURCE_INSTRUMENT=Positive-Quattro_QQQ:25eV
FILENAME=hmdb_intermediate.mgf
SEQ=*..*
IONMODE=Positive
ORGANISM=HMDB
NAME=HMDB:HMDB04812-2404 2,5-Furandicarboxylic acid M+H
PI=HMDB
DATACOLLECTOR=HMDB
SMILES=OC(=O)C1=CC=C(O1)C(O)=O
INCHI=InChI=1S/C6H4O5/c7-5(8)3-1-2-4(11-3)6(9)10/h1-2H,(H,7,8)(H,9,10)
INCHIAUX=N/A
PUBMED=N/A
SUBMITUSER=mwang87
TAGS=
LIBRARYQUALITY=3
SPECTRUMID=CCMSLIB00000425947
SCANS=919
39.37 55.509 
END IONS

BEGIN IONS
PEPMASS=115.003
CHARGE=1+
MSLEVEL=2
SOURCE_INSTRUMENT=Negative-Quattro_QQQ:40eV
FILENAME=hmdb_intermediate.mgf
SEQ=*..*
IONMODE=Negative
ORGANISM=HMDB
NAME=HMDB:HMDB00134-208 Fumaric acid M-H
PI=HMDB
DATACOLLECTOR=HMDB
SMILES=OC(=O)\C=C\C(O)=O
INCHI=InChI=1S/C4H4O4/c5-3(6)1-2-4(7)8/h1-2H,(H,5,6)(H,7,8)/b2-1+
INCHIAUX=N/A
PUBMED=N/A
SUBMITUSER=mwang87
TAGS=
LIBRARYQUALITY=3
SPECTRUMID=CCMSLIB00000425948
SCANS=920
45.152 48.846 
END IONS

BEGIN IONS
PEPMASS=209.03
CHARGE=1+
MSLEVEL=2
SOURCE_INSTRUMENT=Negative-Quattro_QQQ:40eV
FILENAME=hmdb_intermediate.mgf
SEQ=*..*
IONMODE=Negative
ORGANISM=HMDB
NAME=HMDB:HMDB00663-908 Glucaric acid M-H
PI=HMDB
DATACOLLECTOR=HMDB
SMILES=O[C@@H]([C@H](O)[C@@H](O)C(O)=O)[C@H](O)C(O)=O
INCHI=InChI=1S/C6H10O8/c7-1(3(9)5(11)12)2(8)4(10)6(13)14/h1-4,7-10H,(H,11,12)(H,13,14)/t1-,2-,3-,4+/m0/s1
INCHIAUX=N/A
PUBMED=N/A
SUBMITUSER=mwang87
TAGS=
LIBRARYQUALITY=3
SPECTRUMID=CCMSLIB00000425949
SCANS=921
41.676 16.573 
43.648 69.101 
45.595 24.438 
47.598 7.69 
END IONS

BEGIN IONS
PEPMASS=133.086
CHARGE=1+
MSLEVEL=2
SOURCE_INSTRUMENT=Positive-Quattro_QQQ:25eV
FILENAME=hmdb_intermediate.mgf
SEQ=*..*
IONMODE=Positive
ORGANISM=HMDB
NAME=HMDB:HMDB00665-910 Leucinic acid M+H
PI=HMDB
DATACOLLECTOR=HMDB
SMILES=CC(C)CC(O)C(O)=O
INCHI=InChI=1S/C6H12O3/c1-4(2)3-5(7)6(8)9/h4-5,7H,3H2,1-2H3,(H,8,9)
INCHIAUX=N/A
PUBMED=N/A
SUBMITUSER=mwang87
TAGS=
LIBRARYQUALITY=3
SPECTRUMID=CCMSLIB00000425950
SCANS=922
51.776 37.59 
END IONS

BEGIN IONS
PEPMASS=169.05
CHARGE=1+
MSLEVEL=2
SOURCE_INSTRUMENT=Positive-Quattro_QQQ:25eV
FILENAME=hmdb_intermediate.mgf
SEQ=*..*
IONMODE=Positive
ORGANISM=HMDB
NAME=HMDB:HMDB00130-198 Homogentisic acid M+H
PI=HMDB
DATACOLLECTOR=HMDB
SMILES=OC(=O)CC1=C(O)C=CC(O)=C1
INCHI=InChI=1S/C8H8O4/c9-6-1-2-7(10)5(3-6)4-8(11)12/h1-3,9-10H,4H2,(H,11,12)
INCHIAUX=N/A
PUBMED=N/A
SUBMITUSER=mwang87
TAGS=
LIBRARYQUALITY=3
SPECTRUMID=CCMSLIB00000425953
SCANS=925
43.0 18.504 
END IONS

BEGIN IONS
PEPMASS=90.0555
CHARGE=1+
MSLEVEL=2
SOURCE_INSTRUMENT=Positive-Quattro_QQQ:10eV
FILENAME=hmdb_intermediate.mgf
SEQ=*..*
IONMODE=Positive
ORGANISM=HMDB
NAME=HMDB:HMDB00271-472 Sarcosine M+H
PI=HMDB
DATACOLLECTOR=HMDB
SMILES=CNCC(O)=O
INCHI=InChI=1S/C3H7NO2/c1-4-2-3(5)6/h4H,2H2,1H3,(H,5,6)
INCHIAUX=N/A
PUBMED=N/A
SUBMITUSER=mwang87
TAGS=
LIBRARYQUALITY=3
SPECTRUMID=CCMSLIB00000425954
SCANS=926
44.294 100.0 
END IONS

BEGIN IONS
PEPMASS=147.077
CHARGE=1+
MSLEVEL=2
SOURCE_INSTRUMENT=Positive-Quattro_QQQ:25eV
FILENAME=hmdb_intermediate.mgf
SEQ=*..*
IONMODE=Positive
ORGANISM=HMDB
NAME=HMDB:HMDB00641-880 L-Glutamine M+H
PI=HMDB
DATACOLLECTOR=HMDB
SMILES=N[C@@H](CCC(N)=O)C(O)=O
INCHI=InChI=1S/C5H10N2O3/c6-3(5(9)10)1-2-4(7)8/h3H,1-2,6H2,(H2,7,8)(H,9,10)/t3-/m0/s1
INCHIAUX=N/A
PUBMED=N/A
SUBMITUSER=mwang87
TAGS=
LIBRARYQUALITY=3
SPECTRUMID=CCMSLIB00000425959
SCANS=931
41.348 10.809 
END IONS

BEGIN IONS
PEPMASS=131.071
CHARGE=1+
MSLEVEL=2
SOURCE_INSTRUMENT=Negative-Quattro_QQQ:10eV
FILENAME=hmdb_intermediate.mgf
SEQ=*..*
IONMODE=Negative
ORGANISM=HMDB
NAME=HMDB:HMDB00746-1062 Hydroxyisocaproic acid M-H
PI=HMDB
DATACOLLECTOR=HMDB
SMILES=CC(C)C[C@H](O)C(O)=O
INCHI=InChI=1S/C6H12O3/c1-4(2)3-5(7)6(8)9/h4-5,7H,3H2,1-2H3,(H,8,9)/t5-/m0/s1
INCHIAUX=N/A
PUBMED=N/A
SUBMITUSER=mwang87
TAGS=
LIBRARYQUALITY=3
SPECTRUMID=CCMSLIB00000425964
SCANS=936
45.599 12.616 
END IONS

BEGIN IONS
PEPMASS=397.347
CHARGE=1+
MSLEVEL=2
SOURCE_INSTRUMENT=Positive-Quattro_QQQ:40eV
FILENAME=hmdb_intermediate.mgf
SEQ=*..*
IONMODE=Positive
ORGANISM=HMDB
NAME=HMDB:HMDB00878-1240 Ergosterol M+H
PI=HMDB
DATACOLLECTOR=HMDB
SMILES=CC(C)[C@@H](C)\C=C\[C@@H](C)C1CCC2C3=CC=C4C[C@@H](O)CC[C@]4(C)C3CC[C@]12C
INCHI=InChI=1S/C28H44O/c1-18(2)19(3)7-8-20(4)24-11-12-25-23-10-9-21-17-22(29)13-15-27(21,5)26(23)14-16-28(24,25)6/h7-10,18-20,22,24-26,29H,11-17H2,1-6H3/b8-7+/t19-,20+,22-,24?,25?,26?,27-,28+/m0/s1
INCHIAUX=N/A
PUBMED=N/A
SUBMITUSER=mwang87
TAGS=
LIBRARYQUALITY=3
SPECTRUMID=CCMSLIB00000425966
SCANS=938
43.306 88.235 
END IONS

BEGIN IONS
PEPMASS=167.057
CHARGE=1+
MSLEVEL=2
SOURCE_INSTRUMENT=Positive-Quattro_QQQ:40eV
FILENAME=hmdb_intermediate.mgf
SEQ=*..*
IONMODE=Positive
ORGANISM=HMDB
NAME=HMDB:HMDB01886-1788 3-Methylxanthine M+H
PI=HMDB
DATACOLLECTOR=HMDB
SMILES=CN1C2=C(NC=N2)C(=O)NC1=O
INCHI=InChI=1S/C6H6N4O2/c1-10-4-3(7-2-8-4)5(11)9-6(10)12/h2H,1H3,(H,7,8)(H,9,11,12)
INCHIAUX=N/A
PUBMED=N/A
SUBMITUSER=mwang87
TAGS=
LIBRARYQUALITY=3
SPECTRUMID=CCMSLIB00000425968
SCANS=940
42.21 76.647 
42.587 100.0 
43.59 61.286 
END IONS

BEGIN IONS
PEPMASS=159.041
CHARGE=1+
MSLEVEL=2
SOURCE_INSTRUMENT=Positive-Quattro_QQQ:25eV
FILENAME=hmdb_intermediate.mgf
SEQ=*..*
IONMODE=Positive
ORGANISM=HMDB
NAME=HMDB:HMDB00528-747 4,5-Dihydroorotic acid M+H
PI=HMDB
DATACOLLECTOR=HMDB
SMILES=OC(=O)C1CC(=O)NC(=O)N1
INCHI=InChI=1S/C5H6N2O4/c8-3-1-2(4(9)10)6-5(11)7-3/h2H,1H2,(H,9,10)(H2,6,7,8,11)
INCHIAUX=N/A
PUBMED=N/A
SUBMITUSER=mwang87
TAGS=
LIBRARYQUALITY=3
SPECTRUMID=CCMSLIB00000425975
SCANS=947
43.309 47.549 
44.441 9.191 
46.26 12.377 
53.209 9.804 
END IONS

BEGIN IONS
PEPMASS=131.071
CHARGE=1+
MSLEVEL=2
SOURCE_INSTRUMENT=Negative-Quattro_QQQ:40eV
FILENAME=hmdb_intermediate.mgf
SEQ=*..*
IONMODE=Negative
ORGANISM=HMDB
NAME=HMDB:HMDB00746-1064 Hydroxyisocaproic acid M-H
PI=HMDB
DATACOLLECTOR=HMDB
SMILES=CC(C)C[C@H](O)C(O)=O
INCHI=InChI=1S/C6H12O3/c1-4(2)3-5(7)6(8)9/h4-5,7H,3H2,1-2H3,(H,8,9)/t5-/m0/s1
INCHIAUX=N/A
PUBMED=N/A
SUBMITUSER=mwang87
TAGS=
LIBRARYQUALITY=3
SPECTRUMID=CCMSLIB00000425978
SCANS=950
41.696 17.518 
43.667 8.896 
45.506 100.0 
51.559 7.026 
END IONS

BEGIN IONS
PEPMASS=109.029
CHARGE=1+
MSLEVEL=2
SOURCE_INSTRUMENT=Positive-Quattro_QQQ:25eV
FILENAME=hmdb_intermediate.mgf
SEQ=*..*
IONMODE=Positive
ORGANISM=HMDB
NAME=HMDB:HMDB03364-2269 Quinone M+H
PI=HMDB
DATACOLLECTOR=HMDB
SMILES=O=C1C=CC(=O)C=C1
INCHI=InChI=1S/C6H4O2/c7-5-1-2-6(8)4-3-5/h1-4H
INCHIAUX=N/A
PUBMED=N/A
SUBMITUSER=mwang87
TAGS=
LIBRARYQUALITY=3
SPECTRUMID=CCMSLIB00000425982
SCANS=954
51.0 16.861 
END IONS

BEGIN IONS
PEPMASS=260.186
CHARGE=1+
MSLEVEL=2
SOURCE_INSTRUMENT=Positive-Quattro_QQQ:25eV
FILENAME=hmdb_intermediate.mgf
SEQ=*..*
IONMODE=Positive
ORGANISM=HMDB
NAME=HMDB:HMDB00705-985 Hexanoylcarnitine M+H
PI=HMDB
DATACOLLECTOR=HMDB
SMILES=CCCCCC(=O)OC(CC([O-])=O)C[N+](C)(C)C
INCHI=InChI=1S/C13H25NO4/c1-5-6-7-8-13(17)18-11(9-12(15)16)10-14(2,3)4/h11H,5-10H2,1-4H3
INCHIAUX=N/A
PUBMED=N/A
SUBMITUSER=mwang87
TAGS=
LIBRARYQUALITY=3
SPECTRUMID=CCMSLIB00000425985
SCANS=957
43.59 4.608 
END IONS

BEGIN IONS
PEPMASS=225.088
CHARGE=1+
MSLEVEL=2
SOURCE_INSTRUMENT=Positive-Quattro_QQQ:25eV
FILENAME=hmdb_intermediate.mgf
SEQ=*..*
IONMODE=Positive
ORGANISM=HMDB
NAME=HMDB:HMDB00732-1033 Hydroxykynurenine M+H
PI=HMDB
DATACOLLECTOR=HMDB
SMILES=NC(CC(=O)C1=C(N)C(O)=CC=C1)C(O)=O
INCHI=InChI=1S/C10H12N2O4/c11-6(10(15)16)4-8(14)5-2-1-3-7(13)9(5)12/h1-3,6,13H,4,11-12H2,(H,15,16)
INCHIAUX=N/A
PUBMED=N/A
SUBMITUSER=mwang87
TAGS=
LIBRARYQUALITY=3
SPECTRUMID=CCMSLIB00000425986
SCANS=958
43.302 9.659 
46.268 4.545 
END IONS

BEGIN IONS
PEPMASS=260.044
CHARGE=1+
MSLEVEL=2
SOURCE_INSTRUMENT=Positive-Quattro_QQQ:40eV
FILENAME=hmdb_intermediate.mgf
SEQ=*..*
IONMODE=Positive
ORGANISM=HMDB
NAME=HMDB:HMDB00592-818 Glucosamine 6-sulfate M+H
PI=HMDB
DATACOLLECTOR=HMDB
SMILES=N[C@H]1[C@H](O)O[C@H](COS(O)(=O)=O)[C@@H](O)[C@@H]1O
INCHI=InChI=1S/C6H13NO8S/c7-3-5(9)4(8)2(15-6(3)10)1-14-16(11,12)13/h2-6,8-10H,1,7H2,(H,11,12,13)/t2-,3-,4-,5-,6-/m1/s1
INCHIAUX=N/A
PUBMED=N/A
SUBMITUSER=mwang87
TAGS=
LIBRARYQUALITY=3
SPECTRUMID=CCMSLIB00000425990
SCANS=962
52.218 60.23 
53.21 8.284 
END IONS

BEGIN IONS
PEPMASS=77.0603
CHARGE=1+
MSLEVEL=2
SOURCE_INSTRUMENT=Positive-Quattro_QQQ:40eV
FILENAME=hmdb_intermediate.mgf
SEQ=*..*
IONMODE=Positive
ORGANISM=HMDB
NAME=HMDB:HMDB01881-1782 Propylene glycol M+H
PI=HMDB
DATACOLLECTOR=HMDB
SMILES=CC(O)CO
INCHI=InChI=1S/C3H8O2/c1-3(5)2-4/h3-5H,2H2,1H3
INCHIAUX=N/A
PUBMED=N/A
SUBMITUSER=mwang87
TAGS=
LIBRARYQUALITY=3
SPECTRUMID=CCMSLIB00000425991
SCANS=963
10.24 12.739 
14.196 11.996 
18.4 11.996 
24.952 13.476 
29.032 14.219 
31.381 49.711 
33.359 68.937 
34.842 13.724 
38.922 12.739 
45.104 65.983 
47.453 61.789 
END IONS

BEGIN IONS
PEPMASS=69.0453
CHARGE=1+
MSLEVEL=2
SOURCE_INSTRUMENT=Positive-Quattro_QQQ:10eV
FILENAME=hmdb_intermediate.mgf
SEQ=*..*
IONMODE=Positive
ORGANISM=HMDB
NAME=HMDB:HMDB01525-1625 Imidazole M+H
PI=HMDB
DATACOLLECTOR=HMDB
SMILES=N1C=CN=C1
INCHI=InChI=1S/C3H4N2/c1-2-5-3-4-1/h1-3H,(H,4,5)
INCHIAUX=N/A
PUBMED=N/A
SUBMITUSER=mwang87
TAGS=
LIBRARYQUALITY=3
SPECTRUMID=CCMSLIB00000426004
SCANS=976
41.42 100.0 
41.669 72.199 
42.79 23.339 
END IONS

BEGIN IONS
PEPMASS=56.9673
CHARGE=1+
MSLEVEL=2
SOURCE_INSTRUMENT=Negative-Quattro_QQQ:25eV
FILENAME=hmdb_intermediate.mgf
SEQ=*..*
IONMODE=Negative
ORGANISM=HMDB
NAME=HMDB:HMDB01453-1584 Thiocyanate M-H
PI=HMDB
DATACOLLECTOR=HMDB
SMILES=[S-]C#N
INCHI=InChI=1S/CHNS/c2-1-3/h3H/p-1
INCHIAUX=N/A
PUBMED=N/A
SUBMITUSER=mwang87
TAGS=
LIBRARYQUALITY=3
SPECTRUMID=CCMSLIB00000426011
SCANS=983
26.0 47.503 
END IONS

BEGIN IONS
PEPMASS=124.04
CHARGE=1+
MSLEVEL=2
SOURCE_INSTRUMENT=Positive-Quattro_QQQ:40eV
FILENAME=hmdb_intermediate.mgf
SEQ=*..*
IONMODE=Positive
ORGANISM=HMDB
NAME=HMDB:HMDB02243-2045 Picolinic acid M+H
PI=HMDB
DATACOLLECTOR=HMDB
SMILES=OC(=O)C1=CC=CC=N1
INCHI=InChI=1S/C6H5NO2/c8-6(9)5-3-1-2-4-7-5/h1-4H,(H,8,9)
INCHIAUX=N/A
PUBMED=N/A
SUBMITUSER=mwang87
TAGS=
LIBRARYQUALITY=3
SPECTRUMID=CCMSLIB00000426014
SCANS=986
51.096 70.468 
END IONS

BEGIN IONS
PEPMASS=176.104
CHARGE=1+
MSLEVEL=2
SOURCE_INSTRUMENT=Positive-Quattro_QQQ:25eV
FILENAME=hmdb_intermediate.mgf
SEQ=*..*
IONMODE=Positive
ORGANISM=HMDB
NAME=HMDB:HMDB00904-1287 Citrulline M+H
PI=HMDB
DATACOLLECTOR=HMDB
SMILES=N[C@@H](CCCNC(N)=O)C(O)=O
INCHI=InChI=1S/C6H13N3O3/c7-4(5(10)11)2-1-3-9-6(8)12/h4H,1-3,7H2,(H,10,11)(H3,8,9,12)/t4-/m0/s1
INCHIAUX=N/A
PUBMED=N/A
SUBMITUSER=mwang87
TAGS=
LIBRARYQUALITY=3
SPECTRUMID=CCMSLIB00000426015
SCANS=987
43.302 2.498 
END IONS

BEGIN IONS
PEPMASS=85.0653
CHARGE=1+
MSLEVEL=2
SOURCE_INSTRUMENT=Positive-Quattro_QQQ:40eV
FILENAME=hmdb_intermediate.mgf
SEQ=*..*
IONMODE=Positive
ORGANISM=HMDB
NAME=HMDB:HMDB01184-1453 Methyl propenyl ketone M+H
PI=HMDB
DATACOLLECTOR=HMDB
SMILES=C\C=C\C(C)=O
INCHI=InChI=1S/C5H8O/c1-3-4-5(2)6/h3-4H,1-2H3/b4-3+
INCHIAUX=N/A
PUBMED=N/A
SUBMITUSER=mwang87
TAGS=
LIBRARYQUALITY=3
SPECTRUMID=CCMSLIB00000426016
SCANS=988
27.338 28.011 
39.209 59.138 
41.209 24.273 
41.594 11.275 
43.145 100.0 
END IONS

BEGIN IONS
PEPMASS=133.014
CHARGE=1+
MSLEVEL=2
SOURCE_INSTRUMENT=Negative-Quattro_QQQ:10eV
FILENAME=hmdb_intermediate.mgf
SEQ=*..*
IONMODE=Negative
ORGANISM=HMDB
NAME=HMDB:HMDB00744-1056 Malic acid M-H
PI=HMDB
DATACOLLECTOR=HMDB
SMILES=OC(CC(O)=O)C(O)=O
INCHI=InChI=1S/C4H6O5/c5-2(4(8)9)1-3(6)7/h2,5H,1H2,(H,6,7)(H,8,9)
INCHIAUX=N/A
PUBMED=N/A
SUBMITUSER=mwang87
TAGS=
LIBRARYQUALITY=3
SPECTRUMID=CCMSLIB00000426018
SCANS=990
43.337 4.436 
END IONS

BEGIN IONS
PEPMASS=114.067
CHARGE=1+
MSLEVEL=2
SOURCE_INSTRUMENT=Positive-Quattro_QQQ:40eV
FILENAME=hmdb_intermediate.mgf
SEQ=*..*
IONMODE=Positive
ORGANISM=HMDB
NAME=HMDB:HMDB00562-787 Creatinine M+H
PI=HMDB
DATACOLLECTOR=HMDB
SMILES=CN1CC(=O)NC1=N
INCHI=InChI=1S/C4H7N3O/c1-7-2-3(8)6-4(7)5/h2H2,1H3,(H2,5,6,8)
INCHIAUX=N/A
PUBMED=N/A
SUBMITUSER=mwang87
TAGS=
LIBRARYQUALITY=3
SPECTRUMID=CCMSLIB00000426022
SCANS=994
43.225 100.0 
44.372 100.0 
END IONS

BEGIN IONS
PEPMASS=89.1079
CHARGE=1+
MSLEVEL=2
SOURCE_INSTRUMENT=Positive-Quattro_QQQ:25eV
FILENAME=hmdb_intermediate.mgf
SEQ=*..*
IONMODE=Positive
ORGANISM=HMDB
NAME=HMDB:HMDB60243-1569 Putrescine M+H
PI=HMDB
DATACOLLECTOR=HMDB
SMILES=NCCCCN
INCHI=InChI=1S/C4H12N2/c5-3-1-2-4-6/h1-6H2
INCHIAUX=N/A
PUBMED=N/A
SUBMITUSER=mwang87
TAGS=
LIBRARYQUALITY=3
SPECTRUMID=CCMSLIB00000426023
SCANS=995
44.261 7.552 
END IONS

BEGIN IONS
PEPMASS=138.055
CHARGE=1+
MSLEVEL=2
SOURCE_INSTRUMENT=Positive-Quattro_QQQ:40eV
FILENAME=hmdb_intermediate.mgf
SEQ=*..*
IONMODE=Positive
ORGANISM=HMDB
NAME=HMDB:HMDB01891-1800 m-Aminobenzoic acid M+H
PI=HMDB
DATACOLLECTOR=HMDB
SMILES=NC1=CC=CC(=C1)C(O)=O
INCHI=InChI=1S/C7H7NO2/c8-6-3-1-2-5(4-6)7(9)10/h1-4H,8H2,(H,9,10)
INCHIAUX=N/A
PUBMED=N/A
SUBMITUSER=mwang87
TAGS=
LIBRARYQUALITY=3
SPECTRUMID=CCMSLIB00000426031
SCANS=1003
51.189 17.143 
END IONS

BEGIN IONS
PEPMASS=133.098
CHARGE=1+
MSLEVEL=2
SOURCE_INSTRUMENT=Positive-Quattro_QQQ:25eV
FILENAME=hmdb_intermediate.mgf
SEQ=*..*
IONMODE=Positive
ORGANISM=HMDB
NAME=HMDB:HMDB00214-350 Ornithine M+H
PI=HMDB
DATACOLLECTOR=HMDB
SMILES=NCCC[C@H](N)C(O)=O
INCHI=InChI=1S/C5H12N2O2/c6-3-1-2-4(7)5(8)9/h4H,1-3,6-7H2,(H,8,9)/t4-/m0/s1
INCHIAUX=N/A
PUBMED=N/A
SUBMITUSER=mwang87
TAGS=
LIBRARYQUALITY=3
SPECTRUMID=CCMSLIB00000426034
SCANS=1006
43.334 2.662 
END IONS

BEGIN IONS
PEPMASS=134.045
CHARGE=1+
MSLEVEL=2
SOURCE_INSTRUMENT=Positive-Quattro_QQQ:40eV
FILENAME=hmdb_intermediate.mgf
SEQ=*..*
IONMODE=Positive
ORGANISM=HMDB
NAME=HMDB:HMDB00191-306 L-Aspartic acid M+H
PI=HMDB
DATACOLLECTOR=HMDB
SMILES=N[C@@H](CC(O)=O)C(O)=O
INCHI=InChI=1S/C4H7NO4/c5-2(4(8)9)1-3(6)7/h2H,1,5H2,(H,6,7)(H,8,9)/t2-/m0/s1
INCHIAUX=N/A
PUBMED=N/A
SUBMITUSER=mwang87
TAGS=
LIBRARYQUALITY=3
SPECTRUMID=CCMSLIB00000426038
SCANS=1010
43.193 79.63 
45.16 21.528 
46.26 39.12 
END IONS

BEGIN IONS
PEPMASS=283.264
CHARGE=1+
MSLEVEL=2
SOURCE_INSTRUMENT=Positive-Quattro_QQQ:40eV
FILENAME=hmdb_intermediate.mgf
SEQ=*..*
IONMODE=Positive
ORGANISM=HMDB
NAME=HMDB:HMDB00207-336 Oleic acid M+H
PI=HMDB
DATACOLLECTOR=HMDB
SMILES=CCCCCCCC\C=C/CCCCCCCC(O)=O
INCHI=InChI=1S/C18H34O2/c1-2-3-4-5-6-7-8-9-10-11-12-13-14-15-16-17-18(19)20/h9-10H,2-8,11-17H2,1H3,(H,19,20)/b10-9-
INCHIAUX=N/A
PUBMED=N/A
SUBMITUSER=mwang87
TAGS=
LIBRARYQUALITY=3
SPECTRUMID=CCMSLIB00000426049
SCANS=1021
41.0 30.489 
43.0 60.352 
END IONS

BEGIN IONS
PEPMASS=135.029
CHARGE=1+
MSLEVEL=2
SOURCE_INSTRUMENT=Positive-Quattro_QQQ:25eV
FILENAME=hmdb_intermediate.mgf
SEQ=*..*
IONMODE=Positive
ORGANISM=HMDB
NAME=HMDB:HMDB00156-240 L-Malic acid M+H
PI=HMDB
DATACOLLECTOR=HMDB
SMILES=O[C@@H](CC(O)=O)C(O)=O
INCHI=InChI=1S/C4H6O5/c5-2(4(8)9)1-3(6)7/h2,5H,1H2,(H,6,7)(H,8,9)/t2-/m0/s1
INCHIAUX=N/A
PUBMED=N/A
SUBMITUSER=mwang87
TAGS=
LIBRARYQUALITY=3
SPECTRUMID=CCMSLIB00000426050
SCANS=1022
41.0 13.998 
43.0 89.757 
44.0 14.213 
45.0 49.219 
53.0 24.265 
END IONS

BEGIN IONS
PEPMASS=175.024
CHARGE=1+
MSLEVEL=2
SOURCE_INSTRUMENT=Positive-Quattro_QQQ:10eV
FILENAME=hmdb_intermediate.mgf
SEQ=*..*
IONMODE=Positive
ORGANISM=HMDB
NAME=HMDB:HMDB00072-117 cis-Aconitic acid M+H
PI=HMDB
DATACOLLECTOR=HMDB
SMILES=OC(=O)C\C(=C\C(O)=O)C(O)=O
INCHI=InChI=1S/C6H6O6/c7-4(8)1-3(6(11)12)2-5(9)10/h1H,2H2,(H,7,8)(H,9,10)(H,11,12)/b3-1-
INCHIAUX=N/A
PUBMED=N/A
SUBMITUSER=mwang87
TAGS=
LIBRARYQUALITY=3
SPECTRUMID=CCMSLIB00000426052
SCANS=1024
41.393 4.358 
END IONS

BEGIN IONS
PEPMASS=103.04
CHARGE=1+
MSLEVEL=2
SOURCE_INSTRUMENT=Negative-Quattro_QQQ:40eV
FILENAME=hmdb_intermediate.mgf
SEQ=*..*
IONMODE=Negative
ORGANISM=HMDB
NAME=HMDB:HMDB00357-575 3-Hydroxybutyric acid M-H
PI=HMDB
DATACOLLECTOR=HMDB
SMILES=CC(O)CC(O)=O
INCHI=InChI=1S/C4H8O3/c1-3(5)2-4(6)7/h3,5H,2H2,1H3,(H,6,7)
INCHIAUX=N/A
PUBMED=N/A
SUBMITUSER=mwang87
TAGS=
LIBRARYQUALITY=3
SPECTRUMID=CCMSLIB00000426053
SCANS=1025
41.316 76.042 
END IONS

BEGIN IONS
PEPMASS=129.019
CHARGE=1+
MSLEVEL=2
SOURCE_INSTRUMENT=Negative-Quattro_QQQ:40eV
FILENAME=hmdb_intermediate.mgf
SEQ=*..*
IONMODE=Negative
ORGANISM=HMDB
NAME=HMDB:HMDB00634-866 Citraconic acid M-H
PI=HMDB
DATACOLLECTOR=HMDB
SMILES=C\C(=C\C(O)=O)C(O)=O
INCHI=InChI=1S/C5H6O4/c1-3(5(8)9)2-4(6)7/h2H,1H3,(H,6,7)(H,8,9)/b3-2-
INCHIAUX=N/A
PUBMED=N/A
SUBMITUSER=mwang87
TAGS=
LIBRARYQUALITY=3
SPECTRUMID=CCMSLIB00000426057
SCANS=1029
41.605 100.0 
END IONS

BEGIN IONS
PEPMASS=152.108
CHARGE=1+
MSLEVEL=2
SOURCE_INSTRUMENT=Positive-Quattro_QQQ:40eV
FILENAME=hmdb_intermediate.mgf
SEQ=*..*
IONMODE=Positive
ORGANISM=HMDB
NAME=HMDB:HMDB01942-1901 Phenylpropanolamine M+H
PI=HMDB
DATACOLLECTOR=HMDB
SMILES=C[C@@H](N)[C@@H](O)C1=CC=CC=C1
INCHI=InChI=1S/C9H13NO/c1-7(10)9(11)8-5-3-2-4-6-8/h2-7,9,11H,10H2,1H3/t7-,9-/m1/s1
INCHIAUX=N/A
PUBMED=N/A
SUBMITUSER=mwang87
TAGS=
LIBRARYQUALITY=3
SPECTRUMID=CCMSLIB00000426058
SCANS=1030
52.825 19.388 
END IONS

BEGIN IONS
PEPMASS=160.097
CHARGE=1+
MSLEVEL=2
SOURCE_INSTRUMENT=Positive-Quattro_QQQ:25eV
FILENAME=hmdb_intermediate.mgf
SEQ=*..*
IONMODE=Positive
ORGANISM=HMDB
NAME=HMDB:HMDB00339-547 2-Methylbutyrylglycine M+H
PI=HMDB
DATACOLLECTOR=HMDB
SMILES=CCC(C)C(=O)NCC(O)=O
INCHI=InChI=1S/C7H13NO3/c1-3-5(2)7(11)8-4-6(9)10/h5H,3-4H2,1-2H3,(H,8,11)(H,9,10)
INCHIAUX=N/A
PUBMED=N/A
SUBMITUSER=mwang87
TAGS=
LIBRARYQUALITY=3
SPECTRUMID=CCMSLIB00000426059
SCANS=1031
41.682 19.468 
END IONS

BEGIN IONS
PEPMASS=117.019
CHARGE=1+
MSLEVEL=2
SOURCE_INSTRUMENT=Negative-Quattro_QQQ:40eV
FILENAME=hmdb_intermediate.mgf
SEQ=*..*
IONMODE=Negative
ORGANISM=HMDB
NAME=HMDB:HMDB00202-327 Methylmalonic acid M-H
PI=HMDB
DATACOLLECTOR=HMDB
SMILES=CC(C(O)=O)C(O)=O
INCHI=InChI=1S/C4H6O4/c1-2(3(5)6)4(7)8/h2H,1H3,(H,5,6)(H,7,8)
INCHIAUX=N/A
PUBMED=N/A
SUBMITUSER=mwang87
TAGS=
LIBRARYQUALITY=3
SPECTRUMID=CCMSLIB00000426060
SCANS=1032
40.636 10.248 
END IONS

BEGIN IONS
PEPMASS=145.05
CHARGE=1+
MSLEVEL=2
SOURCE_INSTRUMENT=Negative-Quattro_QQQ:25eV
FILENAME=hmdb_intermediate.mgf
SEQ=*..*
IONMODE=Negative
ORGANISM=HMDB
NAME=HMDB:HMDB00448-654 Adipic acid M-H
PI=HMDB
DATACOLLECTOR=HMDB
SMILES=OC(=O)CCCCC(O)=O
INCHI=InChI=1S/C6H10O4/c7-5(8)3-1-2-4-6(9)10/h1-4H2,(H,7,8)(H,9,10)
INCHIAUX=N/A
PUBMED=N/A
SUBMITUSER=mwang87
TAGS=
LIBRARYQUALITY=3
SPECTRUMID=CCMSLIB00000426062
SCANS=1034
53.257 15.0 
END IONS

BEGIN IONS
PEPMASS=78.0377
CHARGE=1+
MSLEVEL=2
SOURCE_INSTRUMENT=Positive-Quattro_QQQ:25eV
FILENAME=hmdb_intermediate.mgf
SEQ=*..*
IONMODE=Positive
ORGANISM=HMDB
NAME=HMDB:HMDB60150-2177 Cysteamine M+H
PI=HMDB
DATACOLLECTOR=HMDB
SMILES=NCCS
INCHI=InChI=1S/C2H7NS/c3-1-2-4/h4H,1-3H2
INCHIAUX=N/A
PUBMED=N/A
SUBMITUSER=mwang87
TAGS=
LIBRARYQUALITY=3
SPECTRUMID=CCMSLIB00000426064
SCANS=1036
18.0 5.988 
27.0 24.183 
35.0 31.818 
END IONS

BEGIN IONS
PEPMASS=243.098
CHARGE=1+
MSLEVEL=2
SOURCE_INSTRUMENT=Positive-Quattro_QQQ:40eV
FILENAME=hmdb_intermediate.mgf
SEQ=*..*
IONMODE=Positive
ORGANISM=HMDB
NAME=HMDB:HMDB00273-480 Thymidine M+H
PI=HMDB
DATACOLLECTOR=HMDB
SMILES=CC1=CN([C@H]2C[C@H](O)[C@@H](CO)O2)C(=O)NC1=O
INCHI=InChI=1S/C10H14N2O5/c1-5-3-12(10(16)11-9(5)15)8-2-6(14)7(4-13)17-8/h3,6-8,13-14H,2,4H2,1H3,(H,11,15,16)/t6-,7+,8+/m0/s1
INCHIAUX=N/A
PUBMED=N/A
SUBMITUSER=mwang87
TAGS=
LIBRARYQUALITY=3
SPECTRUMID=CCMSLIB00000426067
SCANS=1039
43.351 7.277 
45.349 9.546 
END IONS

BEGIN IONS
PEPMASS=137.133
CHARGE=1+
MSLEVEL=2
SOURCE_INSTRUMENT=Positive-Quattro_QQQ:40eV
FILENAME=hmdb_intermediate.mgf
SEQ=*..*
IONMODE=Positive
ORGANISM=HMDB
NAME=HMDB:HMDB05806-2453 Gamma-terpinene M+H
PI=HMDB
DATACOLLECTOR=HMDB
SMILES=CC(C)C1=CCC(C)=CC1
INCHI=InChI=1S/C10H16/c1-8(2)10-6-4-9(3)5-7-10/h4,7-8H,5-6H2,1-3H3
INCHIAUX=N/A
PUBMED=N/A
SUBMITUSER=mwang87
TAGS=
LIBRARYQUALITY=3
SPECTRUMID=CCMSLIB00000426068
SCANS=1040
41.22 100.0 
END IONS

BEGIN IONS
PEPMASS=61.0402
CHARGE=1+
MSLEVEL=2
SOURCE_INSTRUMENT=Positive-Quattro_QQQ:10eV
FILENAME=hmdb_intermediate.mgf
SEQ=*..*
IONMODE=Positive
ORGANISM=HMDB
NAME=HMDB:HMDB00294-498 Urea M+H
PI=HMDB
DATACOLLECTOR=HMDB
SMILES=NC(N)=O
INCHI=InChI=1S/CH4N2O/c2-1(3)4/h(H4,2,3,4)
INCHIAUX=N/A
PUBMED=N/A
SUBMITUSER=mwang87
TAGS=
LIBRARYQUALITY=3
SPECTRUMID=CCMSLIB00000426069
SCANS=1041
44.0 17.948 
END IONS

BEGIN IONS
PEPMASS=115.003
CHARGE=1+
MSLEVEL=2
SOURCE_INSTRUMENT=Negative-Quattro_QQQ:25eV
FILENAME=hmdb_intermediate.mgf
SEQ=*..*
IONMODE=Negative
ORGANISM=HMDB
NAME=HMDB:HMDB00134-207 Fumaric acid M-H
PI=HMDB
DATACOLLECTOR=HMDB
SMILES=OC(=O)\C=C\C(O)=O
INCHI=InChI=1S/C4H4O4/c5-3(6)1-2-4(7)8/h1-2H,(H,5,6)(H,7,8)/b2-1+
INCHIAUX=N/A
PUBMED=N/A
SUBMITUSER=mwang87
TAGS=
LIBRARYQUALITY=3
SPECTRUMID=CCMSLIB00000426071
SCANS=1043
45.207 29.412 
END IONS

BEGIN IONS
PEPMASS=195.066
CHARGE=1+
MSLEVEL=2
SOURCE_INSTRUMENT=Negative-Quattro_QQQ:40eV
FILENAME=hmdb_intermediate.mgf
SEQ=*..*
IONMODE=Negative
ORGANISM=HMDB
NAME=HMDB:HMDB00434-637 Homoveratric acid M-H
PI=HMDB
DATACOLLECTOR=HMDB
SMILES=COC1=CC=C(CC(O)=O)C=C1OC
INCHI=InChI=1S/C10H12O4/c1-13-8-4-3-7(6-10(11)12)5-9(8)14-2/h3-5H,6H2,1-2H3,(H,11,12)
INCHIAUX=N/A
PUBMED=N/A
SUBMITUSER=mwang87
TAGS=
LIBRARYQUALITY=3
SPECTRUMID=CCMSLIB00000426072
SCANS=1044
41.652 8.791 
END IONS

BEGIN IONS
PEPMASS=193.035
CHARGE=1+
MSLEVEL=2
SOURCE_INSTRUMENT=Negative-Quattro_QQQ:40eV
FILENAME=hmdb_intermediate.mgf
SEQ=*..*
IONMODE=Negative
ORGANISM=HMDB
NAME=HMDB:HMDB00127-193 D-Glucuronic acid M-H
PI=HMDB
DATACOLLECTOR=HMDB
SMILES=O[C@H]1O[C@@H]([C@@H](O)[C@H](O)[C@H]1O)C(O)=O
INCHI=InChI=1S/C6H10O7/c7-1-2(8)4(5(10)11)13-6(12)3(1)9/h1-4,6-9,12H,(H,10,11)/t1-,2-,3+,4-,6-/m0/s1
INCHIAUX=N/A
PUBMED=N/A
SUBMITUSER=mwang87
TAGS=
LIBRARYQUALITY=3
SPECTRUMID=CCMSLIB00000426073
SCANS=1045
41.645 19.1033825967 
43.623 44.8132341011 
45.571 21.226764488 
END IONS

BEGIN IONS
PEPMASS=385.347
CHARGE=1+
MSLEVEL=2
SOURCE_INSTRUMENT=Positive-Quattro_QQQ:40eV
FILENAME=hmdb_intermediate.mgf
SEQ=*..*
IONMODE=Positive
ORGANISM=HMDB
NAME=HMDB:HMDB00032-53 7-Dehydrocholesterol M+H
PI=HMDB
DATACOLLECTOR=HMDB
SMILES=[H][C@@]12CC[C@H]([C@H](C)CCCC(C)C)[C@@]1(C)CC[C@@]1([H])C2=CC=C2C[C@@H](O)CC[C@]12C
INCHI=InChI=1S/C27H44O/c1-18(2)7-6-8-19(3)23-11-12-24-22-10-9-20-17-21(28)13-15-26(20,4)25(22)14-16-27(23,24)5/h9-10,18-19,21,23-25,28H,6-8,11-17H2,1-5H3/t19-,21+,23-,24+,25+,26+,27-/m1/s1
INCHIAUX=N/A
PUBMED=N/A
SUBMITUSER=mwang87
TAGS=
LIBRARYQUALITY=3
SPECTRUMID=CCMSLIB00000426076
SCANS=1048
41.325 15.824 
43.37 35.106 
END IONS

BEGIN IONS
PEPMASS=119.071
CHARGE=1+
MSLEVEL=2
SOURCE_INSTRUMENT=Positive-Quattro_QQQ:10eV
FILENAME=hmdb_intermediate.mgf
SEQ=*..*
IONMODE=Positive
ORGANISM=HMDB
NAME=HMDB:HMDB00351-564 3-Hydroxy-2-methyl-[R-(R,S)]-butanoic acid M+H
PI=HMDB
DATACOLLECTOR=HMDB
SMILES=C[C@@H](O)[C@H](C)C(O)=O
INCHI=InChI=1S/C5H10O3/c1-3(4(2)6)5(7)8/h3-4,6H,1-2H3,(H,7,8)/t3-,4+/m0/s1
INCHIAUX=N/A
PUBMED=N/A
SUBMITUSER=mwang87
TAGS=
LIBRARYQUALITY=3
SPECTRUMID=CCMSLIB00000426078
SCANS=1050
45.0 21.7 
END IONS

BEGIN IONS
PEPMASS=155.009
CHARGE=1+
MSLEVEL=2
SOURCE_INSTRUMENT=Negative-Quattro_QQQ:10eV
FILENAME=hmdb_intermediate.mgf
SEQ=*..*
IONMODE=Negative
ORGANISM=HMDB
NAME=HMDB:HMDB00226-373 Orotic acid M-H
PI=HMDB
DATACOLLECTOR=HMDB
SMILES=OC(=O)C1=CC(=O)NC(=O)N1
INCHI=InChI=1S/C5H4N2O4/c8-3-1-2(4(9)10)6-5(11)7-3/h1H,(H,9,10)(H2,6,7,8,11)
INCHIAUX=N/A
PUBMED=N/A
SUBMITUSER=mwang87
TAGS=
LIBRARYQUALITY=3
SPECTRUMID=CCMSLIB00000426081
SCANS=1053
42.341 2.058 
END IONS

BEGIN IONS
PEPMASS=73.029
CHARGE=1+
MSLEVEL=2
SOURCE_INSTRUMENT=Positive-Quattro_QQQ:10eV
FILENAME=hmdb_intermediate.mgf
SEQ=*..*
IONMODE=Positive
ORGANISM=HMDB
NAME=HMDB:HMDB01167-1442 Pyruvaldehyde M+H
PI=HMDB
DATACOLLECTOR=HMDB
SMILES=CC(=O)C=O
INCHI=InChI=1S/C3H4O2/c1-3(5)2-4/h2H,1H3
INCHIAUX=N/A
PUBMED=N/A
SUBMITUSER=mwang87
TAGS=
LIBRARYQUALITY=3
SPECTRUMID=CCMSLIB00000426084
SCANS=1056
41.0 33.909 
43.0 9.903 
45.0 79.186 
END IONS

BEGIN IONS
PEPMASS=173.081
CHARGE=1+
MSLEVEL=2
SOURCE_INSTRUMENT=Positive-Quattro_QQQ:25eV
FILENAME=hmdb_intermediate.mgf
SEQ=*..*
IONMODE=Positive
ORGANISM=HMDB
NAME=HMDB:HMDB00341-550 2-Octenedioic acid M+H
PI=HMDB
DATACOLLECTOR=HMDB
SMILES=OC(=O)CCCC\C=C\C(O)=O
INCHI=InChI=1S/C8H12O4/c9-7(10)5-3-1-2-4-6-8(11)12/h3,5H,1-2,4,6H2,(H,9,10)(H,11,12)/b5-3+
INCHIAUX=N/A
PUBMED=N/A
SUBMITUSER=mwang87
TAGS=
LIBRARYQUALITY=3
SPECTRUMID=CCMSLIB00000426089
SCANS=1061
41.0 8.82 
43.0 7.463 
53.0 7.926 
END IONS

BEGIN IONS
PEPMASS=282.12
CHARGE=1+
MSLEVEL=2
SOURCE_INSTRUMENT=Positive-Quattro_QQQ:40eV
FILENAME=hmdb_intermediate.mgf
SEQ=*..*
IONMODE=Positive
ORGANISM=HMDB
NAME=HMDB:HMDB03331-2247 1-Methyladenosine M+H
PI=HMDB
DATACOLLECTOR=HMDB
SMILES=CN1C=NC2=C(N=CN2[C@@H]2O[C@H](CO)[C@@H](O)[C@H]2O)C1=N
INCHI=InChI=1S/C11H15N5O4/c1-15-3-14-10-6(9(15)12)13-4-16(10)11-8(19)7(18)5(2-17)20-11/h3-5,7-8,11-12,17-19H,2H2,1H3/t5-,7-,8-,11-/m1/s1
INCHIAUX=N/A
PUBMED=N/A
SUBMITUSER=mwang87
TAGS=
LIBRARYQUALITY=3
SPECTRUMID=CCMSLIB00000426091
SCANS=1063
32.0 2.467 
END IONS

BEGIN IONS
PEPMASS=89.0239
CHARGE=1+
MSLEVEL=2
SOURCE_INSTRUMENT=Negative-Quattro_QQQ:25eV
FILENAME=hmdb_intermediate.mgf
SEQ=*..*
IONMODE=Negative
ORGANISM=HMDB
NAME=HMDB:HMDB00190-302 L-Lactic acid M-H
PI=HMDB
DATACOLLECTOR=HMDB
SMILES=C[C@H](O)C(O)=O
INCHI=InChI=1S/C3H6O3/c1-2(4)3(5)6/h2,4H,1H3,(H,5,6)/t2-/m0/s1
INCHIAUX=N/A
PUBMED=N/A
SUBMITUSER=mwang87
TAGS=
LIBRARYQUALITY=3
SPECTRUMID=CCMSLIB00000426092
SCANS=1064
41.663 7.683 
43.61 79.618 
45.542 77.07 
END IONS

BEGIN IONS
PEPMASS=105.019
CHARGE=1+
MSLEVEL=2
SOURCE_INSTRUMENT=Negative-Quattro_QQQ:40eV
FILENAME=hmdb_intermediate.mgf
SEQ=*..*
IONMODE=Negative
ORGANISM=HMDB
NAME=HMDB:HMDB00139-214 Glyceric acid M-H
PI=HMDB
DATACOLLECTOR=HMDB
SMILES=OC[C@@H](O)C(O)=O
INCHI=InChI=1S/C3H6O4/c4-1-2(5)3(6)7/h2,4-5H,1H2,(H,6,7)/t2-/m1/s1
INCHIAUX=N/A
PUBMED=N/A
SUBMITUSER=mwang87
TAGS=
LIBRARYQUALITY=3
SPECTRUMID=CCMSLIB00000426095
SCANS=1067
41.286 13.793 
43.229 26.149 
45.148 25.575 
END IONS

BEGIN IONS
PEPMASS=130.05
CHARGE=1+
MSLEVEL=2
SOURCE_INSTRUMENT=Positive-Quattro_QQQ:40eV
FILENAME=hmdb_intermediate.mgf
SEQ=*..*
IONMODE=Positive
ORGANISM=HMDB
NAME=HMDB:HMDB01843-1695 N-Acryloylglycine M+H
PI=HMDB
DATACOLLECTOR=HMDB
SMILES=OC(=O)CNC(=O)C=C
INCHI=InChI=1S/C5H7NO3/c1-2-4(7)6-3-5(8)9/h2H,1,3H2,(H,6,7)(H,8,9)
INCHIAUX=N/A
PUBMED=N/A
SUBMITUSER=mwang87
TAGS=
LIBRARYQUALITY=3
SPECTRUMID=CCMSLIB00000426096
SCANS=1068
41.673 5.6 
43.628 6.9 
45.622 4.125 
END IONS

BEGIN IONS
PEPMASS=132.066
CHARGE=1+
MSLEVEL=2
SOURCE_INSTRUMENT=Positive-Quattro_QQQ:10eV
FILENAME=hmdb_intermediate.mgf
SEQ=*..*
IONMODE=Positive
ORGANISM=HMDB
NAME=HMDB:HMDB00766-1104 N-Acetyl-L-alanine M+H
PI=HMDB
DATACOLLECTOR=HMDB
SMILES=C[C@H](NC(C)=O)C(O)=O
INCHI=InChI=1S/C5H9NO3/c1-3(5(8)9)6-4(2)7/h3H,1-2H3,(H,6,7)(H,8,9)/t3-/m0/s1
INCHIAUX=N/A
PUBMED=N/A
SUBMITUSER=mwang87
TAGS=
LIBRARYQUALITY=3
SPECTRUMID=CCMSLIB00000426097
SCANS=1069
44.093 14.362 
END IONS

BEGIN IONS
PEPMASS=107.05
CHARGE=1+
MSLEVEL=2
SOURCE_INSTRUMENT=Positive-Quattro_QQQ:10eV
FILENAME=hmdb_intermediate.mgf
SEQ=*..*
IONMODE=Positive
ORGANISM=HMDB
NAME=HMDB:HMDB06115-2472 Benzaldehyde M+H
PI=HMDB
DATACOLLECTOR=HMDB
SMILES=O=CC1=CC=CC=C1
INCHI=InChI=1S/C7H6O/c8-6-7-4-2-1-3-5-7/h1-6H
INCHIAUX=N/A
PUBMED=N/A
SUBMITUSER=mwang87
TAGS=
LIBRARYQUALITY=3
SPECTRUMID=CCMSLIB00000426098
SCANS=1070
39.0 4.17 
END IONS

BEGIN IONS
PEPMASS=142.027
CHARGE=1+
MSLEVEL=2
SOURCE_INSTRUMENT=Positive-Quattro_QQQ:10eV
FILENAME=hmdb_intermediate.mgf
SEQ=*..*
IONMODE=Positive
ORGANISM=HMDB
NAME=HMDB:HMDB60152-370 O-Phosphoethanolamine M+H
PI=HMDB
DATACOLLECTOR=HMDB
SMILES=NCCOP(O)(O)=O
INCHI=InChI=1S/C2H8NO4P/c3-1-2-7-8(4,5)6/h1-3H2,(H2,4,5,6)
INCHIAUX=N/A
PUBMED=N/A
SUBMITUSER=mwang87
TAGS=
LIBRARYQUALITY=3
SPECTRUMID=CCMSLIB00000426099
SCANS=1071
44.628 100.0 
END IONS

BEGIN IONS
PEPMASS=122.097
CHARGE=1+
MSLEVEL=2
SOURCE_INSTRUMENT=Positive-Quattro_QQQ:40eV
FILENAME=hmdb_intermediate.mgf
SEQ=*..*
IONMODE=Positive
ORGANISM=HMDB
NAME=HMDB:HMDB02017-1949 1-Phenylethylamine M+H
PI=HMDB
DATACOLLECTOR=HMDB
SMILES=CC(N)C1=CC=CC=C1
INCHI=InChI=1S/C8H11N/c1-7(9)8-5-3-2-4-6-8/h2-7H,9H2,1H3
INCHIAUX=N/A
PUBMED=N/A
SUBMITUSER=mwang87
TAGS=
LIBRARYQUALITY=3
SPECTRUMID=CCMSLIB00000426104
SCANS=1076
39.23 16.908 
43.02 21.432 
51.11 63.882 
51.6 17.526 
END IONS

BEGIN IONS
PEPMASS=201.984
CHARGE=1+
MSLEVEL=2
SOURCE_INSTRUMENT=Positive-Quattro_QQQ:40eV
FILENAME=hmdb_intermediate.mgf
SEQ=*..*
IONMODE=Positive
ORGANISM=HMDB
NAME=HMDB:HMDB00731-1031 Cysteine-S-sulfate M+H
PI=HMDB
DATACOLLECTOR=HMDB
SMILES=N[C@@H](CSS(O)(=O)=O)C(O)=O
INCHI=InChI=1S/C3H7NO5S2/c4-2(3(5)6)1-10-11(7,8)9/h2H,1,4H2,(H,5,6)(H,7,8,9)/t2-/m0/s1
INCHIAUX=N/A
PUBMED=N/A
SUBMITUSER=mwang87
TAGS=
LIBRARYQUALITY=3
SPECTRUMID=CCMSLIB00000426105
SCANS=1077
28.0 5.282 
30.0 13.177 
46.0 4.103 
48.0 10.544 
END IONS

BEGIN IONS
PEPMASS=331.227
CHARGE=1+
MSLEVEL=2
SOURCE_INSTRUMENT=Positive-Quattro_QQQ:25eV
FILENAME=hmdb_intermediate.mgf
SEQ=*..*
IONMODE=Positive
ORGANISM=HMDB
NAME=HMDB:HMDB00374-589 17-Hydroxyprogesterone M+H
PI=HMDB
DATACOLLECTOR=HMDB
SMILES=[H][C@@]12CC[C@](O)(C(C)=O)[C@@]1(C)CC[C@@]1([H])[C@@]2([H])CCC2=CC(=O)CC[C@]12C
INCHI=InChI=1S/C21H30O3/c1-13(22)21(24)11-8-18-16-5-4-14-12-15(23)6-9-19(14,2)17(16)7-10-20(18,21)3/h12,16-18,24H,4-11H2,1-3H3/t16-,17+,18+,19+,20+,21+/m1/s1
INCHIAUX=N/A
PUBMED=N/A
SUBMITUSER=mwang87
TAGS=
LIBRARYQUALITY=3
SPECTRUMID=CCMSLIB00000426114
SCANS=1086
43.305 8.768 
END IONS

BEGIN IONS
PEPMASS=151.04
CHARGE=1+
MSLEVEL=2
SOURCE_INSTRUMENT=Negative-Quattro_QQQ:40eV
FILENAME=hmdb_intermediate.mgf
SEQ=*..*
IONMODE=Negative
ORGANISM=HMDB
NAME=HMDB:HMDB00703-983 Mandelic acid M-H
PI=HMDB
DATACOLLECTOR=HMDB
SMILES=O[C@H](C(O)=O)C1=CC=CC=C1
INCHI=InChI=1S/C8H8O3/c9-7(8(10)11)6-4-2-1-3-5-6/h1-5,7,9H,(H,10,11)/t7-/m0/s1
INCHIAUX=N/A
PUBMED=N/A
SUBMITUSER=mwang87
TAGS=
LIBRARYQUALITY=3
SPECTRUMID=CCMSLIB00000426120
SCANS=1092
45.248 5.461 
END IONS

BEGIN IONS
PEPMASS=177.051
CHARGE=1+
MSLEVEL=2
SOURCE_INSTRUMENT=Positive-Quattro_QQQ:25eV
FILENAME=hmdb_intermediate.mgf
SEQ=*..*
IONMODE=Positive
ORGANISM=HMDB
NAME=HMDB:HMDB00828-1179 Ureidosuccinic acid M+H
PI=HMDB
DATACOLLECTOR=HMDB
SMILES=NC(=O)N[C@@H](CC(O)=O)C(O)=O
INCHI=InChI=1S/C5H8N2O5/c6-5(12)7-2(4(10)11)1-3(8)9/h2H,1H2,(H,8,9)(H,10,11)(H3,6,7,12)/t2-/m0/s1
INCHIAUX=N/A
PUBMED=N/A
SUBMITUSER=mwang87
TAGS=
LIBRARYQUALITY=3
SPECTRUMID=CCMSLIB00000426121
SCANS=1093
43.271 11.879 
46.245 12.943 
END IONS

BEGIN IONS
PEPMASS=90.0555
CHARGE=1+
MSLEVEL=2
SOURCE_INSTRUMENT=Positive-Quattro_QQQ:25eV
FILENAME=hmdb_intermediate.mgf
SEQ=*..*
IONMODE=Positive
ORGANISM=HMDB
NAME=HMDB:HMDB00271-473 Sarcosine M+H
PI=HMDB
DATACOLLECTOR=HMDB
SMILES=CNCC(O)=O
INCHI=InChI=1S/C3H7NO2/c1-4-2-3(5)6/h4H,2H2,1H3,(H,5,6)
INCHIAUX=N/A
PUBMED=N/A
SUBMITUSER=mwang87
TAGS=
LIBRARYQUALITY=3
SPECTRUMID=CCMSLIB00000426122
SCANS=1094
44.263 100.0 
END IONS

BEGIN IONS
PEPMASS=133.061
CHARGE=1+
MSLEVEL=2
SOURCE_INSTRUMENT=Positive-Quattro_QQQ:40eV
FILENAME=hmdb_intermediate.mgf
SEQ=*..*
IONMODE=Positive
ORGANISM=HMDB
NAME=HMDB:HMDB00026-47 Ureidopropionic acid M+H
PI=HMDB
DATACOLLECTOR=HMDB
SMILES=NC(=O)NCCC(O)=O
INCHI=InChI=1S/C4H8N2O3/c5-4(9)6-2-1-3(7)8/h1-2H2,(H,7,8)(H3,5,6,9)
INCHIAUX=N/A
PUBMED=N/A
SUBMITUSER=mwang87
TAGS=
LIBRARYQUALITY=3
SPECTRUMID=CCMSLIB00000426128
SCANS=1100
43.078 7.955 
44.148 100.0 
45.381 35.39 
END IONS

BEGIN IONS
PEPMASS=136.043
CHARGE=1+
MSLEVEL=2
SOURCE_INSTRUMENT=Positive-Quattro_QQQ:40eV
FILENAME=hmdb_intermediate.mgf
SEQ=*..*
IONMODE=Positive
ORGANISM=HMDB
NAME=HMDB:HMDB00742-1055 Homocysteine M+H
PI=HMDB
DATACOLLECTOR=HMDB
SMILES=NC(CCS)C(O)=O
INCHI=InChI=1S/C4H9NO2S/c5-3(1-2-8)4(6)7/h3,8H,1-2,5H2,(H,6,7)
INCHIAUX=N/A
PUBMED=N/A
SUBMITUSER=mwang87
TAGS=
LIBRARYQUALITY=3
SPECTRUMID=CCMSLIB00000426129
SCANS=1101
44.296 38.929 
45.397 15.982 
47.216 100.0 
END IONS

BEGIN IONS
PEPMASS=166.087
CHARGE=1+
MSLEVEL=2
SOURCE_INSTRUMENT=Positive-Quattro_QQQ:40eV
FILENAME=hmdb_intermediate.mgf
SEQ=*..*
IONMODE=Positive
ORGANISM=HMDB
NAME=HMDB:HMDB00159-250 L-Phenylalanine M+H
PI=HMDB
DATACOLLECTOR=HMDB
SMILES=N[C@@H](CC1=CC=CC=C1)C(O)=O
INCHI=InChI=1S/C9H11NO2/c10-8(9(11)12)6-7-4-2-1-3-5-7/h1-5,8H,6,10H2,(H,11,12)/t8-/m0/s1
INCHIAUX=N/A
PUBMED=N/A
SUBMITUSER=mwang87
TAGS=
LIBRARYQUALITY=3
SPECTRUMID=CCMSLIB00000426130
SCANS=1102
51.235 3.859 
END IONS

BEGIN IONS
PEPMASS=130.087
CHARGE=1+
MSLEVEL=2
SOURCE_INSTRUMENT=Positive-Quattro_QQQ:40eV
FILENAME=hmdb_intermediate.mgf
SEQ=*..*
IONMODE=Positive
ORGANISM=HMDB
NAME=HMDB:HMDB00070-113 Pipecolic acid M+H
PI=HMDB
DATACOLLECTOR=HMDB
SMILES=OC(=O)C1CCCCN1
INCHI=InChI=1S/C6H11NO2/c8-6(9)5-3-1-2-4-7-5/h5,7H,1-4H2,(H,8,9)
INCHIAUX=N/A
PUBMED=N/A
SUBMITUSER=mwang87
TAGS=
LIBRARYQUALITY=3
SPECTRUMID=CCMSLIB00000426133
SCANS=1105
41.323 6.437 
42.392 3.661 
END IONS

BEGIN IONS
PEPMASS=129.019
CHARGE=1+
MSLEVEL=2
SOURCE_INSTRUMENT=Negative-Quattro_QQQ:25eV
FILENAME=hmdb_intermediate.mgf
SEQ=*..*
IONMODE=Negative
ORGANISM=HMDB
NAME=HMDB:HMDB00620-838 Glutaconic acid M-H
PI=HMDB
DATACOLLECTOR=HMDB
SMILES=OC(=O)C\C=C\C(O)=O
INCHI=InChI=1S/C5H6O4/c6-4(7)2-1-3-5(8)9/h1-2H,3H2,(H,6,7)(H,8,9)/b2-1+
INCHIAUX=N/A
PUBMED=N/A
SUBMITUSER=mwang87
TAGS=
LIBRARYQUALITY=3
SPECTRUMID=CCMSLIB00000426135
SCANS=1107
41.301 100.0 
END IONS

BEGIN IONS
PEPMASS=168.99
CHARGE=1+
MSLEVEL=2
SOURCE_INSTRUMENT=Positive-Quattro_QQQ:25eV
FILENAME=hmdb_intermediate.mgf
SEQ=*..*
IONMODE=Positive
ORGANISM=HMDB
NAME=HMDB:HMDB00263-458 Phosphoenolpyruvic acid M+H
PI=HMDB
DATACOLLECTOR=HMDB
SMILES=OC(=O)C(=C)OP(O)(O)=O
INCHI=InChI=1S/C3H5O6P/c1-2(3(4)5)9-10(6,7)8/h1H2,(H,4,5)(H2,6,7,8)
INCHIAUX=N/A
PUBMED=N/A
SUBMITUSER=mwang87
TAGS=
LIBRARYQUALITY=3
SPECTRUMID=CCMSLIB00000426137
SCANS=1109
43.0 93.496 
END IONS

BEGIN IONS
PEPMASS=184.097
CHARGE=1+
MSLEVEL=2
SOURCE_INSTRUMENT=Positive-Quattro_QQQ:25eV
FILENAME=hmdb_intermediate.mgf
SEQ=*..*
IONMODE=Positive
ORGANISM=HMDB
NAME=HMDB:HMDB00068-109 Epinephrine M+H
PI=HMDB
DATACOLLECTOR=HMDB
SMILES=CNC[C@H](O)C1=CC=C(O)C(O)=C1
INCHI=InChI=1S/C9H13NO3/c1-10-5-9(13)6-2-3-7(11)8(12)4-6/h2-4,9-13H,5H2,1H3/t9-/m0/s1
INCHIAUX=N/A
PUBMED=N/A
SUBMITUSER=mwang87
TAGS=
LIBRARYQUALITY=3
SPECTRUMID=CCMSLIB00000426140
SCANS=1112
42.366 20.205 
END IONS

BEGIN IONS
PEPMASS=177.103
CHARGE=1+
MSLEVEL=2
SOURCE_INSTRUMENT=Positive-Quattro_QQQ:40eV
FILENAME=hmdb_intermediate.mgf
SEQ=*..*
IONMODE=Positive
ORGANISM=HMDB
NAME=HMDB:HMDB01046-1399 Cotinine M+H
PI=HMDB
DATACOLLECTOR=HMDB
SMILES=CN1C(CCC1=O)C1=CN=CC=C1
INCHI=InChI=1S/C10H12N2O/c1-12-9(4-5-10(12)13)8-3-2-6-11-7-8/h2-3,6-7,9H,4-5H2,1H3
INCHIAUX=N/A
PUBMED=N/A
SUBMITUSER=mwang87
TAGS=
LIBRARYQUALITY=3
SPECTRUMID=CCMSLIB00000426143
SCANS=1115
42.0 18.055 
53.0 16.995 
END IONS

BEGIN IONS
PEPMASS=112.087
CHARGE=1+
MSLEVEL=2
SOURCE_INSTRUMENT=Positive-Quattro_QQQ:25eV
FILENAME=hmdb_intermediate.mgf
SEQ=*..*
IONMODE=Positive
ORGANISM=HMDB
NAME=HMDB:HMDB60263-1224 Histamium M+H
PI=HMDB
DATACOLLECTOR=HMDB
SMILES=NCCC1=CN=CN1
INCHI=InChI=1S/C5H9N3/c6-2-1-5-3-7-4-8-5/h3-4H,1-2,6H2,(H,7,8)
INCHIAUX=N/A
PUBMED=N/A
SUBMITUSER=mwang87
TAGS=
LIBRARYQUALITY=3
SPECTRUMID=CCMSLIB00000426146
SCANS=1118
41.332 57.872 
END IONS

BEGIN IONS
PEPMASS=137.024
CHARGE=1+
MSLEVEL=2
SOURCE_INSTRUMENT=Negative-Quattro_QQQ:40eV
FILENAME=hmdb_intermediate.mgf
SEQ=*..*
IONMODE=Negative
ORGANISM=HMDB
NAME=HMDB:HMDB00500-718 4-Hydroxybenzoic acid M-H
PI=HMDB
DATACOLLECTOR=HMDB
SMILES=OC(=O)C1=CC=C(O)C=C1
INCHI=InChI=1S/C7H6O3/c8-6-3-1-5(2-4-6)7(9)10/h1-4,8H,(H,9,10)
INCHIAUX=N/A
PUBMED=N/A
SUBMITUSER=mwang87
TAGS=
LIBRARYQUALITY=3
SPECTRUMID=CCMSLIB00000426151
SCANS=1123
41.317 12.162 
END IONS

BEGIN IONS
PEPMASS=122.028
CHARGE=1+
MSLEVEL=2
SOURCE_INSTRUMENT=Positive-Quattro_QQQ:40eV
FILENAME=hmdb_intermediate.mgf
SEQ=*..*
IONMODE=Positive
ORGANISM=HMDB
NAME=HMDB:HMDB00574-802 L-Cysteine M+H
PI=HMDB
DATACOLLECTOR=HMDB
SMILES=N[C@@H](CS)C(O)=O
INCHI=InChI=1S/C3H7NO2S/c4-2(1-7)3(5)6/h2,7H,1,4H2,(H,5,6)/t2-/m0/s1
INCHIAUX=N/A
PUBMED=N/A
SUBMITUSER=mwang87
TAGS=
LIBRARYQUALITY=3
SPECTRUMID=CCMSLIB00000426157
SCANS=1129
42.299 12.903 
43.384 22.984 
44.438 6.855 
45.328 10.837 
END IONS

BEGIN IONS
PEPMASS=43.0058
CHARGE=1+
MSLEVEL=2
SOURCE_INSTRUMENT=Positive-Quattro_QQQ:40eV
FILENAME=hmdb_intermediate.mgf
SEQ=*..*
IONMODE=Positive
ORGANISM=HMDB
NAME=HMDB:HMDB02078-1989 Cyanate M+H
PI=HMDB
DATACOLLECTOR=HMDB
SMILES=[O-]C#N
INCHI=InChI=1S/CHNO/c2-1-3/h3H/p-1
INCHIAUX=N/A
PUBMED=N/A
SUBMITUSER=mwang87
TAGS=
LIBRARYQUALITY=3
SPECTRUMID=CCMSLIB00000426158
SCANS=1130
27.0 18.38 
28.0 26.75 
29.0 15.589 
41.0 19.653 
42.0 36.261 
43.0 100.0 
44.0 66.873 
45.0 16.447 
END IONS

BEGIN IONS
PEPMASS=89.0603
CHARGE=1+
MSLEVEL=2
SOURCE_INSTRUMENT=Positive-Quattro_QQQ:10eV
FILENAME=hmdb_intermediate.mgf
SEQ=*..*
IONMODE=Positive
ORGANISM=HMDB
NAME=HMDB:HMDB03243-2218 Acetoin M+H
PI=HMDB
DATACOLLECTOR=HMDB
SMILES=CC(O)C(C)=O
INCHI=InChI=1S/C4H8O2/c1-3(5)4(2)6/h3,5H,1-2H3
INCHIAUX=N/A
PUBMED=N/A
SUBMITUSER=mwang87
TAGS=
LIBRARYQUALITY=3
SPECTRUMID=CCMSLIB00000426165
SCANS=1137
43.0 100.0 
END IONS

BEGIN IONS
PEPMASS=104.071
CHARGE=1+
MSLEVEL=2
SOURCE_INSTRUMENT=Positive-Quattro_QQQ:40eV
FILENAME=hmdb_intermediate.mgf
SEQ=*..*
IONMODE=Positive
ORGANISM=HMDB
NAME=HMDB:HMDB00452-661 L-Alpha-aminobutyric acid M+H
PI=HMDB
DATACOLLECTOR=HMDB
SMILES=CC[C@H](N)C(O)=O
INCHI=InChI=1S/C4H9NO2/c1-2-3(5)4(6)7/h3H,2,5H2,1H3,(H,6,7)/t3-/m0/s1
INCHIAUX=N/A
PUBMED=N/A
SUBMITUSER=mwang87
TAGS=
LIBRARYQUALITY=3
SPECTRUMID=CCMSLIB00000426167
SCANS=1139
41.293 49.708 
43.159 100.0 
44.4 18.421 
45.235 39.766 
END IONS

BEGIN IONS
PEPMASS=132.077
CHARGE=1+
MSLEVEL=2
SOURCE_INSTRUMENT=Positive-Quattro_QQQ:25eV
FILENAME=hmdb_intermediate.mgf
SEQ=*..*
IONMODE=Positive
ORGANISM=HMDB
NAME=HMDB:HMDB00064-106 Creatine M+H
PI=HMDB
DATACOLLECTOR=HMDB
SMILES=CN(CC(O)=O)C(N)=N
INCHI=InChI=1S/C4H9N3O2/c1-7(4(5)6)2-3(8)9/h2H2,1H3,(H3,5,6)(H,8,9)
INCHIAUX=N/A
PUBMED=N/A
SUBMITUSER=mwang87
TAGS=
LIBRARYQUALITY=3
SPECTRUMID=CCMSLIB00000426169
SCANS=1141
44.108 100.0 
END IONS

BEGIN IONS
PEPMASS=250.025
CHARGE=1+
MSLEVEL=2
SOURCE_INSTRUMENT=Positive-Quattro_QQQ:10eV
FILENAME=hmdb_intermediate.mgf
SEQ=*..*
IONMODE=Positive
ORGANISM=HMDB
NAME=HMDB:HMDB01915-1828 Alendronic acid M+H
PI=HMDB
DATACOLLECTOR=HMDB
SMILES=NCCCC(O)(P(O)(O)=O)P(O)(O)=O
INCHI=InChI=1S/C4H13NO7P2/c5-3-1-2-4(6,13(7,8)9)14(10,11)12/h6H,1-3,5H2,(H2,7,8,9)(H2,10,11,12)
INCHIAUX=N/A
PUBMED=N/A
SUBMITUSER=mwang87
TAGS=
LIBRARYQUALITY=3
SPECTRUMID=CCMSLIB00000426170
SCANS=1142
52.223 6.382 
END IONS

BEGIN IONS
PEPMASS=105.019
CHARGE=1+
MSLEVEL=2
SOURCE_INSTRUMENT=Negative-Quattro_QQQ:10eV
FILENAME=hmdb_intermediate.mgf
SEQ=*..*
IONMODE=Negative
ORGANISM=HMDB
NAME=HMDB:HMDB00139-212 Glyceric acid M-H
PI=HMDB
DATACOLLECTOR=HMDB
SMILES=OC[C@@H](O)C(O)=O
INCHI=InChI=1S/C3H6O4/c4-1-2(5)3(6)7/h2,4-5H,1H2,(H,6,7)/t2-/m1/s1
INCHIAUX=N/A
PUBMED=N/A
SUBMITUSER=mwang87
TAGS=
LIBRARYQUALITY=3
SPECTRUMID=CCMSLIB00000426171
SCANS=1143
45.278 14.898 
END IONS

BEGIN IONS
PEPMASS=90.0555
CHARGE=1+
MSLEVEL=2
SOURCE_INSTRUMENT=Positive-Quattro_QQQ:25eV
FILENAME=hmdb_intermediate.mgf
SEQ=*..*
IONMODE=Positive
ORGANISM=HMDB
NAME=HMDB:HMDB00056-91 Beta-Alanine M+H
PI=HMDB
DATACOLLECTOR=HMDB
SMILES=NCCC(O)=O
INCHI=InChI=1S/C3H7NO2/c4-2-1-3(5)6/h1-2,4H2,(H,5,6)
INCHIAUX=N/A
PUBMED=N/A
SUBMITUSER=mwang87
TAGS=
LIBRARYQUALITY=3
SPECTRUMID=CCMSLIB00000426173
SCANS=1145
43.238 14.688 
45.182 73.125 
END IONS

BEGIN IONS
PEPMASS=118.98
CHARGE=1+
MSLEVEL=2
SOURCE_INSTRUMENT=Negative-Quattro_QQQ:25eV
FILENAME=hmdb_intermediate.mgf
SEQ=*..*
IONMODE=Negative
ORGANISM=HMDB
NAME=HMDB:HMDB01368-1535 3-Mercaptopyruvic acid M-H
PI=HMDB
DATACOLLECTOR=HMDB
SMILES=OC(=O)C(=O)CS
INCHI=InChI=1S/C3H4O3S/c4-2(1-7)3(5)6/h7H,1H2,(H,5,6)
INCHIAUX=N/A
PUBMED=N/A
SUBMITUSER=mwang87
TAGS=
LIBRARYQUALITY=3
SPECTRUMID=CCMSLIB00000426177
SCANS=1149
33.0 100.0 
47.0 71.24 
END IONS

BEGIN IONS
PEPMASS=125.06
CHARGE=1+
MSLEVEL=2
SOURCE_INSTRUMENT=Positive-Quattro_QQQ:25eV
FILENAME=hmdb_intermediate.mgf
SEQ=*..*
IONMODE=Positive
ORGANISM=HMDB
NAME=HMDB:HMDB00873-1233 4-Methylcatechol M+H
PI=HMDB
DATACOLLECTOR=HMDB
SMILES=CC1=CC(O)=C(O)C=C1
INCHI=InChI=1S/C7H8O2/c1-5-2-3-6(8)7(9)4-5/h2-4,8-9H,1H3
INCHIAUX=N/A
PUBMED=N/A
SUBMITUSER=mwang87
TAGS=
LIBRARYQUALITY=3
SPECTRUMID=CCMSLIB00000426190
SCANS=1162
51.269 4.741 
53.252 2.759 
END IONS

BEGIN IONS
PEPMASS=174.055
CHARGE=1+
MSLEVEL=2
SOURCE_INSTRUMENT=Positive-Quattro_QQQ:40eV
FILENAME=hmdb_intermediate.mgf
SEQ=*..*
IONMODE=Positive
ORGANISM=HMDB
NAME=HMDB:HMDB00842-1189 Quinaldic acid M+H
PI=HMDB
DATACOLLECTOR=HMDB
SMILES=OC(=O)C1=NC2=CC=CC=C2C=C1
INCHI=InChI=1S/C10H7NO2/c12-10(13)9-6-5-7-3-1-2-4-8(7)11-9/h1-6H,(H,12,13)
INCHIAUX=N/A
PUBMED=N/A
SUBMITUSER=mwang87
TAGS=
LIBRARYQUALITY=3
SPECTRUMID=CCMSLIB00000426192
SCANS=1164
41.332 7.91 
END IONS

BEGIN IONS
PEPMASS=90.0555
CHARGE=1+
MSLEVEL=2
SOURCE_INSTRUMENT=Positive-Quattro_QQQ:40eV
FILENAME=hmdb_intermediate.mgf
SEQ=*..*
IONMODE=Positive
ORGANISM=HMDB
NAME=HMDB:HMDB00271-474 Sarcosine M+H
PI=HMDB
DATACOLLECTOR=HMDB
SMILES=CNCC(O)=O
INCHI=InChI=1S/C3H7NO2/c1-4-2-3(5)6/h4H,2H2,1H3,(H,5,6)
INCHIAUX=N/A
PUBMED=N/A
SUBMITUSER=mwang87
TAGS=
LIBRARYQUALITY=3
SPECTRUMID=CCMSLIB00000426194
SCANS=1166
42.328 7.584 
44.216 100.0 
END IONS

BEGIN IONS
PEPMASS=137.133
CHARGE=1+
MSLEVEL=2
SOURCE_INSTRUMENT=Positive-Quattro_QQQ:40eV
FILENAME=hmdb_intermediate.mgf
SEQ=*..*
IONMODE=Positive
ORGANISM=HMDB
NAME=HMDB:HMDB03375-2276 D-Limonene M+H
PI=HMDB
DATACOLLECTOR=HMDB
SMILES=CC(=C)[C@H]1CCC(C)=CC1
INCHI=InChI=1S/C10H16/c1-8(2)10-6-4-9(3)5-7-10/h4,10H,1,5-7H2,2-3H3/t10-/m1/s1
INCHIAUX=N/A
PUBMED=N/A
SUBMITUSER=mwang87
TAGS=
LIBRARYQUALITY=3
SPECTRUMID=CCMSLIB00000426195
SCANS=1167
42.0 72.603 
END IONS

BEGIN IONS
PEPMASS=220.118
CHARGE=1+
MSLEVEL=2
SOURCE_INSTRUMENT=Positive-Quattro_QQQ:25eV
FILENAME=hmdb_intermediate.mgf
SEQ=*..*
IONMODE=Positive
ORGANISM=HMDB
NAME=HMDB:HMDB00210-341 Pantothenic acid M+H
PI=HMDB
DATACOLLECTOR=HMDB
SMILES=CC(C)(CO)C(O)C(=O)NCCC(O)=O
INCHI=InChI=1S/C9H17NO5/c1-9(2,5-11)7(14)8(15)10-4-3-6(12)13/h7,11,14H,3-5H2,1-2H3,(H,10,15)(H,12,13)
INCHIAUX=N/A
PUBMED=N/A
SUBMITUSER=mwang87
TAGS=
LIBRARYQUALITY=3
SPECTRUMID=CCMSLIB00000426196
SCANS=1168
41.382 6.171 
43.294 31.329 
45.292 7.437 
END IONS

BEGIN IONS
PEPMASS=553.237
CHARGE=1+
MSLEVEL=2
SOURCE_INSTRUMENT=Negative-Quattro_QQQ:40eV
FILENAME=hmdb_intermediate.mgf
SEQ=*..*
IONMODE=Negative
ORGANISM=HMDB
NAME=HMDB:HMDB03828-2345 D-Pantethine M-H
PI=HMDB
DATACOLLECTOR=HMDB
SMILES=CC(C)(CO)[C@@H](O)C(=O)NCCC(=O)NCCSSCCNC(=O)CCNC(=O)[C@H](O)C(C)(C)CO
INCHI=InChI=1S/C22H42N4O8S2/c1-21(2,13-27)17(31)19(33)25-7-5-15(29)23-9-11-35-36-12-10-24-16(30)6-8-26-20(34)18(32)22(3,4)14-28/h17-18,27-28,31-32H,5-14H2,1-4H3,(H,23,29)(H,24,30)(H,25,33)(H,26,34)/t17-,18-/m0/s1
INCHIAUX=N/A
PUBMED=N/A
SUBMITUSER=mwang87
TAGS=
LIBRARYQUALITY=3
SPECTRUMID=CCMSLIB00000426198
SCANS=1170
26.0 2.662 
44.0 4.105 
END IONS

BEGIN IONS
PEPMASS=117.055
CHARGE=1+
MSLEVEL=2
SOURCE_INSTRUMENT=Negative-Quattro_QQQ:10eV
FILENAME=hmdb_intermediate.mgf
SEQ=*..*
IONMODE=Negative
ORGANISM=HMDB
NAME=HMDB:HMDB00407-618 2-Hydroxy-3-methylbutyric acid M-H
PI=HMDB
DATACOLLECTOR=HMDB
SMILES=CC(C)C(O)C(O)=O
INCHI=InChI=1S/C5H10O3/c1-3(2)4(6)5(7)8/h3-4,6H,1-2H3,(H,7,8)
INCHIAUX=N/A
PUBMED=N/A
SUBMITUSER=mwang87
TAGS=
LIBRARYQUALITY=3
SPECTRUMID=CCMSLIB00000426205
SCANS=1177
45.598 20.408 
END IONS

BEGIN IONS
PEPMASS=121.05
CHARGE=1+
MSLEVEL=2
SOURCE_INSTRUMENT=Positive-Quattro_QQQ:10eV
FILENAME=hmdb_intermediate.mgf
SEQ=*..*
IONMODE=Positive
ORGANISM=HMDB
NAME=HMDB:HMDB02649-2119 Erythrose M+H
PI=HMDB
DATACOLLECTOR=HMDB
SMILES=O[C@@H]1COC(O)[C@@H]1O
INCHI=InChI=1S/C4H8O4/c5-2-1-8-4(7)3(2)6/h2-7H,1H2/t2-,3-,4?/m1/s1
INCHIAUX=N/A
PUBMED=N/A
SUBMITUSER=mwang87
TAGS=
LIBRARYQUALITY=3
SPECTRUMID=CCMSLIB00000426206
SCANS=1178
42.0 27.608 
43.0 19.28 
END IONS

BEGIN IONS
PEPMASS=132.066
CHARGE=1+
MSLEVEL=2
SOURCE_INSTRUMENT=Positive-Quattro_QQQ:40eV
FILENAME=hmdb_intermediate.mgf
SEQ=*..*
IONMODE=Positive
ORGANISM=HMDB
NAME=HMDB:HMDB01149-1435 5-Aminolevulinic acid M+H
PI=HMDB
DATACOLLECTOR=HMDB
SMILES=NCC(=O)CCC(O)=O
INCHI=InChI=1S/C5H9NO3/c6-3-4(7)1-2-5(8)9/h1-3,6H2,(H,8,9)
INCHIAUX=N/A
PUBMED=N/A
SUBMITUSER=mwang87
TAGS=
LIBRARYQUALITY=3
SPECTRUMID=CCMSLIB00000426207
SCANS=1179
51.289 66.386 
51.538 51.486 
52.534 38.616 
END IONS

BEGIN IONS
PEPMASS=168.99
CHARGE=1+
MSLEVEL=2
SOURCE_INSTRUMENT=Positive-Quattro_QQQ:40eV
FILENAME=hmdb_intermediate.mgf
SEQ=*..*
IONMODE=Positive
ORGANISM=HMDB
NAME=HMDB:HMDB00263-459 Phosphoenolpyruvic acid M+H
PI=HMDB
DATACOLLECTOR=HMDB
SMILES=OC(=O)C(=C)OP(O)(O)=O
INCHI=InChI=1S/C3H5O6P/c1-2(3(4)5)9-10(6,7)8/h1H2,(H,4,5)(H2,6,7,8)
INCHIAUX=N/A
PUBMED=N/A
SUBMITUSER=mwang87
TAGS=
LIBRARYQUALITY=3
SPECTRUMID=CCMSLIB00000426208
SCANS=1180
43.0 45.538 
51.0 7.489 
52.0 10.44 
END IONS

BEGIN IONS
PEPMASS=253.094
CHARGE=1+
MSLEVEL=2
SOURCE_INSTRUMENT=Positive-Quattro_QQQ:40eV
FILENAME=hmdb_intermediate.mgf
SEQ=*..*
IONMODE=Positive
ORGANISM=HMDB
NAME=HMDB:HMDB00071-116 Deoxyinosine M+H
PI=HMDB
DATACOLLECTOR=HMDB
SMILES=OC[C@H]1O[C@H](C[C@@H]1O)N1C=NC2=C1N=CN=C2O
INCHI=InChI=1S/C10H12N4O4/c15-2-6-5(16)1-7(18-6)14-4-13-8-9(14)11-3-12-10(8)17/h3-7,15-16H,1-2H2,(H,11,12,17)/t5-,6+,7+/m0/s1
INCHIAUX=N/A
PUBMED=N/A
SUBMITUSER=mwang87
TAGS=
LIBRARYQUALITY=3
SPECTRUMID=CCMSLIB00000426210
SCANS=1182
43.634 17.697 
45.59 16.011 
END IONS

BEGIN IONS
PEPMASS=142.027
CHARGE=1+
MSLEVEL=2
SOURCE_INSTRUMENT=Positive-Quattro_QQQ:40eV
FILENAME=hmdb_intermediate.mgf
SEQ=*..*
IONMODE=Positive
ORGANISM=HMDB
NAME=HMDB:HMDB60151-372 O-Phosphoethanolamine M+H
PI=HMDB
DATACOLLECTOR=HMDB
SMILES=NCCOP(O)(O)=O
INCHI=InChI=1S/C2H8NO4P/c3-1-2-7-8(4,5)6/h1-3H2,(H2,4,5,6)
INCHIAUX=N/A
PUBMED=N/A
SUBMITUSER=mwang87
TAGS=
LIBRARYQUALITY=3
SPECTRUMID=CCMSLIB00000426212
SCANS=1184
42.665 5.922 
44.628 100.0 
END IONS

BEGIN IONS
PEPMASS=103.04
CHARGE=1+
MSLEVEL=2
SOURCE_INSTRUMENT=Negative-Quattro_QQQ:25eV
FILENAME=hmdb_intermediate.mgf
SEQ=*..*
IONMODE=Negative
ORGANISM=HMDB
NAME=HMDB:HMDB00008-11 2-Hydroxybutyric acid M-H
PI=HMDB
DATACOLLECTOR=HMDB
SMILES=CCC(O)C(O)=O
INCHI=InChI=1S/C4H8O3/c1-2-3(5)4(6)7/h3,5H,2H2,1H3,(H,6,7)
INCHIAUX=N/A
PUBMED=N/A
SUBMITUSER=mwang87
TAGS=
LIBRARYQUALITY=3
SPECTRUMID=CCMSLIB00000426213
SCANS=1185
45.535 79.444 
END IONS

BEGIN IONS
PEPMASS=131.034
CHARGE=1+
MSLEVEL=2
SOURCE_INSTRUMENT=Negative-Quattro_QQQ:40eV
FILENAME=hmdb_intermediate.mgf
SEQ=*..*
IONMODE=Negative
ORGANISM=HMDB
NAME=HMDB:HMDB00622-845 Ethylmalonic acid M-H
PI=HMDB
DATACOLLECTOR=HMDB
SMILES=CCC(C(O)=O)C(O)=O
INCHI=InChI=1S/C5H8O4/c1-2-3(4(6)7)5(8)9/h3H,2H2,1H3,(H,6,7)(H,8,9)
INCHIAUX=N/A
PUBMED=N/A
SUBMITUSER=mwang87
TAGS=
LIBRARYQUALITY=3
SPECTRUMID=CCMSLIB00000426214
SCANS=1186
41.65 100.0 
43.644 20.08 
45.63 18.883 
END IONS

BEGIN IONS
PEPMASS=199.17
CHARGE=1+
MSLEVEL=2
SOURCE_INSTRUMENT=Positive-Quattro_QQQ:25eV
FILENAME=hmdb_intermediate.mgf
SEQ=*..*
IONMODE=Positive
ORGANISM=HMDB
NAME=HMDB:HMDB00529-750 5-Dodecenoic acid M+H
PI=HMDB
DATACOLLECTOR=HMDB
SMILES=CCCCCC\C=C/CCCC(O)=O
INCHI=InChI=1S/C12H22O2/c1-2-3-4-5-6-7-8-9-10-11-12(13)14/h7-8H,2-6,9-11H2,1H3,(H,13,14)/b8-7-
INCHIAUX=N/A
PUBMED=N/A
SUBMITUSER=mwang87
TAGS=
LIBRARYQUALITY=3
SPECTRUMID=CCMSLIB00000426216
SCANS=1188
40.0 6.265 
41.0 11.323 
42.0 10.132 
43.0 24.182 
END IONS

BEGIN IONS
PEPMASS=170.093
CHARGE=1+
MSLEVEL=2
SOURCE_INSTRUMENT=Positive-Quattro_QQQ:25eV
FILENAME=hmdb_intermediate.mgf
SEQ=*..*
IONMODE=Positive
ORGANISM=HMDB
NAME=HMDB:HMDB00479-696 3-Methylhistidine M+H
PI=HMDB
DATACOLLECTOR=HMDB
SMILES=CN1C=NC=C1C[C@H](N)C(O)=O
INCHI=InChI=1S/C7H11N3O2/c1-10-4-9-3-5(10)2-6(8)7(11)12/h3-4,6H,2,8H2,1H3,(H,11,12)/t6-/m0/s1
INCHIAUX=N/A
PUBMED=N/A
SUBMITUSER=mwang87
TAGS=
LIBRARYQUALITY=3
SPECTRUMID=CCMSLIB00000426220
SCANS=1192
41.372 4.116 
END IONS

BEGIN IONS
PEPMASS=133.05
CHARGE=1+
MSLEVEL=2
SOURCE_INSTRUMENT=Positive-Quattro_QQQ:40eV
FILENAME=hmdb_intermediate.mgf
SEQ=*..*
IONMODE=Positive
ORGANISM=HMDB
NAME=HMDB:HMDB01844-1698 Methylsuccinic acid M+H
PI=HMDB
DATACOLLECTOR=HMDB
SMILES=CC(CC(O)=O)C(O)=O
INCHI=InChI=1S/C5H8O4/c1-3(5(8)9)2-4(6)7/h3H,2H2,1H3,(H,6,7)(H,8,9)
INCHIAUX=N/A
PUBMED=N/A
SUBMITUSER=mwang87
TAGS=
LIBRARYQUALITY=3
SPECTRUMID=CCMSLIB00000426233
SCANS=1205
50.8 26.0416683187 
END IONS

BEGIN IONS
PEPMASS=315.232
CHARGE=1+
MSLEVEL=2
SOURCE_INSTRUMENT=Positive-Quattro_QQQ:25eV
FILENAME=hmdb_intermediate.mgf
SEQ=*..*
IONMODE=Positive
ORGANISM=HMDB
NAME=HMDB:HMDB01830-1685 Progesterone M+H
PI=HMDB
DATACOLLECTOR=HMDB
SMILES=[H][C@@]12CC[C@H](C(C)=O)[C@@]1(C)CC[C@@]1([H])[C@@]2([H])CCC2=CC(=O)CC[C@]12C
INCHI=InChI=1S/C21H30O2/c1-13(22)17-6-7-18-16-5-4-14-12-15(23)8-10-20(14,2)19(16)9-11-21(17,18)3/h12,16-19H,4-11H2,1-3H3/t16-,17+,18-,19-,20-,21+/m0/s1
INCHIAUX=N/A
PUBMED=N/A
SUBMITUSER=mwang87
TAGS=
LIBRARYQUALITY=3
SPECTRUMID=CCMSLIB00000426236
SCANS=1208
43.572 3.413 
END IONS

BEGIN IONS
PEPMASS=130.998
CHARGE=1+
MSLEVEL=2
SOURCE_INSTRUMENT=Negative-Quattro_QQQ:10eV
FILENAME=hmdb_intermediate.mgf
SEQ=*..*
IONMODE=Negative
ORGANISM=HMDB
NAME=HMDB:HMDB00223-367 Oxalacetic acid M-H
PI=HMDB
DATACOLLECTOR=HMDB
SMILES=OC(=O)CC(=O)C(O)=O
INCHI=InChI=1S/C4H4O5/c5-2(4(8)9)1-3(6)7/h1H2,(H,6,7)(H,8,9)
INCHIAUX=N/A
PUBMED=N/A
SUBMITUSER=mwang87
TAGS=
LIBRARYQUALITY=3
SPECTRUMID=CCMSLIB00000426238
SCANS=1210
43.62 7.995 
END IONS

BEGIN IONS
PEPMASS=142.027
CHARGE=1+
MSLEVEL=2
SOURCE_INSTRUMENT=Positive-Quattro_QQQ:25eV
FILENAME=hmdb_intermediate.mgf
SEQ=*..*
IONMODE=Positive
ORGANISM=HMDB
NAME=HMDB:HMDB00224-371 O-Phosphoethanolamine M+H
PI=HMDB
DATACOLLECTOR=HMDB
SMILES=NCCOP(O)(O)=O
INCHI=InChI=1S/C2H8NO4P/c3-1-2-7-8(4,5)6/h1-3H2,(H2,4,5,6)
INCHIAUX=N/A
PUBMED=N/A
SUBMITUSER=mwang87
TAGS=
LIBRARYQUALITY=3
SPECTRUMID=CCMSLIB00000426239
SCANS=1211
44.621 100.0 
END IONS

BEGIN IONS
PEPMASS=176.056
CHARGE=1+
MSLEVEL=2
SOURCE_INSTRUMENT=Positive-Quattro_QQQ:25eV
FILENAME=hmdb_intermediate.mgf
SEQ=*..*
IONMODE=Positive
ORGANISM=HMDB
NAME=HMDB:HMDB00812-1162 N-Acetyl-L-aspartic acid M+H
PI=HMDB
DATACOLLECTOR=HMDB
SMILES=CC(=O)N[C@@H](CC(O)=O)C(O)=O
INCHI=InChI=1S/C6H9NO5/c1-3(8)7-4(6(11)12)2-5(9)10/h4H,2H2,1H3,(H,7,8)(H,9,10)(H,11,12)/t4-/m0/s1
INCHIAUX=N/A
PUBMED=N/A
SUBMITUSER=mwang87
TAGS=
LIBRARYQUALITY=3
SPECTRUMID=CCMSLIB00000426243
SCANS=1215
43.315 31.952 
46.306 9.893 
END IONS

BEGIN IONS
PEPMASS=188.071
CHARGE=1+
MSLEVEL=2
SOURCE_INSTRUMENT=Positive-Quattro_QQQ:40eV
FILENAME=hmdb_intermediate.mgf
SEQ=*..*
IONMODE=Positive
ORGANISM=HMDB
NAME=HMDB:HMDB00734-1040 Indoleacrylic acid M+H
PI=HMDB
DATACOLLECTOR=HMDB
SMILES=OC(=O)\C=C\C1=CC2=C(N1)C=CC=C2
INCHI=InChI=1S/C11H9NO2/c13-11(14)6-5-9-7-8-3-1-2-4-10(8)12-9/h1-7,12H,(H,13,14)/b6-5+
INCHIAUX=N/A
PUBMED=N/A
SUBMITUSER=mwang87
TAGS=
LIBRARYQUALITY=3
SPECTRUMID=CCMSLIB00000426247
SCANS=1219
52.779 16.825 
END IONS

BEGIN IONS
PEPMASS=343.124
CHARGE=1+
MSLEVEL=2
SOURCE_INSTRUMENT=Positive-Quattro_QQQ:40eV
FILENAME=hmdb_intermediate.mgf
SEQ=*..*
IONMODE=Positive
ORGANISM=HMDB
NAME=HMDB:HMDB00055-89 Cellobiose M+H
PI=HMDB
DATACOLLECTOR=HMDB
SMILES=OC[C@H]1O[C@@H](O[C@H]2[C@H](O)[C@@H](O)[C@H](O)O[C@@H]2CO)[C@H](O)[C@@H](O)[C@@H]1O
INCHI=InChI=1S/C12H22O11/c13-1-3-5(15)6(16)9(19)12(22-3)23-10-4(2-14)21-11(20)8(18)7(10)17/h3-20H,1-2H2/t3-,4-,5-,6+,7-,8-,9-,10-,11-,12+/m1/s1
INCHIAUX=N/A
PUBMED=N/A
SUBMITUSER=mwang87
TAGS=
LIBRARYQUALITY=3
SPECTRUMID=CCMSLIB00000426254
SCANS=1226
41.602 3.385 
43.573 8.984 
45.553 4.297 
53.487 4.297 
END IONS

BEGIN IONS
PEPMASS=179.034
CHARGE=1+
MSLEVEL=2
SOURCE_INSTRUMENT=Negative-Quattro_QQQ:40eV
FILENAME=hmdb_intermediate.mgf
SEQ=*..*
IONMODE=Negative
ORGANISM=HMDB
NAME=HMDB:HMDB00707-992 4-Hydroxyphenylpyruvic acid M-H
PI=HMDB
DATACOLLECTOR=HMDB
SMILES=OC(=O)C(=O)CC1=CC=C(O)C=C1
INCHI=InChI=1S/C9H8O4/c10-7-3-1-6(2-4-7)5-8(11)9(12)13/h1-4,10H,5H2,(H,12,13)
INCHIAUX=N/A
PUBMED=N/A
SUBMITUSER=mwang87
TAGS=
LIBRARYQUALITY=3
SPECTRUMID=CCMSLIB00000426255
SCANS=1227
41.281 9.835 
END IONS

BEGIN IONS
PEPMASS=94.0657
CHARGE=1+
MSLEVEL=2
SOURCE_INSTRUMENT=Positive-Quattro_QQQ:25eV
FILENAME=hmdb_intermediate.mgf
SEQ=*..*
IONMODE=Positive
ORGANISM=HMDB
NAME=HMDB:HMDB03012-2183 Aniline M+H
PI=HMDB
DATACOLLECTOR=HMDB
SMILES=NC1=CC=CC=C1
INCHI=InChI=1S/C6H7N/c7-6-4-2-1-3-5-6/h1-5H,7H2
INCHIAUX=N/A
PUBMED=N/A
SUBMITUSER=mwang87
TAGS=
LIBRARYQUALITY=3
SPECTRUMID=CCMSLIB00000426260
SCANS=1232
51.0 41.826 
END IONS

BEGIN IONS
PEPMASS=103.076
CHARGE=1+
MSLEVEL=2
SOURCE_INSTRUMENT=Positive-Quattro_QQQ:10eV
FILENAME=hmdb_intermediate.mgf
SEQ=*..*
IONMODE=Positive
ORGANISM=HMDB
NAME=HMDB:HMDB00892-1253 Valeric acid M+H
PI=HMDB
DATACOLLECTOR=HMDB
SMILES=CCCCC(O)=O
INCHI=InChI=1S/C5H10O2/c1-2-3-4-5(6)7/h2-4H2,1H3,(H,6,7)
INCHIAUX=N/A
PUBMED=N/A
SUBMITUSER=mwang87
TAGS=
LIBRARYQUALITY=3
SPECTRUMID=CCMSLIB00000426262
SCANS=1234
43.0 45.694 
END IONS

BEGIN IONS
PEPMASS=225.088
CHARGE=1+
MSLEVEL=2
SOURCE_INSTRUMENT=Positive-Quattro_QQQ:40eV
FILENAME=hmdb_intermediate.mgf
SEQ=*..*
IONMODE=Positive
ORGANISM=HMDB
NAME=HMDB:HMDB00732-1034 Hydroxykynurenine M+H
PI=HMDB
DATACOLLECTOR=HMDB
SMILES=NC(CC(=O)C1=C(N)C(O)=CC=C1)C(O)=O
INCHI=InChI=1S/C10H12N2O4/c11-6(10(15)16)4-8(14)5-2-1-3-7(13)9(5)12/h1-3,6,13H,4,11-12H2,(H,15,16)
INCHIAUX=N/A
PUBMED=N/A
SUBMITUSER=mwang87
TAGS=
LIBRARYQUALITY=3
SPECTRUMID=CCMSLIB00000426263
SCANS=1235
43.279 24.167 
46.229 13.681 
53.222 17.014 
END IONS

BEGIN IONS
PEPMASS=195.05
CHARGE=1+
MSLEVEL=2
SOURCE_INSTRUMENT=Positive-Quattro_QQQ:25eV
FILENAME=hmdb_intermediate.mgf
SEQ=*..*
IONMODE=Positive
ORGANISM=HMDB
NAME=HMDB:HMDB02545-2117 Galacturonic acid M+H
PI=HMDB
DATACOLLECTOR=HMDB
SMILES=O[C@@H](C=O)[C@@H](O)[C@@H](O)[C@H](O)C(O)=O
INCHI=InChI=1S/C6H10O7/c7-1-2(8)3(9)4(10)5(11)6(12)13/h1-5,8-11H,(H,12,13)/t2-,3+,4+,5-/m0/s1
INCHIAUX=N/A
PUBMED=N/A
SUBMITUSER=mwang87
TAGS=
LIBRARYQUALITY=3
SPECTRUMID=CCMSLIB00000426264
SCANS=1236
44.0 11.988 
45.0 13.85 
END IONS

BEGIN IONS
PEPMASS=138.055
CHARGE=1+
MSLEVEL=2
SOURCE_INSTRUMENT=Positive-Quattro_QQQ:40eV
FILENAME=hmdb_intermediate.mgf
SEQ=*..*
IONMODE=Positive
ORGANISM=HMDB
NAME=HMDB:HMDB01392-1552 p-Aminobenzoic acid M+H
PI=HMDB
DATACOLLECTOR=HMDB
SMILES=NC1=CC=C(C=C1)C(O)=O
INCHI=InChI=1S/C7H7NO2/c8-6-3-1-5(2-4-6)7(9)10/h1-4H,8H2,(H,9,10)
INCHIAUX=N/A
PUBMED=N/A
SUBMITUSER=mwang87
TAGS=
LIBRARYQUALITY=3
SPECTRUMID=CCMSLIB00000426266
SCANS=1238
51.205 21.131 
END IONS

BEGIN IONS
PEPMASS=81.9725
CHARGE=1+
MSLEVEL=2
SOURCE_INSTRUMENT=Positive-Quattro_QQQ:40eV
FILENAME=hmdb_intermediate.mgf
SEQ=*..*
IONMODE=Positive
ORGANISM=HMDB
NAME=HMDB:HMDB01033-1395 Hydrogen sulfite M+H
PI=HMDB
DATACOLLECTOR=HMDB
SMILES=OS([O-])=O
INCHI=InChI=1S/H2O3S/c1-4(2)3/h(H2,1,2,3)/p-1
INCHIAUX=N/A
PUBMED=N/A
SUBMITUSER=mwang87
TAGS=
LIBRARYQUALITY=3
SPECTRUMID=CCMSLIB00000426267
SCANS=1239
39.0 52.269 
40.0 54.612 
41.0 100.0 
42.0 65.593 
END IONS

BEGIN IONS
PEPMASS=137.045
CHARGE=1+
MSLEVEL=2
SOURCE_INSTRUMENT=Positive-Quattro_QQQ:40eV
FILENAME=hmdb_intermediate.mgf
SEQ=*..*
IONMODE=Positive
ORGANISM=HMDB
NAME=HMDB:HMDB00943-1338 Threonic acid M+H
PI=HMDB
DATACOLLECTOR=HMDB
SMILES=OC[C@@H](O)[C@H](O)C(O)=O
INCHI=InChI=1S/C4H8O5/c5-1-2(6)3(7)4(8)9/h2-3,5-7H,1H2,(H,8,9)/t2-,3+/m1/s1
INCHIAUX=N/A
PUBMED=N/A
SUBMITUSER=mwang87
TAGS=
LIBRARYQUALITY=3
SPECTRUMID=CCMSLIB00000426268
SCANS=1240
51.514 62.547 
53.01 27.868 
END IONS

BEGIN IONS
PEPMASS=206.067
CHARGE=1+
MSLEVEL=2
SOURCE_INSTRUMENT=Positive-Quattro_QQQ:40eV
FILENAME=hmdb_intermediate.mgf
SEQ=*..*
IONMODE=Positive
ORGANISM=HMDB
NAME=HMDB:HMDB00962-1368 Lipoamide M+H
PI=HMDB
DATACOLLECTOR=HMDB
SMILES=NC(=O)CCCCC1CCSS1
INCHI=InChI=1S/C8H15NOS2/c9-8(10)4-2-1-3-7-5-6-11-12-7/h7H,1-6H2,(H2,9,10)
INCHIAUX=N/A
PUBMED=N/A
SUBMITUSER=mwang87
TAGS=
LIBRARYQUALITY=3
SPECTRUMID=CCMSLIB00000426273
SCANS=1245
41.0 32.274 
END IONS

BEGIN IONS
PEPMASS=76.0399
CHARGE=1+
MSLEVEL=2
SOURCE_INSTRUMENT=Positive-Quattro_QQQ:40eV
FILENAME=hmdb_intermediate.mgf
SEQ=*..*
IONMODE=Positive
ORGANISM=HMDB
NAME=HMDB:HMDB00123-182 Glycine M+H
PI=HMDB
DATACOLLECTOR=HMDB
SMILES=NCC(O)=O
INCHI=InChI=1S/C2H5NO2/c3-1-2(4)5/h1,3H2,(H,4,5)
INCHIAUX=N/A
PUBMED=N/A
SUBMITUSER=mwang87
TAGS=
LIBRARYQUALITY=3
SPECTRUMID=CCMSLIB00000426274
SCANS=1246
30.305 100.0 
31.506 29.211 
END IONS

BEGIN IONS
PEPMASS=73.0653
CHARGE=1+
MSLEVEL=2
SOURCE_INSTRUMENT=Positive-Quattro_QQQ:40eV
FILENAME=hmdb_intermediate.mgf
SEQ=*..*
IONMODE=Positive
ORGANISM=HMDB
NAME=HMDB:HMDB00474-694 Butanone M+H
PI=HMDB
DATACOLLECTOR=HMDB
SMILES=CCC(C)=O
INCHI=InChI=1S/C4H8O/c1-3-4(2)5/h3H2,1-2H3
INCHIAUX=N/A
PUBMED=N/A
SUBMITUSER=mwang87
TAGS=
LIBRARYQUALITY=3
SPECTRUMID=CCMSLIB00000426275
SCANS=1247
31.0 25.481 
39.0 11.158 
41.0 11.233 
43.0 61.283 
44.0 17.008 
45.0 18.557 
END IONS

BEGIN IONS
PEPMASS=160.134
CHARGE=1+
MSLEVEL=2
SOURCE_INSTRUMENT=Positive-Quattro_QQQ:40eV
FILENAME=hmdb_intermediate.mgf
SEQ=*..*
IONMODE=Positive
ORGANISM=HMDB
NAME=HMDB:HMDB00991-1383 DL-2-Aminooctanoic acid M+H
PI=HMDB
DATACOLLECTOR=HMDB
SMILES=CCCCCCC(N)C(O)=O
INCHI=InChI=1S/C8H17NO2/c1-2-3-4-5-6-7(9)8(10)11/h7H,2-6,9H2,1H3,(H,10,11)
INCHIAUX=N/A
PUBMED=N/A
SUBMITUSER=mwang87
TAGS=
LIBRARYQUALITY=3
SPECTRUMID=CCMSLIB00000426277
SCANS=1249
41.3 50.794 
43.159 100.0 
44.408 18.783 
45.243 38.624 
END IONS

BEGIN IONS
PEPMASS=283.264
CHARGE=1+
MSLEVEL=2
SOURCE_INSTRUMENT=Negative-Quattro_QQQ:25eV
FILENAME=hmdb_intermediate.mgf
SEQ=*..*
IONMODE=Negative
ORGANISM=HMDB
NAME=HMDB:HMDB00827-1177 Stearic acid M-H
PI=HMDB
DATACOLLECTOR=HMDB
SMILES=CCCCCCCCCCCCCCCCCC(O)=O
INCHI=InChI=1S/C18H36O2/c1-2-3-4-5-6-7-8-9-10-11-12-13-14-15-16-17-18(19)20/h2-17H2,1H3,(H,19,20)
INCHIAUX=N/A
PUBMED=N/A
SUBMITUSER=mwang87
TAGS=
LIBRARYQUALITY=3
SPECTRUMID=CCMSLIB00000426282
SCANS=1254
45.298 1.859 
END IONS

BEGIN IONS
PEPMASS=147.029
CHARGE=1+
MSLEVEL=2
SOURCE_INSTRUMENT=Negative-Quattro_QQQ:25eV
FILENAME=hmdb_intermediate.mgf
SEQ=*..*
IONMODE=Negative
ORGANISM=HMDB
NAME=HMDB:HMDB00426-630 Citramalic acid M-H
PI=HMDB
DATACOLLECTOR=HMDB
SMILES=CC(O)(CC(O)=O)C(O)=O
INCHI=InChI=1S/C5H8O5/c1-5(10,4(8)9)2-3(6)7/h10H,2H2,1H3,(H,6,7)(H,8,9)
INCHIAUX=N/A
PUBMED=N/A
SUBMITUSER=mwang87
TAGS=
LIBRARYQUALITY=3
SPECTRUMID=CCMSLIB00000426287
SCANS=1259
41.637 72.989 
43.6 78.161 
45.548 10.704 
END IONS

BEGIN IONS
PEPMASS=243.098
CHARGE=1+
MSLEVEL=2
SOURCE_INSTRUMENT=Positive-Quattro_QQQ:25eV
FILENAME=hmdb_intermediate.mgf
SEQ=*..*
IONMODE=Positive
ORGANISM=HMDB
NAME=HMDB:HMDB00273-479 Thymidine M+H
PI=HMDB
DATACOLLECTOR=HMDB
SMILES=CC1=CN([C@H]2C[C@H](O)[C@@H](CO)O2)C(=O)NC1=O
INCHI=InChI=1S/C10H14N2O5/c1-5-3-12(10(16)11-9(5)15)8-2-6(14)7(4-13)17-8/h3,6-8,13-14H,2,4H2,1H3,(H,11,15,16)/t6-,7+,8+/m0/s1
INCHIAUX=N/A
PUBMED=N/A
SUBMITUSER=mwang87
TAGS=
LIBRARYQUALITY=3
SPECTRUMID=CCMSLIB00000426288
SCANS=1260
43.377 12.852 
45.423 7.658 
END IONS

BEGIN IONS
PEPMASS=411.399
CHARGE=1+
MSLEVEL=2
SOURCE_INSTRUMENT=Positive-Quattro_QQQ:40eV
FILENAME=hmdb_intermediate.mgf
SEQ=*..*
IONMODE=Positive
ORGANISM=HMDB
NAME=HMDB:HMDB00256-444 Squalene M+H
PI=HMDB
DATACOLLECTOR=HMDB
SMILES=CC(C)=CCC\C(C)=C/CC\C(C)=C\CC\C=C(/C)CC\C=C(/C)CCC=C(C)C
INCHI=InChI=1S/C30H50/c1-25(2)15-11-19-29(7)23-13-21-27(5)17-9-10-18-28(6)22-14-24-30(8)20-12-16-26(3)4/h15-18,23-24H,9-14,19-22H2,1-8H3/b27-17+,28-18+,29-23-,30-24+
INCHIAUX=N/A
PUBMED=N/A
SUBMITUSER=mwang87
TAGS=
LIBRARYQUALITY=3
SPECTRUMID=CCMSLIB00000426289
SCANS=1261
51.897 5.285 
END IONS

BEGIN IONS
PEPMASS=181.061
CHARGE=1+
MSLEVEL=2
SOURCE_INSTRUMENT=Positive-Quattro_QQQ:40eV
FILENAME=hmdb_intermediate.mgf
SEQ=*..*
IONMODE=Positive
ORGANISM=HMDB
NAME=HMDB:HMDB03269-2226 Nicotinuric acid M+H
PI=HMDB
DATACOLLECTOR=HMDB
SMILES=OC(=O)CNC(=O)C1=CN=CC=C1
INCHI=InChI=1S/C8H8N2O3/c11-7(12)5-10-8(13)6-2-1-3-9-4-6/h1-4H,5H2,(H,10,13)(H,11,12)
INCHIAUX=N/A
PUBMED=N/A
SUBMITUSER=mwang87
TAGS=
LIBRARYQUALITY=3
SPECTRUMID=CCMSLIB00000426292
SCANS=1264
52.0 2.726 
53.0 12.347 
END IONS

BEGIN IONS
PEPMASS=181.05
CHARGE=1+
MSLEVEL=2
SOURCE_INSTRUMENT=Positive-Quattro_QQQ:40eV
FILENAME=hmdb_intermediate.mgf
SEQ=*..*
IONMODE=Positive
ORGANISM=HMDB
NAME=HMDB:HMDB01879-1779 Aspirin M+H
PI=HMDB
DATACOLLECTOR=HMDB
SMILES=CC(=O)OC1=CC=CC=C1C(O)=O
INCHI=InChI=1S/C9H8O4/c1-6(10)13-8-5-3-2-4-7(8)9(11)12/h2-5H,1H3,(H,11,12)
INCHIAUX=N/A
PUBMED=N/A
SUBMITUSER=mwang87
TAGS=
LIBRARYQUALITY=3
SPECTRUMID=CCMSLIB00000426295
SCANS=1267
41.0 39.946 
END IONS

BEGIN IONS
PEPMASS=104.071
CHARGE=1+
MSLEVEL=2
SOURCE_INSTRUMENT=Positive-Quattro_QQQ:40eV
FILENAME=hmdb_intermediate.mgf
SEQ=*..*
IONMODE=Positive
ORGANISM=HMDB
NAME=HMDB:HMDB00112-164 Gamma-Aminobutyric acid M+H
PI=HMDB
DATACOLLECTOR=HMDB
SMILES=NCCCC(O)=O
INCHI=InChI=1S/C4H9NO2/c5-3-1-2-4(6)7/h1-3,5H2,(H,6,7)
INCHIAUX=N/A
PUBMED=N/A
SUBMITUSER=mwang87
TAGS=
LIBRARYQUALITY=3
SPECTRUMID=CCMSLIB00000426300
SCANS=1272
41.294 53.2 
43.205 22.1 
45.195 100.0 
END IONS

BEGIN IONS
PEPMASS=80.05
CHARGE=1+
MSLEVEL=2
SOURCE_INSTRUMENT=Positive-Quattro_QQQ:40eV
FILENAME=hmdb_intermediate.mgf
SEQ=*..*
IONMODE=Positive
ORGANISM=HMDB
NAME=HMDB:HMDB00926-1317 Pyridine M+H
PI=HMDB
DATACOLLECTOR=HMDB
SMILES=C1=CC=NC=C1
INCHI=InChI=1S/C5H5N/c1-2-4-6-5-3-1/h1-5H
INCHIAUX=N/A
PUBMED=N/A
SUBMITUSER=mwang87
TAGS=
LIBRARYQUALITY=3
SPECTRUMID=CCMSLIB00000426302
SCANS=1274
51.064 25.687 
53.149 66.484 
END IONS

BEGIN IONS
PEPMASS=163.061
CHARGE=1+
MSLEVEL=2
SOURCE_INSTRUMENT=Positive-Quattro_QQQ:10eV
FILENAME=hmdb_intermediate.mgf
SEQ=*..*
IONMODE=Positive
ORGANISM=HMDB
NAME=HMDB:HMDB00640-876 Levoglucosan M+H
PI=HMDB
DATACOLLECTOR=HMDB
SMILES=[H][C@@]12OC[C@@H](O1)[C@@H](O)[C@H](O)[C@H]2O
INCHI=InChI=1S/C6H10O5/c7-3-2-1-10-6(11-2)5(9)4(3)8/h2-9H,1H2/t2-,3-,4+,5-,6-/m1/s1
INCHIAUX=N/A
PUBMED=N/A
SUBMITUSER=mwang87
TAGS=
LIBRARYQUALITY=3
SPECTRUMID=CCMSLIB00000426309
SCANS=1281
43.332 3.565 
END IONS

BEGIN IONS
PEPMASS=310.114
CHARGE=1+
MSLEVEL=2
SOURCE_INSTRUMENT=Positive-Quattro_QQQ:25eV
FILENAME=hmdb_intermediate.mgf
SEQ=*..*
IONMODE=Positive
ORGANISM=HMDB
NAME=HMDB:HMDB00230-386 N-Acetylneuraminic acid M+H
PI=HMDB
DATACOLLECTOR=HMDB
SMILES=CC(=O)N[C@@H]1[C@@H](O)C[C@](O)(O[C@H]1[C@H](O)[C@H](O)CO)C(O)=O
INCHI=InChI=1S/C11H19NO9/c1-4(14)12-7-5(15)2-11(20,10(18)19)21-9(7)8(17)6(16)3-13/h5-9,13,15-17,20H,2-3H2,1H3,(H,12,14)(H,18,19)/t5-,6+,7+,8+,9+,11-/m0/s1
INCHIAUX=N/A
PUBMED=N/A
SUBMITUSER=mwang87
TAGS=
LIBRARYQUALITY=3
SPECTRUMID=CCMSLIB00000426311
SCANS=1283
45.337 4.831 
END IONS

BEGIN IONS
PEPMASS=109.029
CHARGE=1+
MSLEVEL=2
SOURCE_INSTRUMENT=Positive-Quattro_QQQ:40eV
FILENAME=hmdb_intermediate.mgf
SEQ=*..*
IONMODE=Positive
ORGANISM=HMDB
NAME=HMDB:HMDB03364-2270 Quinone M+H
PI=HMDB
DATACOLLECTOR=HMDB
SMILES=O=C1C=CC(=O)C=C1
INCHI=InChI=1S/C6H4O2/c7-5-1-2-6(8)4-3-5/h1-4H
INCHIAUX=N/A
PUBMED=N/A
SUBMITUSER=mwang87
TAGS=
LIBRARYQUALITY=3
SPECTRUMID=CCMSLIB00000426314
SCANS=1286
29.0 15.531 
38.0 22.58 
39.0 68.608 
40.0 50.884 
41.0 22.113 
51.0 21.035 
52.0 15.425 
53.0 15.201 
END IONS

BEGIN IONS
PEPMASS=201.185
CHARGE=1+
MSLEVEL=2
SOURCE_INSTRUMENT=Positive-Quattro_QQQ:25eV
FILENAME=hmdb_intermediate.mgf
SEQ=*..*
IONMODE=Positive
ORGANISM=HMDB
NAME=HMDB:HMDB00638-871 Dodecanoic acid M+H
PI=HMDB
DATACOLLECTOR=HMDB
SMILES=CCCCCCCCCCCC(O)=O
INCHI=InChI=1S/C12H24O2/c1-2-3-4-5-6-7-8-9-10-11-12(13)14/h2-11H2,1H3,(H,13,14)
INCHIAUX=N/A
PUBMED=N/A
SUBMITUSER=mwang87
TAGS=
LIBRARYQUALITY=3
SPECTRUMID=CCMSLIB00000426321
SCANS=1293
41.0 56.221 
43.0 100.0 
44.0 63.771 
END IONS

BEGIN IONS
PEPMASS=159.052
CHARGE=1+
MSLEVEL=2
SOURCE_INSTRUMENT=Positive-Quattro_QQQ:25eV
FILENAME=hmdb_intermediate.mgf
SEQ=*..*
IONMODE=Positive
ORGANISM=HMDB
NAME=HMDB:HMDB00462-672 Allantoin M+H
PI=HMDB
DATACOLLECTOR=HMDB
SMILES=NC(=O)NC1NC(=O)NC1=O
INCHI=InChI=1S/C4H6N4O3/c5-3(10)6-1-2(9)8-4(11)7-1/h1H,(H3,5,6,10)(H2,7,8,9,11)
INCHIAUX=N/A
PUBMED=N/A
SUBMITUSER=mwang87
TAGS=
LIBRARYQUALITY=3
SPECTRUMID=CCMSLIB00000426322
SCANS=1294
44.307 29.734 
45.4 11.095 
END IONS

BEGIN IONS
PEPMASS=76.0762
CHARGE=1+
MSLEVEL=2
SOURCE_INSTRUMENT=Positive-Quattro_QQQ:40eV
FILENAME=hmdb_intermediate.mgf
SEQ=*..*
IONMODE=Positive
ORGANISM=HMDB
NAME=HMDB:HMDB00925-1314 Trimethylamine N-oxide M+H
PI=HMDB
DATACOLLECTOR=HMDB
SMILES=C[N+](C)(C)[O-]
INCHI=InChI=1S/C3H9NO/c1-4(2,3)5/h1-3H3
INCHIAUX=N/A
PUBMED=N/A
SUBMITUSER=mwang87
TAGS=
LIBRARYQUALITY=3
SPECTRUMID=CCMSLIB00000426327
SCANS=1299
42.288 91.818 
43.404 56.591 
END IONS

BEGIN IONS
PEPMASS=160.097
CHARGE=1+
MSLEVEL=2
SOURCE_INSTRUMENT=Positive-Quattro_QQQ:40eV
FILENAME=hmdb_intermediate.mgf
SEQ=*..*
IONMODE=Positive
ORGANISM=HMDB
NAME=HMDB:HMDB00339-548 2-Methylbutyrylglycine M+H
PI=HMDB
DATACOLLECTOR=HMDB
SMILES=CCC(C)C(=O)NCC(O)=O
INCHI=InChI=1S/C7H13NO3/c1-3-5(2)7(11)8-4-6(9)10/h5H,3-4H2,1-2H3,(H,8,11)(H,9,10)
INCHIAUX=N/A
PUBMED=N/A
SUBMITUSER=mwang87
TAGS=
LIBRARYQUALITY=3
SPECTRUMID=CCMSLIB00000426329
SCANS=1301
41.69 74.747 
END IONS

BEGIN IONS
PEPMASS=160.097
CHARGE=1+
MSLEVEL=2
SOURCE_INSTRUMENT=Positive-Quattro_QQQ:25eV
FILENAME=hmdb_intermediate.mgf
SEQ=*..*
IONMODE=Positive
ORGANISM=HMDB
NAME=HMDB:HMDB00678-940 Isovalerylglycine M+H
PI=HMDB
DATACOLLECTOR=HMDB
SMILES=CC(C)CC(=O)NCC(O)=O
INCHI=InChI=1S/C7H13NO3/c1-5(2)3-6(9)8-4-7(10)11/h5H,3-4H2,1-2H3,(H,8,9)(H,10,11)
INCHIAUX=N/A
PUBMED=N/A
SUBMITUSER=mwang87
TAGS=
LIBRARYQUALITY=3
SPECTRUMID=CCMSLIB00000426334
SCANS=1306
41.651 18.689 
END IONS

BEGIN IONS
PEPMASS=303.05
CHARGE=1+
MSLEVEL=2
SOURCE_INSTRUMENT=Positive-Quattro_QQQ:40eV
FILENAME=hmdb_intermediate.mgf
SEQ=*..*
IONMODE=Positive
ORGANISM=HMDB
NAME=HMDB:HMDB05794-2447 Quercetin M+H
PI=HMDB
DATACOLLECTOR=HMDB
SMILES=OC1=CC(O)=C2C(OC(=C(O)C2=O)C2=CC(O)=C(O)C=C2)=C1
INCHI=InChI=1S/C15H10O7/c16-7-4-10(19)12-11(5-7)22-15(14(21)13(12)20)6-1-2-8(17)9(18)3-6/h1-5,16-19,21H
INCHIAUX=N/A
PUBMED=N/A
SUBMITUSER=mwang87
TAGS=
LIBRARYQUALITY=3
SPECTRUMID=CCMSLIB00000426335
SCANS=1307
43.0 8.995 
END IONS

BEGIN IONS
PEPMASS=153.128
CHARGE=1+
MSLEVEL=2
SOURCE_INSTRUMENT=Positive-Quattro_QQQ:25eV
FILENAME=hmdb_intermediate.mgf
SEQ=*..*
IONMODE=Positive
ORGANISM=HMDB
NAME=HMDB:HMDB03634-2335 Perillyl alcohol M+H
PI=HMDB
DATACOLLECTOR=HMDB
SMILES=CC(=C)C1CCC(CO)=CC1
INCHI=InChI=1S/C10H16O/c1-8(2)10-5-3-9(7-11)4-6-10/h3,10-11H,1,4-7H2,2H3
INCHIAUX=N/A
PUBMED=N/A
SUBMITUSER=mwang87
TAGS=
LIBRARYQUALITY=3
SPECTRUMID=CCMSLIB00000426336
SCANS=1308
43.0 15.375 
45.0 25.151 
END IONS

BEGIN IONS
PEPMASS=103.076
CHARGE=1+
MSLEVEL=2
SOURCE_INSTRUMENT=Positive-Quattro_QQQ:10eV
FILENAME=hmdb_intermediate.mgf
SEQ=*..*
IONMODE=Positive
ORGANISM=HMDB
NAME=HMDB:HMDB00718-1005 Isovaleric acid M+H
PI=HMDB
DATACOLLECTOR=HMDB
SMILES=CC(C)CC(O)=O
INCHI=InChI=1S/C5H10O2/c1-4(2)3-5(6)7/h4H,3H2,1-2H3,(H,6,7)
INCHIAUX=N/A
PUBMED=N/A
SUBMITUSER=mwang87
TAGS=
LIBRARYQUALITY=3
SPECTRUMID=CCMSLIB00000426337
SCANS=1309
42.0 10.709 
43.0 100.0 
44.0 6.644 
45.0 7.654 
END IONS

BEGIN IONS
PEPMASS=34.0293
CHARGE=1+
MSLEVEL=2
SOURCE_INSTRUMENT=Positive-Quattro_QQQ:10eV
FILENAME=hmdb_intermediate.mgf
SEQ=*..*
IONMODE=Positive
ORGANISM=HMDB
NAME=HMDB:HMDB03338-2251 Hydroxylamine M+H
PI=HMDB
DATACOLLECTOR=HMDB
SMILES=NO
INCHI=InChI=1S/H3NO/c1-2/h2H,1H2
INCHIAUX=N/A
PUBMED=N/A
SUBMITUSER=mwang87
TAGS=
LIBRARYQUALITY=3
SPECTRUMID=CCMSLIB00000426338
SCANS=1310
34.0 100.0 
END IONS

BEGIN IONS
PEPMASS=149.009
CHARGE=1+
MSLEVEL=2
SOURCE_INSTRUMENT=Negative-Quattro_QQQ:25eV
FILENAME=hmdb_intermediate.mgf
SEQ=*..*
IONMODE=Negative
ORGANISM=HMDB
NAME=HMDB:HMDB00956-1355 Tartaric acid M-H
PI=HMDB
DATACOLLECTOR=HMDB
SMILES=O[C@H]([C@@H](O)C(O)=O)C(O)=O
INCHI=InChI=1S/C4H6O6/c5-1(3(7)8)2(6)4(9)10/h1-2,5-6H,(H,7,8)(H,9,10)/t1-,2-/m1/s1
INCHIAUX=N/A
PUBMED=N/A
SUBMITUSER=mwang87
TAGS=
LIBRARYQUALITY=3
SPECTRUMID=CCMSLIB00000426342
SCANS=1314
41.65 9.659 
43.629 94.805 
45.584 20.617 
END IONS

BEGIN IONS
PEPMASS=181.073
CHARGE=1+
MSLEVEL=2
SOURCE_INSTRUMENT=Positive-Quattro_QQQ:25eV
FILENAME=hmdb_intermediate.mgf
SEQ=*..*
IONMODE=Positive
ORGANISM=HMDB
NAME=HMDB:HMDB02825-2144 Theobromine M+H
PI=HMDB
DATACOLLECTOR=HMDB
SMILES=CN1C=NC2=C1C(=O)NC(=O)N2C
INCHI=InChI=1S/C7H8N4O2/c1-10-3-8-5-4(10)6(12)9-7(13)11(5)2/h3H,1-2H3,(H,9,12,13)
INCHIAUX=N/A
PUBMED=N/A
SUBMITUSER=mwang87
TAGS=
LIBRARYQUALITY=3
SPECTRUMID=CCMSLIB00000426349
SCANS=1321
42.19 18.386 
END IONS

BEGIN IONS
PEPMASS=89.0603
CHARGE=1+
MSLEVEL=2
SOURCE_INSTRUMENT=Positive-Quattro_QQQ:25eV
FILENAME=hmdb_intermediate.mgf
SEQ=*..*
IONMODE=Positive
ORGANISM=HMDB
NAME=HMDB:HMDB03243-2219 Acetoin M+H
PI=HMDB
DATACOLLECTOR=HMDB
SMILES=CC(O)C(C)=O
INCHI=InChI=1S/C4H8O2/c1-3(5)4(2)6/h3,5H,1-2H3
INCHIAUX=N/A
PUBMED=N/A
SUBMITUSER=mwang87
TAGS=
LIBRARYQUALITY=3
SPECTRUMID=CCMSLIB00000426350
SCANS=1322
41.0 15.437 
42.0 3.565 
43.0 100.0 
44.0 7.613 
45.0 6.543 
END IONS

BEGIN IONS
PEPMASS=111.045
CHARGE=1+
MSLEVEL=2
SOURCE_INSTRUMENT=Positive-Quattro_QQQ:40eV
FILENAME=hmdb_intermediate.mgf
SEQ=*..*
IONMODE=Positive
ORGANISM=HMDB
NAME=HMDB:HMDB02434-2109 Hydroquinone M+H
PI=HMDB
DATACOLLECTOR=HMDB
SMILES=OC1=CC=C(O)C=C1
INCHI=InChI=1S/C6H6O2/c7-5-1-2-6(8)4-3-5/h1-4,7-8H
INCHIAUX=N/A
PUBMED=N/A
SUBMITUSER=mwang87
TAGS=
LIBRARYQUALITY=3
SPECTRUMID=CCMSLIB00000426351
SCANS=1323
38.0 79.912 
39.0 100.0 
END IONS

BEGIN IONS
PEPMASS=118.066
CHARGE=1+
MSLEVEL=2
SOURCE_INSTRUMENT=Positive-Quattro_QQQ:40eV
FILENAME=hmdb_intermediate.mgf
SEQ=*..*
IONMODE=Positive
ORGANISM=HMDB
NAME=HMDB:HMDB00738-1049 Indole M+H
PI=HMDB
DATACOLLECTOR=HMDB
SMILES=N1C=CC2=C1C=CC=C2
INCHI=InChI=1S/C8H7N/c1-2-4-8-7(3-1)5-6-9-8/h1-6,9H
INCHIAUX=N/A
PUBMED=N/A
SUBMITUSER=mwang87
TAGS=
LIBRARYQUALITY=3
SPECTRUMID=CCMSLIB00000426352
SCANS=1324
41.331 10.56 
51.2 6.897 
END IONS

BEGIN IONS
PEPMASS=377.146
CHARGE=1+
MSLEVEL=2
SOURCE_INSTRUMENT=Positive-Quattro_QQQ:40eV
FILENAME=hmdb_intermediate.mgf
SEQ=*..*
IONMODE=Positive
ORGANISM=HMDB
NAME=HMDB:HMDB00244-414 Riboflavin M+H
PI=HMDB
DATACOLLECTOR=HMDB
SMILES=CC1=C(C)C=C2N(C[C@H](O)[C@H](O)[C@H](O)CO)C3=NC(=O)NC(=O)C3=NC2=C1
INCHI=InChI=1S/C17H20N4O6/c1-7-3-9-10(4-8(7)2)21(5-11(23)14(25)12(24)6-22)15-13(18-9)16(26)20-17(27)19-15/h3-4,11-12,14,22-25H,5-6H2,1-2H3,(H,20,26,27)/t11-,12+,14-/m0/s1
INCHIAUX=N/A
PUBMED=N/A
SUBMITUSER=mwang87
TAGS=
LIBRARYQUALITY=3
SPECTRUMID=CCMSLIB00000426357
SCANS=1329
41.0 9.115 
43.0 26.204 
45.0 13.881 
53.0 6.682 
END IONS

BEGIN IONS
PEPMASS=131.071
CHARGE=1+
MSLEVEL=2
SOURCE_INSTRUMENT=Negative-Quattro_QQQ:25eV
FILENAME=hmdb_intermediate.mgf
SEQ=*..*
IONMODE=Negative
ORGANISM=HMDB
NAME=HMDB:HMDB00746-1063 Hydroxyisocaproic acid M-H
PI=HMDB
DATACOLLECTOR=HMDB
SMILES=CC(C)C[C@H](O)C(O)=O
INCHI=InChI=1S/C6H12O3/c1-4(2)3-5(7)6(8)9/h4-5,7H,3H2,1-2H3,(H,8,9)/t5-/m0/s1
INCHIAUX=N/A
PUBMED=N/A
SUBMITUSER=mwang87
TAGS=
LIBRARYQUALITY=3
SPECTRUMID=CCMSLIB00000426358
SCANS=1330
41.696 6.217 
45.576 57.672 
END IONS

BEGIN IONS
PEPMASS=287.237
CHARGE=1+
MSLEVEL=2
SOURCE_INSTRUMENT=Positive-Quattro_QQQ:40eV
FILENAME=hmdb_intermediate.mgf
SEQ=*..*
IONMODE=Positive
ORGANISM=HMDB
NAME=HMDB:HMDB00305-521 Vitamin A M+H
PI=HMDB
DATACOLLECTOR=HMDB
SMILES=C\C(=C/CO)\C=C\C=C(/C)\C=C\C1=C(C)CCCC1(C)C
INCHI=InChI=1S/C20H30O/c1-16(8-6-9-17(2)13-15-21)11-12-19-18(3)10-7-14-20(19,4)5/h6,8-9,11-13,21H,7,10,14-15H2,1-5H3/b9-6+,12-11+,16-8+,17-13+
INCHIAUX=N/A
PUBMED=N/A
SUBMITUSER=mwang87
TAGS=
LIBRARYQUALITY=3
SPECTRUMID=CCMSLIB00000426359
SCANS=1331
41.383 24.671 
43.311 73.026 
END IONS

BEGIN IONS
PEPMASS=99.081
CHARGE=1+
MSLEVEL=2
SOURCE_INSTRUMENT=Positive-Quattro_QQQ:25eV
FILENAME=hmdb_intermediate.mgf
SEQ=*..*
IONMODE=Positive
ORGANISM=HMDB
NAME=HMDB:HMDB03315-2240 Cyclohexanone M+H
PI=HMDB
DATACOLLECTOR=HMDB
SMILES=O=C1CCCCC1
INCHI=InChI=1S/C6H10O/c7-6-4-2-1-3-5-6/h1-5H2
INCHIAUX=N/A
PUBMED=N/A
SUBMITUSER=mwang87
TAGS=
LIBRARYQUALITY=3
SPECTRUMID=CCMSLIB00000426360
SCANS=1332
29.32 17.251 
31.26 29.011 
41.17 100.0 
53.06 25.724 
END IONS

BEGIN IONS
PEPMASS=90.0555
CHARGE=1+
MSLEVEL=2
SOURCE_INSTRUMENT=Positive-Quattro_QQQ:40eV
FILENAME=hmdb_intermediate.mgf
SEQ=*..*
IONMODE=Positive
ORGANISM=HMDB
NAME=HMDB:HMDB00161-253 L-Alanine M+H
PI=HMDB
DATACOLLECTOR=HMDB
SMILES=C[C@H](N)C(O)=O
INCHI=InChI=1S/C3H7NO2/c1-2(4)3(5)6/h2H,4H2,1H3,(H,5,6)/t2-/m0/s1
INCHIAUX=N/A
PUBMED=N/A
SUBMITUSER=mwang87
TAGS=
LIBRARYQUALITY=3
SPECTRUMID=CCMSLIB00000426363
SCANS=1335
42.187 4.227 
44.169 100.0 
45.379 32.554 
END IONS

BEGIN IONS
PEPMASS=126.022
CHARGE=1+
MSLEVEL=2
SOURCE_INSTRUMENT=Positive-Quattro_QQQ:25eV
FILENAME=hmdb_intermediate.mgf
SEQ=*..*
IONMODE=Positive
ORGANISM=HMDB
NAME=HMDB:HMDB00251-431 Taurine M+H
PI=HMDB
DATACOLLECTOR=HMDB
SMILES=NCCS(O)(=O)=O
INCHI=InChI=1S/C2H7NO3S/c3-1-2-7(4,5)6/h1-3H2,(H,4,5,6)
INCHIAUX=N/A
PUBMED=N/A
SUBMITUSER=mwang87
TAGS=
LIBRARYQUALITY=3
SPECTRUMID=CCMSLIB00000426368
SCANS=1340
44.313 100.0 
45.476 5.799 
END IONS

BEGIN IONS
PEPMASS=206.045
CHARGE=1+
MSLEVEL=2
SOURCE_INSTRUMENT=Positive-Quattro_QQQ:40eV
FILENAME=hmdb_intermediate.mgf
SEQ=*..*
IONMODE=Positive
ORGANISM=HMDB
NAME=HMDB:HMDB00881-1243 Xanthurenic acid M+H
PI=HMDB
DATACOLLECTOR=HMDB
SMILES=OC(=O)C1=NC2=C(O)C=CC=C2C(O)=C1
INCHI=InChI=1S/C10H7NO4/c12-7-3-1-2-5-8(13)4-6(10(14)15)11-9(5)7/h1-4,12H,(H,11,13)(H,14,15)
INCHIAUX=N/A
PUBMED=N/A
SUBMITUSER=mwang87
TAGS=
LIBRARYQUALITY=3
SPECTRUMID=CCMSLIB00000426372
SCANS=1344
51.275 5.0 
END IONS

BEGIN IONS
PEPMASS=147.045
CHARGE=1+
MSLEVEL=2
SOURCE_INSTRUMENT=Positive-Quattro_QQQ:25eV
FILENAME=hmdb_intermediate.mgf
SEQ=*..*
IONMODE=Positive
ORGANISM=HMDB
NAME=HMDB:HMDB02359-2080 Phenylpropiolic acid M+H
PI=HMDB
DATACOLLECTOR=HMDB
SMILES=OC(=O)C#CC1=CC=CC=C1
INCHI=InChI=1S/C9H6O2/c10-9(11)7-6-8-4-2-1-3-5-8/h1-5H,(H,10,11)
INCHIAUX=N/A
PUBMED=N/A
SUBMITUSER=mwang87
TAGS=
LIBRARYQUALITY=3
SPECTRUMID=CCMSLIB00000426373
SCANS=1345
51.0 7.727 
END IONS

BEGIN IONS
PEPMASS=186.017
CHARGE=1+
MSLEVEL=2
SOURCE_INSTRUMENT=Positive-Quattro_QQQ:25eV
FILENAME=hmdb_intermediate.mgf
SEQ=*..*
IONMODE=Positive
ORGANISM=HMDB
NAME=HMDB:HMDB01721-1679 DL-O-Phosphoserine M+H
PI=HMDB
DATACOLLECTOR=HMDB
SMILES=NC(COP(O)(O)=O)C(O)=O
INCHI=InChI=1S/C3H8NO6P/c4-2(3(5)6)1-10-11(7,8)9/h2H,1,4H2,(H,5,6)(H2,7,8,9)
INCHIAUX=N/A
PUBMED=N/A
SUBMITUSER=mwang87
TAGS=
LIBRARYQUALITY=3
SPECTRUMID=CCMSLIB00000426375
SCANS=1347
42.662 46.875 
END IONS

BEGIN IONS
PEPMASS=141.092
CHARGE=1+
MSLEVEL=2
SOURCE_INSTRUMENT=Negative-Quattro_QQQ:40eV
FILENAME=hmdb_intermediate.mgf
SEQ=*..*
IONMODE=Negative
ORGANISM=HMDB
NAME=HMDB:HMDB01568-1656 trans-2-Octenoic acid M-H
PI=HMDB
DATACOLLECTOR=HMDB
SMILES=CCCCC\C=C\C(O)=O
INCHI=InChI=1S/C8H14O2/c1-2-3-4-5-6-7-8(9)10/h6-7H,2-5H2,1H3,(H,9,10)/b7-6+
INCHIAUX=N/A
PUBMED=N/A
SUBMITUSER=mwang87
TAGS=
LIBRARYQUALITY=3
SPECTRUMID=CCMSLIB00000426379
SCANS=1351
40.304 27.941 
41.303 6.25 
53.212 8.088 
END IONS

BEGIN IONS
PEPMASS=131.034
CHARGE=1+
MSLEVEL=2
SOURCE_INSTRUMENT=Negative-Quattro_QQQ:10eV
FILENAME=hmdb_intermediate.mgf
SEQ=*..*
IONMODE=Negative
ORGANISM=HMDB
NAME=HMDB:HMDB00576-806 Monoethyl malonic acid M-H
PI=HMDB
DATACOLLECTOR=HMDB
SMILES=CCOC(=O)CC(O)=O
INCHI=InChI=1S/C5H8O4/c1-2-9-5(8)3-4(6)7/h2-3H2,1H3,(H,6,7)
INCHIAUX=N/A
PUBMED=N/A
SUBMITUSER=mwang87
TAGS=
LIBRARYQUALITY=3
SPECTRUMID=CCMSLIB00000426380
SCANS=1352
41.673 100.0 
END IONS

BEGIN IONS
PEPMASS=123.066
CHARGE=1+
MSLEVEL=2
SOURCE_INSTRUMENT=Positive-Quattro_QQQ:40eV
FILENAME=hmdb_intermediate.mgf
SEQ=*..*
IONMODE=Positive
ORGANISM=HMDB
NAME=HMDB:HMDB02994-2181 Erythritol M+H
PI=HMDB
DATACOLLECTOR=HMDB
SMILES=OC[C@H](O)[C@H](O)CO
INCHI=InChI=1S/C4H10O4/c5-1-3(7)4(8)2-6/h3-8H,1-2H2/t3-,4+
INCHIAUX=N/A
PUBMED=N/A
SUBMITUSER=mwang87
TAGS=
LIBRARYQUALITY=3
SPECTRUMID=CCMSLIB00000426385
SCANS=1357
31.0 61.865 
39.0 57.189 
41.0 89.735 
43.0 100.0 
44.0 57.844 
END IONS

BEGIN IONS
PEPMASS=122.061
CHARGE=1+
MSLEVEL=2
SOURCE_INSTRUMENT=Positive-Quattro_QQQ:40eV
FILENAME=hmdb_intermediate.mgf
SEQ=*..*
IONMODE=Positive
ORGANISM=HMDB
NAME=HMDB:HMDB04461-2390 Benzamide M+H
PI=HMDB
DATACOLLECTOR=HMDB
SMILES=NC(=O)C1=CC=CC=C1
INCHI=InChI=1S/C7H7NO/c8-7(9)6-4-2-1-3-5-6/h1-5H,(H2,8,9)
INCHIAUX=N/A
PUBMED=N/A
SUBMITUSER=mwang87
TAGS=
LIBRARYQUALITY=3
SPECTRUMID=CCMSLIB00000426391
SCANS=1363
44.095 27.436 
51.064 95.033 
END IONS

BEGIN IONS
PEPMASS=74.0718
CHARGE=1+
MSLEVEL=2
SOURCE_INSTRUMENT=Positive-Quattro_QQQ:10eV
FILENAME=hmdb_intermediate.mgf
SEQ=*..*
IONMODE=Positive
ORGANISM=HMDB
NAME=HMDB:HMDB01522-1622 Methylguanidine M+H
PI=HMDB
DATACOLLECTOR=HMDB
SMILES=CNC(N)=N
INCHI=InChI=1S/C2H7N3/c1-5-2(3)4/h1H3,(H4,3,4,5)
INCHIAUX=N/A
PUBMED=N/A
SUBMITUSER=mwang87
TAGS=
LIBRARYQUALITY=3
SPECTRUMID=CCMSLIB00000426393
SCANS=1365
32.442 6.429 
END IONS

BEGIN IONS
PEPMASS=56.9673
CHARGE=1+
MSLEVEL=2
SOURCE_INSTRUMENT=Negative-Quattro_QQQ:40eV
FILENAME=hmdb_intermediate.mgf
SEQ=*..*
IONMODE=Negative
ORGANISM=HMDB
NAME=HMDB:HMDB01453-1585 Thiocyanate M-H
PI=HMDB
DATACOLLECTOR=HMDB
SMILES=[S-]C#N
INCHI=InChI=1S/CHNS/c2-1-3/h3H/p-1
INCHIAUX=N/A
PUBMED=N/A
SUBMITUSER=mwang87
TAGS=
LIBRARYQUALITY=3
SPECTRUMID=CCMSLIB00000426394
SCANS=1366
25.0 10.954 
26.0 29.219 
END IONS

BEGIN IONS
PEPMASS=103.003
CHARGE=1+
MSLEVEL=2
SOURCE_INSTRUMENT=Negative-Quattro_QQQ:25eV
FILENAME=hmdb_intermediate.mgf
SEQ=*..*
IONMODE=Negative
ORGANISM=HMDB
NAME=HMDB:HMDB00691-959 Malonic acid M-H
PI=HMDB
DATACOLLECTOR=HMDB
SMILES=OC(=O)CC(O)=O
INCHI=InChI=1S/C3H4O4/c4-2(5)1-3(6)7/h1H2,(H,4,5)(H,6,7)
INCHIAUX=N/A
PUBMED=N/A
SUBMITUSER=mwang87
TAGS=
LIBRARYQUALITY=3
SPECTRUMID=CCMSLIB00000426395
SCANS=1367
41.617 80.723 
END IONS

BEGIN IONS
PEPMASS=147.045
CHARGE=1+
MSLEVEL=2
SOURCE_INSTRUMENT=Positive-Quattro_QQQ:40eV
FILENAME=hmdb_intermediate.mgf
SEQ=*..*
IONMODE=Positive
ORGANISM=HMDB
NAME=HMDB:HMDB02359-2081 Phenylpropiolic acid M+H
PI=HMDB
DATACOLLECTOR=HMDB
SMILES=OC(=O)C#CC1=CC=CC=C1
INCHI=InChI=1S/C9H6O2/c10-9(11)7-6-8-4-2-1-3-5-8/h1-5H,(H,10,11)
INCHIAUX=N/A
PUBMED=N/A
SUBMITUSER=mwang87
TAGS=
LIBRARYQUALITY=3
SPECTRUMID=CCMSLIB00000426396
SCANS=1368
41.0 4.615 
51.0 56.861 
END IONS

BEGIN IONS
PEPMASS=32.05
CHARGE=1+
MSLEVEL=2
SOURCE_INSTRUMENT=Positive-Quattro_QQQ:10eV
FILENAME=hmdb_intermediate.mgf
SEQ=*..*
IONMODE=Positive
ORGANISM=HMDB
NAME=HMDB:HMDB60291-260 Methylammonium M+H
PI=HMDB
DATACOLLECTOR=HMDB
SMILES=CN
INCHI=InChI=1S/CH5N/c1-2/h2H2,1H3
INCHIAUX=N/A
PUBMED=N/A
SUBMITUSER=mwang87
TAGS=
LIBRARYQUALITY=3
SPECTRUMID=CCMSLIB00000426397
SCANS=1369
31.0 8.159 
32.0 100.0 
33.0 11.568 
END IONS

BEGIN IONS
PEPMASS=343.124
CHARGE=1+
MSLEVEL=2
SOURCE_INSTRUMENT=Positive-Quattro_QQQ:40eV
FILENAME=hmdb_intermediate.mgf
SEQ=*..*
IONMODE=Positive
ORGANISM=HMDB
NAME=HMDB:HMDB00258-450 Sucrose M+H
PI=HMDB
DATACOLLECTOR=HMDB
SMILES=OC[C@H]1O[C@@](CO)(O[C@H]2O[C@H](CO)[C@@H](O)[C@H](O)[C@H]2O)[C@@H](O)[C@@H]1O
INCHI=InChI=1S/C12H22O11/c13-1-4-6(16)8(18)9(19)11(21-4)23-12(3-15)10(20)7(17)5(2-14)22-12/h4-11,13-20H,1-3H2/t4-,5-,6-,7-,8+,9-,10+,11-,12+/m1/s1
INCHIAUX=N/A
PUBMED=N/A
SUBMITUSER=mwang87
TAGS=
LIBRARYQUALITY=3
SPECTRUMID=CCMSLIB00000426404
SCANS=1376
43.367 8.886 
45.357 5.497 
END IONS

BEGIN IONS
PEPMASS=183.087
CHARGE=1+
MSLEVEL=2
SOURCE_INSTRUMENT=Positive-Quattro_QQQ:40eV
FILENAME=hmdb_intermediate.mgf
SEQ=*..*
IONMODE=Positive
ORGANISM=HMDB
NAME=HMDB:HMDB00765-1103 Mannitol M+H
PI=HMDB
DATACOLLECTOR=HMDB
SMILES=OC[C@@H](O)[C@@H](O)[C@H](O)[C@H](O)CO
INCHI=InChI=1S/C6H14O6/c7-1-3(9)5(11)6(12)4(10)2-8/h3-12H,1-2H2/t3-,4-,5-,6-/m1/s1
INCHIAUX=N/A
PUBMED=N/A
SUBMITUSER=mwang87
TAGS=
LIBRARYQUALITY=3
SPECTRUMID=CCMSLIB00000426407
SCANS=1379
41.379 50.743 
43.33 100.0 
45.313 32.178 
53.292 17.822 
END IONS

BEGIN IONS
PEPMASS=89.0239
CHARGE=1+
MSLEVEL=2
SOURCE_INSTRUMENT=Negative-Quattro_QQQ:10eV
FILENAME=hmdb_intermediate.mgf
SEQ=*..*
IONMODE=Negative
ORGANISM=HMDB
NAME=HMDB:HMDB01311-1513 D-Lactic acid M-H
PI=HMDB
DATACOLLECTOR=HMDB
SMILES=C[C@@H](O)C(O)=O
INCHI=InChI=1S/C3H6O3/c1-2(4)3(5)6/h2,4H,1H3,(H,5,6)/t2-/m1/s1
INCHIAUX=N/A
PUBMED=N/A
SUBMITUSER=mwang87
TAGS=
LIBRARYQUALITY=3
SPECTRUMID=CCMSLIB00000426411
SCANS=1383
35.0 4.122 
43.0 36.329 
45.0 29.256 
END IONS

BEGIN IONS
PEPMASS=165.076
CHARGE=1+
MSLEVEL=2
SOURCE_INSTRUMENT=Positive-Quattro_QQQ:40eV
FILENAME=hmdb_intermediate.mgf
SEQ=*..*
IONMODE=Positive
ORGANISM=HMDB
NAME=HMDB:HMDB02712-2127 1,5-Anhydrosorbitol M+H
PI=HMDB
DATACOLLECTOR=HMDB
SMILES=OC[C@H]1OC[C@H](O)[C@@H](O)[C@@H]1O
INCHI=InChI=1S/C6H12O5/c7-1-4-6(10)5(9)3(8)2-11-4/h3-10H,1-2H2/t3-,4+,5+,6+/m0/s1
INCHIAUX=N/A
PUBMED=N/A
SUBMITUSER=mwang87
TAGS=
LIBRARYQUALITY=3
SPECTRUMID=CCMSLIB00000426412
SCANS=1384
41.0 8.476 
43.0 4.166 
45.0 4.292 
END IONS

BEGIN IONS
PEPMASS=133.061
CHARGE=1+
MSLEVEL=2
SOURCE_INSTRUMENT=Positive-Quattro_QQQ:25eV
FILENAME=hmdb_intermediate.mgf
SEQ=*..*
IONMODE=Positive
ORGANISM=HMDB
NAME=HMDB:HMDB00026-46 Ureidopropionic acid M+H
PI=HMDB
DATACOLLECTOR=HMDB
SMILES=NC(=O)NCCC(O)=O
INCHI=InChI=1S/C4H8N2O3/c5-4(9)6-2-1-3(7)8/h1-2H2,(H,7,8)(H3,5,6,9)
INCHIAUX=N/A
PUBMED=N/A
SUBMITUSER=mwang87
TAGS=
LIBRARYQUALITY=3
SPECTRUMID=CCMSLIB00000426414
SCANS=1386
43.258 15.152 
44.351 26.136 
END IONS

BEGIN IONS
PEPMASS=106.087
CHARGE=1+
MSLEVEL=2
SOURCE_INSTRUMENT=Positive-Quattro_QQQ:40eV
FILENAME=hmdb_intermediate.mgf
SEQ=*..*
IONMODE=Positive
ORGANISM=HMDB
NAME=HMDB:HMDB04437-2387 Diethanolamine M+H
PI=HMDB
DATACOLLECTOR=HMDB
SMILES=OCCNCCO
INCHI=InChI=1S/C4H11NO2/c6-3-1-5-2-4-7/h5-7H,1-4H2
INCHIAUX=N/A
PUBMED=N/A
SUBMITUSER=mwang87
TAGS=
LIBRARYQUALITY=3
SPECTRUMID=CCMSLIB00000426416
SCANS=1388
41.0 4.066 
42.0 19.74 
43.0 21.19 
44.0 15.92 
45.0 100.0 
END IONS

BEGIN IONS
PEPMASS=151.04
CHARGE=1+
MSLEVEL=2
SOURCE_INSTRUMENT=Negative-Quattro_QQQ:40eV
FILENAME=hmdb_intermediate.mgf
SEQ=*..*
IONMODE=Negative
ORGANISM=HMDB
NAME=HMDB:HMDB00440-643 3-Hydroxyphenylacetic acid M-H
PI=HMDB
DATACOLLECTOR=HMDB
SMILES=OC(=O)CC1=CC=CC(O)=C1
INCHI=InChI=1S/C8H8O3/c9-7-3-1-2-6(4-7)5-8(10)11/h1-4,9H,5H2,(H,10,11)
INCHIAUX=N/A
PUBMED=N/A
SUBMITUSER=mwang87
TAGS=
LIBRARYQUALITY=3
SPECTRUMID=CCMSLIB00000426418
SCANS=1390
41.625 48.485 
END IONS

BEGIN IONS
PEPMASS=246.171
CHARGE=1+
MSLEVEL=2
SOURCE_INSTRUMENT=Positive-Quattro_QQQ:40eV
FILENAME=hmdb_intermediate.mgf
SEQ=*..*
IONMODE=Positive
ORGANISM=HMDB
NAME=HMDB:HMDB00378-593 2-Methylbutyroylcarnitine M+H
PI=HMDB
DATACOLLECTOR=HMDB
SMILES=CCC(C)C(=O)OC(CC([O-])=O)C[N+](C)(C)C
INCHI=InChI=1S/C12H23NO4/c1-6-9(2)12(16)17-10(7-11(14)15)8-13(3,4)5/h9-10H,6-8H2,1-5H3
INCHIAUX=N/A
PUBMED=N/A
SUBMITUSER=mwang87
TAGS=
LIBRARYQUALITY=3
SPECTRUMID=CCMSLIB00000426420
SCANS=1392
41.683 4.455 
END IONS

BEGIN IONS
PEPMASS=75.0082
CHARGE=1+
MSLEVEL=2
SOURCE_INSTRUMENT=Negative-Quattro_QQQ:25eV
FILENAME=hmdb_intermediate.mgf
SEQ=*..*
IONMODE=Negative
ORGANISM=HMDB
NAME=HMDB:HMDB00115-166 Glycolic acid M-H
PI=HMDB
DATACOLLECTOR=HMDB
SMILES=OCC(O)=O
INCHI=InChI=1S/C2H4O3/c3-1-2(4)5/h3H,1H2,(H,4,5)
INCHIAUX=N/A
PUBMED=N/A
SUBMITUSER=mwang87
TAGS=
LIBRARYQUALITY=3
SPECTRUMID=CCMSLIB00000426421
SCANS=1393
45.141 26.423 
47.201 8.384 
END IONS

BEGIN IONS
PEPMASS=361.202
CHARGE=1+
MSLEVEL=2
SOURCE_INSTRUMENT=Positive-Quattro_QQQ:40eV
FILENAME=hmdb_intermediate.mgf
SEQ=*..*
IONMODE=Positive
ORGANISM=HMDB
NAME=HMDB:HMDB02802-2136 Cortisone M+H
PI=HMDB
DATACOLLECTOR=HMDB
SMILES=[H][C@@]12CC[C@](O)(C(=O)CO)[C@@]1(C)CC(=O)[C@@]1([H])[C@@]2([H])CCC2=CC(=O)CC[C@]12C
INCHI=InChI=1S/C21H28O5/c1-19-7-5-13(23)9-12(19)3-4-14-15-6-8-21(26,17(25)11-22)20(15,2)10-16(24)18(14)19/h9,14-15,18,22,26H,3-8,10-11H2,1-2H3/t14-,15-,18+,19-,20-,21-/m0/s1
INCHIAUX=N/A
PUBMED=N/A
SUBMITUSER=mwang87
TAGS=
LIBRARYQUALITY=3
SPECTRUMID=CCMSLIB00000426423
SCANS=1395
43.23 27.57 
END IONS

BEGIN IONS
PEPMASS=195.088
CHARGE=1+
MSLEVEL=2
SOURCE_INSTRUMENT=Positive-Quattro_QQQ:25eV
FILENAME=hmdb_intermediate.mgf
SEQ=*..*
IONMODE=Positive
ORGANISM=HMDB
NAME=HMDB:HMDB01847-1703 Caffeine M+H
PI=HMDB
DATACOLLECTOR=HMDB
SMILES=CN1C=NC2=C1C(=O)N(C)C(=O)N2C
INCHI=InChI=1S/C8H10N4O2/c1-10-4-9-6-5(10)7(13)12(3)8(14)11(6)2/h4H,1-3H3
INCHIAUX=N/A
PUBMED=N/A
SUBMITUSER=mwang87
TAGS=
LIBRARYQUALITY=3
SPECTRUMID=CCMSLIB00000426424
SCANS=1396
42.359 7.235 
42.611 7.495 
END IONS

BEGIN IONS
PEPMASS=170.082
CHARGE=1+
MSLEVEL=2
SOURCE_INSTRUMENT=Positive-Quattro_QQQ:40eV
FILENAME=hmdb_intermediate.mgf
SEQ=*..*
IONMODE=Positive
ORGANISM=HMDB
NAME=HMDB:HMDB00239-405 Pyridoxine M+H
PI=HMDB
DATACOLLECTOR=HMDB
SMILES=CC1=NC=C(CO)C(CO)=C1O
INCHI=InChI=1S/C8H11NO3/c1-5-8(12)7(4-11)6(3-10)2-9-5/h2,10-12H,3-4H2,1H3
INCHIAUX=N/A
PUBMED=N/A
SUBMITUSER=mwang87
TAGS=
LIBRARYQUALITY=3
SPECTRUMID=CCMSLIB00000426428
SCANS=1400
51.271 5.725 
53.262 12.395 
END IONS

BEGIN IONS
PEPMASS=191.019
CHARGE=1+
MSLEVEL=2
SOURCE_INSTRUMENT=Negative-Quattro_QQQ:25eV
FILENAME=hmdb_intermediate.mgf
SEQ=*..*
IONMODE=Negative
ORGANISM=HMDB
NAME=HMDB:HMDB01874-1766 D-threo-Isocitric acid M-H
PI=HMDB
DATACOLLECTOR=HMDB
SMILES=O[C@H]([C@H](CC(O)=O)C(O)=O)C(O)=O
INCHI=InChI=1S/C6H8O7/c7-3(8)1-2(5(10)11)4(9)6(12)13/h2,4,9H,1H2,(H,7,8)(H,10,11)(H,12,13)/t2-,4+/m0/s1
INCHIAUX=N/A
PUBMED=N/A
SUBMITUSER=mwang87
TAGS=
LIBRARYQUALITY=3
SPECTRUMID=CCMSLIB00000426429
SCANS=1401
43.251 12.375 
END IONS

BEGIN IONS
PEPMASS=61.0653
CHARGE=1+
MSLEVEL=2
SOURCE_INSTRUMENT=Positive-Quattro_QQQ:10eV
FILENAME=hmdb_intermediate.mgf
SEQ=*..*
IONMODE=Positive
ORGANISM=HMDB
NAME=HMDB:HMDB00820-1167 Propyl alcohol M+H
PI=HMDB
DATACOLLECTOR=HMDB
SMILES=CCCO
INCHI=InChI=1S/C3H8O/c1-2-3-4/h4H,2-3H2,1H3
INCHIAUX=N/A
PUBMED=N/A
SUBMITUSER=mwang87
TAGS=
LIBRARYQUALITY=3
SPECTRUMID=CCMSLIB00000426430
SCANS=1402
33.0 17.649 
42.0 14.994 
43.0 16.669 
END IONS

BEGIN IONS
PEPMASS=268.105
CHARGE=1+
MSLEVEL=2
SOURCE_INSTRUMENT=Positive-Quattro_QQQ:40eV
FILENAME=hmdb_intermediate.mgf
SEQ=*..*
IONMODE=Positive
ORGANISM=HMDB
NAME=HMDB:HMDB00050-83 Adenosine M+H
PI=HMDB
DATACOLLECTOR=HMDB
SMILES=NC1=NC=NC2=C1N=CN2[C@@H]1O[C@H](CO)[C@@H](O)[C@H]1O
INCHI=InChI=1S/C10H13N5O4/c11-8-5-9(13-2-12-8)15(3-14-5)10-7(18)6(17)4(1-16)19-10/h2-4,6-7,10,16-18H,1H2,(H2,11,12,13)/t4-,6-,7-,10-/m1/s1
INCHIAUX=N/A
PUBMED=N/A
SUBMITUSER=mwang87
TAGS=
LIBRARYQUALITY=3
SPECTRUMID=CCMSLIB00000426432
SCANS=1404
43.265 2.571 
END IONS

BEGIN IONS
PEPMASS=332.076
CHARGE=1+
MSLEVEL=2
SOURCE_INSTRUMENT=Positive-Quattro_QQQ:40eV
FILENAME=hmdb_intermediate.mgf
SEQ=*..*
IONMODE=Positive
ORGANISM=HMDB
NAME=HMDB:HMDB00905-1291 Deoxyadenosine monophosphate M+H
PI=HMDB
DATACOLLECTOR=HMDB
SMILES=NC1=NC=NC2=C1N=CN2[C@H]1C[C@H](O)[C@@H](COP(O)(O)=O)O1
INCHI=InChI=1S/C10H14N5O6P/c11-9-8-10(13-3-12-9)15(4-14-8)7-1-5(16)6(21-7)2-20-22(17,18)19/h3-7,16H,1-2H2,(H2,11,12,13)(H2,17,18,19)/t5-,6+,7+/m0/s1
INCHIAUX=N/A
PUBMED=N/A
SUBMITUSER=mwang87
TAGS=
LIBRARYQUALITY=3
SPECTRUMID=CCMSLIB00000426436
SCANS=1408
23.0 27.887 
43.0 18.787 
END IONS

BEGIN IONS
PEPMASS=190.119
CHARGE=1+
MSLEVEL=2
SOURCE_INSTRUMENT=Positive-Quattro_QQQ:40eV
FILENAME=hmdb_intermediate.mgf
SEQ=*..*
IONMODE=Positive
ORGANISM=HMDB
NAME=HMDB:HMDB00679-944 Homocitrulline M+H
PI=HMDB
DATACOLLECTOR=HMDB
SMILES=N[C@@H](CCCCNC(N)=O)C(O)=O
INCHI=InChI=1S/C7H15N3O3/c8-5(6(11)12)3-1-2-4-10-7(9)13/h5H,1-4,8H2,(H,11,12)(H3,9,10,13)/t5-/m0/s1
INCHIAUX=N/A
PUBMED=N/A
SUBMITUSER=mwang87
TAGS=
LIBRARYQUALITY=3
SPECTRUMID=CCMSLIB00000426439
SCANS=1411
41.393 8.778 
42.447 5.469 
END IONS

BEGIN IONS
PEPMASS=138.092
CHARGE=1+
MSLEVEL=2
SOURCE_INSTRUMENT=Positive-Quattro_QQQ:40eV
FILENAME=hmdb_intermediate.mgf
SEQ=*..*
IONMODE=Positive
ORGANISM=HMDB
NAME=HMDB:HMDB00306-524 Tyramine M+H
PI=HMDB
DATACOLLECTOR=HMDB
SMILES=NCCC1=CC=C(O)C=C1
INCHI=InChI=1S/C8H11NO/c9-6-5-7-1-3-8(10)4-2-7/h1-4,10H,5-6,9H2
INCHIAUX=N/A
PUBMED=N/A
SUBMITUSER=mwang87
TAGS=
LIBRARYQUALITY=3
SPECTRUMID=CCMSLIB00000426441
SCANS=1413
51.223 27.558 
END IONS

BEGIN IONS
PEPMASS=73.0653
CHARGE=1+
MSLEVEL=2
SOURCE_INSTRUMENT=Positive-Quattro_QQQ:40eV
FILENAME=hmdb_intermediate.mgf
SEQ=*..*
IONMODE=Positive
ORGANISM=HMDB
NAME=HMDB:HMDB03543-2324 Butanal M+H
PI=HMDB
DATACOLLECTOR=HMDB
SMILES=CCCC=O
INCHI=InChI=1S/C4H8O/c1-2-3-4-5/h4H,2-3H2,1H3
INCHIAUX=N/A
PUBMED=N/A
SUBMITUSER=mwang87
TAGS=
LIBRARYQUALITY=3
SPECTRUMID=CCMSLIB00000426444
SCANS=1416
31.0 54.466 
39.0 28.0 
43.0 100.0 
END IONS

BEGIN IONS
PEPMASS=142.027
CHARGE=1+
MSLEVEL=2
SOURCE_INSTRUMENT=Positive-Quattro_QQQ:10eV
FILENAME=hmdb_intermediate.mgf
SEQ=*..*
IONMODE=Positive
ORGANISM=HMDB
NAME=HMDB:HMDB00224-370 O-Phosphoethanolamine M+H
PI=HMDB
DATACOLLECTOR=HMDB
SMILES=NCCOP(O)(O)=O
INCHI=InChI=1S/C2H8NO4P/c3-1-2-7-8(4,5)6/h1-3H2,(H2,4,5,6)
INCHIAUX=N/A
PUBMED=N/A
SUBMITUSER=mwang87
TAGS=
LIBRARYQUALITY=3
SPECTRUMID=CCMSLIB00000426447
SCANS=1419
44.628 100.0 
END IONS

BEGIN IONS
PEPMASS=117.019
CHARGE=1+
MSLEVEL=2
SOURCE_INSTRUMENT=Negative-Quattro_QQQ:40eV
FILENAME=hmdb_intermediate.mgf
SEQ=*..*
IONMODE=Negative
ORGANISM=HMDB
NAME=HMDB:HMDB00254-441 Succinic acid M-H
PI=HMDB
DATACOLLECTOR=HMDB
SMILES=OC(=O)CCC(O)=O
INCHI=InChI=1S/C4H6O4/c5-3(6)1-2-4(7)8/h1-2H2,(H,5,6)(H,7,8)
INCHIAUX=N/A
PUBMED=N/A
SUBMITUSER=mwang87
TAGS=
LIBRARYQUALITY=3
SPECTRUMID=CCMSLIB00000426448
SCANS=1420
45.23 8.575 
END IONS

BEGIN IONS
PEPMASS=174.088
CHARGE=1+
MSLEVEL=2
SOURCE_INSTRUMENT=Positive-Quattro_QQQ:40eV
FILENAME=hmdb_intermediate.mgf
SEQ=*..*
IONMODE=Positive
ORGANISM=HMDB
NAME=HMDB:HMDB04225-2375 2-Oxoarginine M+H
PI=HMDB
DATACOLLECTOR=HMDB
SMILES=NC(N)=NCCCC(=O)C(O)=O
INCHI=InChI=1S/C6H11N3O3/c7-6(8)9-3-1-2-4(10)5(11)12/h1-3H2,(H,11,12)(H4,7,8,9)
INCHIAUX=N/A
PUBMED=N/A
SUBMITUSER=mwang87
TAGS=
LIBRARYQUALITY=3
SPECTRUMID=CCMSLIB00000426449
SCANS=1421
41.38 20.614 
41.78 33.383 
42.73 25.853 
51.25 33.626 
52.09 20.307 
END IONS

BEGIN IONS
PEPMASS=181.073
CHARGE=1+
MSLEVEL=2
SOURCE_INSTRUMENT=Positive-Quattro_QQQ:40eV
FILENAME=hmdb_intermediate.mgf
SEQ=*..*
IONMODE=Positive
ORGANISM=HMDB
NAME=HMDB:HMDB01860-1737 Paraxanthine M+H
PI=HMDB
DATACOLLECTOR=HMDB
SMILES=CN1C=NC2=C1C(=O)N(C)C(=O)N2
INCHI=InChI=1S/C7H8N4O2/c1-10-3-8-5-4(10)6(12)11(2)7(13)9-5/h3H,1-2H3,(H,9,13)
INCHIAUX=N/A
PUBMED=N/A
SUBMITUSER=mwang87
TAGS=
LIBRARYQUALITY=3
SPECTRUMID=CCMSLIB00000426452
SCANS=1424
42.379 100.0 
42.628 78.909 
END IONS

BEGIN IONS
PEPMASS=255.232
CHARGE=1+
MSLEVEL=2
SOURCE_INSTRUMENT=Negative-Quattro_QQQ:25eV
FILENAME=hmdb_intermediate.mgf
SEQ=*..*
IONMODE=Negative
ORGANISM=HMDB
NAME=HMDB:HMDB00220-359 Palmitic acid M-H
PI=HMDB
DATACOLLECTOR=HMDB
SMILES=CCCCCCCCCCCCCCCC(O)=O
INCHI=InChI=1S/C16H32O2/c1-2-3-4-5-6-7-8-9-10-11-12-13-14-15-16(17)18/h2-15H2,1H3,(H,17,18)
INCHIAUX=N/A
PUBMED=N/A
SUBMITUSER=mwang87
TAGS=
LIBRARYQUALITY=3
SPECTRUMID=CCMSLIB00000426456
SCANS=1428
45.313 4.384 
END IONS

BEGIN IONS
PEPMASS=132.102
CHARGE=1+
MSLEVEL=2
SOURCE_INSTRUMENT=Positive-Quattro_QQQ:25eV
FILENAME=hmdb_intermediate.mgf
SEQ=*..*
IONMODE=Positive
ORGANISM=HMDB
NAME=HMDB:HMDB00687-952 L-Leucine M+H
PI=HMDB
DATACOLLECTOR=HMDB
SMILES=CC(C)C[C@H](N)C(O)=O
INCHI=InChI=1S/C6H13NO2/c1-4(2)3-5(7)6(8)9/h4-5H,3,7H2,1-2H3,(H,8,9)/t5-/m0/s1
INCHIAUX=N/A
PUBMED=N/A
SUBMITUSER=mwang87
TAGS=
LIBRARYQUALITY=3
SPECTRUMID=CCMSLIB00000426459
SCANS=1431
41.344 14.78 
43.35 100.0 
44.395 65.409 
END IONS

BEGIN IONS
PEPMASS=164.038
CHARGE=1+
MSLEVEL=2
SOURCE_INSTRUMENT=Positive-Quattro_QQQ:40eV
FILENAME=hmdb_intermediate.mgf
SEQ=*..*
IONMODE=Positive
ORGANISM=HMDB
NAME=HMDB:HMDB01890-1797 Acetylcysteine M+H
PI=HMDB
DATACOLLECTOR=HMDB
SMILES=CC(=O)N[C@@H](CS)C(O)=O
INCHI=InChI=1S/C5H9NO3S/c1-3(7)6-4(2-10)5(8)9/h4,10H,2H2,1H3,(H,6,7)(H,8,9)/t4-/m0/s1
INCHIAUX=N/A
PUBMED=N/A
SUBMITUSER=mwang87
TAGS=
LIBRARYQUALITY=3
SPECTRUMID=CCMSLIB00000426461
SCANS=1433
43.262 92.308 
END IONS

BEGIN IONS
PEPMASS=106.05
CHARGE=1+
MSLEVEL=2
SOURCE_INSTRUMENT=Positive-Quattro_QQQ:40eV
FILENAME=hmdb_intermediate.mgf
SEQ=*..*
IONMODE=Positive
ORGANISM=HMDB
NAME=HMDB:HMDB00187-297 L-Serine M+H
PI=HMDB
DATACOLLECTOR=HMDB
SMILES=N[C@@H](CO)C(O)=O
INCHI=InChI=1S/C3H7NO3/c4-2(1-5)3(6)7/h2,5H,1,4H2,(H,6,7)/t2-/m0/s1
INCHIAUX=N/A
PUBMED=N/A
SUBMITUSER=mwang87
TAGS=
LIBRARYQUALITY=3
SPECTRUMID=CCMSLIB00000426464
SCANS=1436
42.246 100.0 
43.4 39.341 
45.172 19.38 
END IONS

BEGIN IONS
PEPMASS=345.14
CHARGE=1+
MSLEVEL=2
SOURCE_INSTRUMENT=Positive-Quattro_QQQ:40eV
FILENAME=hmdb_intermediate.mgf
SEQ=*..*
IONMODE=Positive
ORGANISM=HMDB
NAME=HMDB:HMDB02928-2172 Maltitol M+H
PI=HMDB
DATACOLLECTOR=HMDB
SMILES=[H][C@@](O[C@H]1O[C@H](CO)[C@@H](O)[C@H](O)[C@H]1O)([C@H](O)CO)[C@H](O)[C@@H](O)CO
INCHI=InChI=1S/C12H24O11/c13-1-4(16)7(18)11(5(17)2-14)23-12-10(21)9(20)8(19)6(3-15)22-12/h4-21H,1-3H2/t4-,5+,6+,7+,8+,9-,10+,11+,12+/m0/s1
INCHIAUX=N/A
PUBMED=N/A
SUBMITUSER=mwang87
TAGS=
LIBRARYQUALITY=3
SPECTRUMID=CCMSLIB00000426469
SCANS=1441
41.0 5.199 
43.0 16.715 
45.0 11.425 
END IONS

BEGIN IONS
PEPMASS=132.066
CHARGE=1+
MSLEVEL=2
SOURCE_INSTRUMENT=Positive-Quattro_QQQ:25eV
FILENAME=hmdb_intermediate.mgf
SEQ=*..*
IONMODE=Positive
ORGANISM=HMDB
NAME=HMDB:HMDB01149-1434 5-Aminolevulinic acid M+H
PI=HMDB
DATACOLLECTOR=HMDB
SMILES=NCC(=O)CCC(O)=O
INCHI=InChI=1S/C5H9NO3/c6-3-4(7)1-2-5(8)9/h1-3,6H2,(H,8,9)
INCHIAUX=N/A
PUBMED=N/A
SUBMITUSER=mwang87
TAGS=
LIBRARYQUALITY=3
SPECTRUMID=CCMSLIB00000426470
SCANS=1442
53.032 16.14 
END IONS

BEGIN IONS
PEPMASS=153.019
CHARGE=1+
MSLEVEL=2
SOURCE_INSTRUMENT=Negative-Quattro_QQQ:40eV
FILENAME=hmdb_intermediate.mgf
SEQ=*..*
IONMODE=Negative
ORGANISM=HMDB
NAME=HMDB:HMDB00152-235 Gentisic acid M-H
PI=HMDB
DATACOLLECTOR=HMDB
SMILES=OC(=O)C1=CC(O)=CC=C1O
INCHI=InChI=1S/C7H6O4/c8-4-1-2-6(9)5(3-4)7(10)11/h1-3,8-9H,(H,10,11)
INCHIAUX=N/A
PUBMED=N/A
SUBMITUSER=mwang87
TAGS=
LIBRARYQUALITY=3
SPECTRUMID=CCMSLIB00000426480
SCANS=1452
41.32 1.744 
53.229 8.243 
END IONS

BEGIN IONS
PEPMASS=103.076
CHARGE=1+
MSLEVEL=2
SOURCE_INSTRUMENT=Positive-Quattro_QQQ:40eV
FILENAME=hmdb_intermediate.mgf
SEQ=*..*
IONMODE=Positive
ORGANISM=HMDB
NAME=HMDB:HMDB00892-1255 Valeric acid M+H
PI=HMDB
DATACOLLECTOR=HMDB
SMILES=CCCCC(O)=O
INCHI=InChI=1S/C5H10O2/c1-2-3-4-5(6)7/h2-4H2,1H3,(H,6,7)
INCHIAUX=N/A
PUBMED=N/A
SUBMITUSER=mwang87
TAGS=
LIBRARYQUALITY=3
SPECTRUMID=CCMSLIB00000426483
SCANS=1455
40.0 66.007 
41.0 100.0 
42.0 87.304 
43.0 96.963 
44.0 70.449 
45.0 61.477 
END IONS

BEGIN IONS
PEPMASS=133.014
CHARGE=1+
MSLEVEL=2
SOURCE_INSTRUMENT=Negative-Quattro_QQQ:40eV
FILENAME=hmdb_intermediate.mgf
SEQ=*..*
IONMODE=Negative
ORGANISM=HMDB
NAME=HMDB:HMDB00744-1058 Malic acid M-H
PI=HMDB
DATACOLLECTOR=HMDB
SMILES=OC(CC(O)=O)C(O)=O
INCHI=InChI=1S/C4H6O5/c5-2(4(8)9)1-3(6)7/h2,5H,1H2,(H,6,7)(H,8,9)
INCHIAUX=N/A
PUBMED=N/A
SUBMITUSER=mwang87
TAGS=
LIBRARYQUALITY=3
SPECTRUMID=CCMSLIB00000426485
SCANS=1457
41.348 29.342 
43.298 77.895 
45.24 41.053 
END IONS

BEGIN IONS
PEPMASS=159.139
CHARGE=1+
MSLEVEL=2
SOURCE_INSTRUMENT=Positive-Quattro_QQQ:25eV
FILENAME=hmdb_intermediate.mgf
SEQ=*..*
IONMODE=Positive
ORGANISM=HMDB
NAME=HMDB:HMDB00847-1194 Pelargonic acid M+H
PI=HMDB
DATACOLLECTOR=HMDB
SMILES=CCCCCCCCC(O)=O
INCHI=InChI=1S/C9H18O2/c1-2-3-4-5-6-7-8-9(10)11/h2-8H2,1H3,(H,10,11)
INCHIAUX=N/A
PUBMED=N/A
SUBMITUSER=mwang87
TAGS=
LIBRARYQUALITY=3
SPECTRUMID=CCMSLIB00000426490
SCANS=1462
41.0 30.92 
43.0 100.0 
END IONS

BEGIN IONS
PEPMASS=137.133
CHARGE=1+
MSLEVEL=2
SOURCE_INSTRUMENT=Positive-Quattro_QQQ:25eV
FILENAME=hmdb_intermediate.mgf
SEQ=*..*
IONMODE=Positive
ORGANISM=HMDB
NAME=HMDB:HMDB03375-2275 D-Limonene M+H
PI=HMDB
DATACOLLECTOR=HMDB
SMILES=CC(=C)[C@H]1CCC(C)=CC1
INCHI=InChI=1S/C10H16/c1-8(2)10-6-4-9(3)5-7-10/h4,10H,1,5-7H2,2-3H3/t10-/m1/s1
INCHIAUX=N/A
PUBMED=N/A
SUBMITUSER=mwang87
TAGS=
LIBRARYQUALITY=3
SPECTRUMID=CCMSLIB00000426493
SCANS=1465
40.0 50.798 
41.0 75.163 
42.0 64.497 
43.0 45.95 
END IONS

BEGIN IONS
PEPMASS=159.102
CHARGE=1+
MSLEVEL=2
SOURCE_INSTRUMENT=Negative-Quattro_QQQ:40eV
FILENAME=hmdb_intermediate.mgf
SEQ=*..*
IONMODE=Negative
ORGANISM=HMDB
NAME=HMDB:HMDB00711-995 Hydroxyoctanoic acid M-H
PI=HMDB
DATACOLLECTOR=HMDB
SMILES=CCCCCCC(O)C(O)=O
INCHI=InChI=1S/C8H16O3/c1-2-3-4-5-6-7(9)8(10)11/h7,9H,2-6H2,1H3,(H,10,11)
INCHIAUX=N/A
PUBMED=N/A
SUBMITUSER=mwang87
TAGS=
LIBRARYQUALITY=3
SPECTRUMID=CCMSLIB00000426494
SCANS=1466
35.757 2.385 
43.624 2.714 
45.525 100.0 
END IONS

BEGIN IONS
PEPMASS=137.133
CHARGE=1+
MSLEVEL=2
SOURCE_INSTRUMENT=Positive-Quattro_QQQ:25eV
FILENAME=hmdb_intermediate.mgf
SEQ=*..*
IONMODE=Positive
ORGANISM=HMDB
NAME=HMDB:HMDB05806-2452 Gamma-terpinene M+H
PI=HMDB
DATACOLLECTOR=HMDB
SMILES=CC(C)C1=CCC(C)=CC1
INCHI=InChI=1S/C10H16/c1-8(2)10-6-4-9(3)5-7-10/h4,7-8H,5-6H2,1-3H3
INCHIAUX=N/A
PUBMED=N/A
SUBMITUSER=mwang87
TAGS=
LIBRARYQUALITY=3
SPECTRUMID=CCMSLIB00000426496
SCANS=1468
41.27 62.435 
END IONS

BEGIN IONS
PEPMASS=103.124
CHARGE=1+
MSLEVEL=2
SOURCE_INSTRUMENT=Positive-Quattro_QQQ:40eV
FILENAME=hmdb_intermediate.mgf
SEQ=*..*
IONMODE=Positive
ORGANISM=HMDB
NAME=HMDB:HMDB02322-2057 Cadaverine M+H
PI=HMDB
DATACOLLECTOR=HMDB
SMILES=NCCCCCN
INCHI=InChI=1S/C5H14N2/c6-4-2-1-3-5-7/h1-7H2
INCHIAUX=N/A
PUBMED=N/A
SUBMITUSER=mwang87
TAGS=
LIBRARYQUALITY=3
SPECTRUMID=CCMSLIB00000426497
SCANS=1469
31.0 5.208 
39.0 39.472 
41.0 100.0 
43.0 7.081 
44.0 8.921 
END IONS

BEGIN IONS
PEPMASS=115.112
CHARGE=1+
MSLEVEL=2
SOURCE_INSTRUMENT=Positive-Quattro_QQQ:25eV
FILENAME=hmdb_intermediate.mgf
SEQ=*..*
IONMODE=Positive
ORGANISM=HMDB
NAME=HMDB:HMDB04814-2407 4-Heptanone M+H
PI=HMDB
DATACOLLECTOR=HMDB
SMILES=CCCC(=O)CCC
INCHI=InChI=1S/C7H14O/c1-3-5-7(8)6-4-2/h3-6H2,1-2H3
INCHIAUX=N/A
PUBMED=N/A
SUBMITUSER=mwang87
TAGS=
LIBRARYQUALITY=3
SPECTRUMID=CCMSLIB00000426499
SCANS=1471
29.32 35.069 
31.26 40.481 
41.21 24.42 
43.21 20.645 
END IONS

BEGIN IONS
PEPMASS=61.029
CHARGE=1+
MSLEVEL=2
SOURCE_INSTRUMENT=Positive-Quattro_QQQ:40eV
FILENAME=hmdb_intermediate.mgf
SEQ=*..*
IONMODE=Positive
ORGANISM=HMDB
NAME=HMDB:HMDB00042-71 Acetic acid M+H
PI=HMDB
DATACOLLECTOR=HMDB
SMILES=CC(O)=O
INCHI=InChI=1S/C2H4O2/c1-2(3)4/h1H3,(H,3,4)
INCHIAUX=N/A
PUBMED=N/A
SUBMITUSER=mwang87
TAGS=
LIBRARYQUALITY=3
SPECTRUMID=CCMSLIB00000426500
SCANS=1472
34.694 15.097 
43.412 39.338 
44.284 100.0 
44.658 55.854 
46.153 16.032 
END IONS

BEGIN IONS
PEPMASS=81.9725
CHARGE=1+
MSLEVEL=2
SOURCE_INSTRUMENT=Positive-Quattro_QQQ:10eV
FILENAME=hmdb_intermediate.mgf
SEQ=*..*
IONMODE=Positive
ORGANISM=HMDB
NAME=HMDB:HMDB01033-1393 Hydrogen sulfite M+H
PI=HMDB
DATACOLLECTOR=HMDB
SMILES=OS([O-])=O
INCHI=InChI=1S/H2O3S/c1-4(2)3/h(H2,1,2,3)/p-1
INCHIAUX=N/A
PUBMED=N/A
SUBMITUSER=mwang87
TAGS=
LIBRARYQUALITY=3
SPECTRUMID=CCMSLIB00000426503
SCANS=1475
40.0 9.009 
41.0 26.09 
42.0 18.232 
52.0 8.407 
53.0 7.434 
END IONS

BEGIN IONS
PEPMASS=104.071
CHARGE=1+
MSLEVEL=2
SOURCE_INSTRUMENT=Positive-Quattro_QQQ:40eV
FILENAME=hmdb_intermediate.mgf
SEQ=*..*
IONMODE=Positive
ORGANISM=HMDB
NAME=HMDB:HMDB00650-887 D-Alpha-aminobutyric acid M+H
PI=HMDB
DATACOLLECTOR=HMDB
SMILES=CC[C@@H](N)C(O)=O
INCHI=InChI=1S/C4H9NO2/c1-2-3(5)4(6)7/h3H,2,5H2,1H3,(H,6,7)/t3-/m1/s1
INCHIAUX=N/A
PUBMED=N/A
SUBMITUSER=mwang87
TAGS=
LIBRARYQUALITY=3
SPECTRUMID=CCMSLIB00000426505
SCANS=1477
41.3 50.794 
43.159 100.0 
44.408 18.783 
45.243 38.624 
END IONS

BEGIN IONS
PEPMASS=61.029
CHARGE=1+
MSLEVEL=2
SOURCE_INSTRUMENT=Positive-Quattro_QQQ:10eV
FILENAME=hmdb_intermediate.mgf
SEQ=*..*
IONMODE=Positive
ORGANISM=HMDB
NAME=HMDB:HMDB00042-69 Acetic acid M+H
PI=HMDB
DATACOLLECTOR=HMDB
SMILES=CC(O)=O
INCHI=InChI=1S/C2H4O2/c1-2(3)4/h1H3,(H,3,4)
INCHIAUX=N/A
PUBMED=N/A
SUBMITUSER=mwang87
TAGS=
LIBRARYQUALITY=3
SPECTRUMID=CCMSLIB00000426506
SCANS=1478
43.163 21.947 
44.409 34.026 
44.782 17.807 
END IONS

BEGIN IONS
PEPMASS=62.0606
CHARGE=1+
MSLEVEL=2
SOURCE_INSTRUMENT=Positive-Quattro_QQQ:40eV
FILENAME=hmdb_intermediate.mgf
SEQ=*..*
IONMODE=Positive
ORGANISM=HMDB
NAME=HMDB:HMDB00149-226 Ethanolamine M+H
PI=HMDB
DATACOLLECTOR=HMDB
SMILES=NCCO
INCHI=InChI=1S/C2H7NO/c3-1-2-4/h4H,1-3H2
INCHIAUX=N/A
PUBMED=N/A
SUBMITUSER=mwang87
TAGS=
LIBRARYQUALITY=3
SPECTRUMID=CCMSLIB00000426507
SCANS=1479
27.0 17.157 
29.0 11.578 
43.0 11.886 
44.0 20.419 
45.0 12.084 
END IONS

BEGIN IONS
PEPMASS=93.0552
CHARGE=1+
MSLEVEL=2
SOURCE_INSTRUMENT=Positive-Quattro_QQQ:40eV
FILENAME=hmdb_intermediate.mgf
SEQ=*..*
IONMODE=Positive
ORGANISM=HMDB
NAME=HMDB:HMDB00131-202 Glycerol M+H
PI=HMDB
DATACOLLECTOR=HMDB
SMILES=OCC(O)CO
INCHI=InChI=1S/C3H8O3/c4-1-3(6)2-5/h3-6H,1-2H2
INCHIAUX=N/A
PUBMED=N/A
SUBMITUSER=mwang87
TAGS=
LIBRARYQUALITY=3
SPECTRUMID=CCMSLIB00000426516
SCANS=1488
51.165 89.448 
51.663 93.964 
53.032 100.0 
END IONS

BEGIN IONS
PEPMASS=134.045
CHARGE=1+
MSLEVEL=2
SOURCE_INSTRUMENT=Positive-Quattro_QQQ:25eV
FILENAME=hmdb_intermediate.mgf
SEQ=*..*
IONMODE=Positive
ORGANISM=HMDB
NAME=HMDB:HMDB00191-305 L-Aspartic acid M+H
PI=HMDB
DATACOLLECTOR=HMDB
SMILES=N[C@@H](CC(O)=O)C(O)=O
INCHI=InChI=1S/C4H7NO4/c5-2(4(8)9)1-3(6)7/h2H,1,5H2,(H,6,7)(H,8,9)/t2-/m0/s1
INCHIAUX=N/A
PUBMED=N/A
SUBMITUSER=mwang87
TAGS=
LIBRARYQUALITY=3
SPECTRUMID=CCMSLIB00000426522
SCANS=1494
43.264 30.288 
46.237 27.404 
END IONS

BEGIN IONS
PEPMASS=149.009
CHARGE=1+
MSLEVEL=2
SOURCE_INSTRUMENT=Negative-Quattro_QQQ:10eV
FILENAME=hmdb_intermediate.mgf
SEQ=*..*
IONMODE=Negative
ORGANISM=HMDB
NAME=HMDB:HMDB00956-1354 Tartaric acid M-H
PI=HMDB
DATACOLLECTOR=HMDB
SMILES=O[C@H]([C@@H](O)C(O)=O)C(O)=O
INCHI=InChI=1S/C4H6O6/c5-1(3(7)8)2(6)4(9)10/h1-2,5-6H,(H,7,8)(H,9,10)/t1-,2-/m1/s1
INCHIAUX=N/A
PUBMED=N/A
SUBMITUSER=mwang87
TAGS=
LIBRARYQUALITY=3
SPECTRUMID=CCMSLIB00000426527
SCANS=1499
43.629 8.416 
END IONS

BEGIN IONS
PEPMASS=177.103
CHARGE=1+
MSLEVEL=2
SOURCE_INSTRUMENT=Positive-Quattro_QQQ:25eV
FILENAME=hmdb_intermediate.mgf
SEQ=*..*
IONMODE=Positive
ORGANISM=HMDB
NAME=HMDB:HMDB01046-1398 Cotinine M+H
PI=HMDB
DATACOLLECTOR=HMDB
SMILES=CN1C(CCC1=O)C1=CN=CC=C1
INCHI=InChI=1S/C10H12N2O/c1-12-9(4-5-10(12)13)8-3-2-6-11-7-8/h2-3,6-7,9H,4-5H2,1H3
INCHIAUX=N/A
PUBMED=N/A
SUBMITUSER=mwang87
TAGS=
LIBRARYQUALITY=3
SPECTRUMID=CCMSLIB00000426528
SCANS=1500
41.0 2.883 
END IONS

BEGIN IONS
PEPMASS=253.094
CHARGE=1+
MSLEVEL=2
SOURCE_INSTRUMENT=Positive-Quattro_QQQ:25eV
FILENAME=hmdb_intermediate.mgf
SEQ=*..*
IONMODE=Positive
ORGANISM=HMDB
NAME=HMDB:HMDB00071-115 Deoxyinosine M+H
PI=HMDB
DATACOLLECTOR=HMDB
SMILES=OC[C@H]1O[C@H](C[C@@H]1O)N1C=NC2=C1N=CN=C2O
INCHI=InChI=1S/C10H12N4O4/c15-2-6-5(16)1-7(18-6)14-4-13-8-9(14)11-3-12-10(8)17/h3-7,15-16H,1-2H2,(H,11,12,17)/t5-,6+,7+/m0/s1
INCHIAUX=N/A
PUBMED=N/A
SUBMITUSER=mwang87
TAGS=
LIBRARYQUALITY=3
SPECTRUMID=CCMSLIB00000426530
SCANS=1502
43.626 2.834 
END IONS

BEGIN IONS
PEPMASS=111.008
CHARGE=1+
MSLEVEL=2
SOURCE_INSTRUMENT=Negative-Quattro_QQQ:40eV
FILENAME=hmdb_intermediate.mgf
SEQ=*..*
IONMODE=Negative
ORGANISM=HMDB
NAME=HMDB:HMDB00617-833 2-Furoic acid M-H
PI=HMDB
DATACOLLECTOR=HMDB
SMILES=OC(=O)C1=CC=CO1
INCHI=InChI=1S/C5H4O3/c6-5(7)4-2-1-3-8-4/h1-3H,(H,6,7)
INCHIAUX=N/A
PUBMED=N/A
SUBMITUSER=mwang87
TAGS=
LIBRARYQUALITY=3
SPECTRUMID=CCMSLIB00000426533
SCANS=1505
41.243 70.085 
49.163 96.581 
END IONS

BEGIN IONS
PEPMASS=159.102
CHARGE=1+
MSLEVEL=2
SOURCE_INSTRUMENT=Negative-Quattro_QQQ:10eV
FILENAME=hmdb_intermediate.mgf
SEQ=*..*
IONMODE=Negative
ORGANISM=HMDB
NAME=HMDB:HMDB00711-993 Hydroxyoctanoic acid M-H
PI=HMDB
DATACOLLECTOR=HMDB
SMILES=CCCCCCC(O)C(O)=O
INCHI=InChI=1S/C8H16O3/c1-2-3-4-5-6-7(9)8(10)11/h7,9H,2-6H2,1H3,(H,10,11)
INCHIAUX=N/A
PUBMED=N/A
SUBMITUSER=mwang87
TAGS=
LIBRARYQUALITY=3
SPECTRUMID=CCMSLIB00000426534
SCANS=1506
45.595 6.291 
END IONS

BEGIN IONS
PEPMASS=59.0497
CHARGE=1+
MSLEVEL=2
SOURCE_INSTRUMENT=Positive-Quattro_QQQ:40eV
FILENAME=hmdb_intermediate.mgf
SEQ=*..*
IONMODE=Positive
ORGANISM=HMDB
NAME=HMDB:HMDB03366-2273 Propanal M+H
PI=HMDB
DATACOLLECTOR=HMDB
SMILES=CCC=O
INCHI=InChI=1S/C3H6O/c1-2-3-4/h3H,2H2,1H3
INCHIAUX=N/A
PUBMED=N/A
SUBMITUSER=mwang87
TAGS=
LIBRARYQUALITY=3
SPECTRUMID=CCMSLIB00000426540
SCANS=1512
15.0 64.878 
28.0 39.519 
29.0 58.402 
30.0 46.549 
31.0 65.432 
41.0 44.336 
42.0 78.356 
43.0 66.798 
END IONS

BEGIN IONS
PEPMASS=115.076
CHARGE=1+
MSLEVEL=2
SOURCE_INSTRUMENT=Positive-Quattro_QQQ:25eV
FILENAME=hmdb_intermediate.mgf
SEQ=*..*
IONMODE=Positive
ORGANISM=HMDB
NAME=HMDB:HMDB03843-2347 Gamma-Caprolactone M+H
PI=HMDB
DATACOLLECTOR=HMDB
SMILES=CCC1CCC(=O)O1
INCHI=InChI=1S/C6H10O2/c1-2-5-3-4-6(7)8-5/h5H,2-4H2,1H3
INCHIAUX=N/A
PUBMED=N/A
SUBMITUSER=mwang87
TAGS=
LIBRARYQUALITY=3
SPECTRUMID=CCMSLIB00000426541
SCANS=1513
29.44 47.244 
29.5 24.44 
41.2 60.463 
42.35 100.0 
43.35 98.259 
43.57 32.53 
END IONS

BEGIN IONS
PEPMASS=87.081
CHARGE=1+
MSLEVEL=2
SOURCE_INSTRUMENT=Positive-Quattro_QQQ:40eV
FILENAME=hmdb_intermediate.mgf
SEQ=*..*
IONMODE=Positive
ORGANISM=HMDB
NAME=HMDB:HMDB06478-2486 Iso-Valeraldehyde M+H
PI=HMDB
DATACOLLECTOR=HMDB
SMILES=CC(C)CC=O
INCHI=InChI=1S/C5H10O/c1-5(2)3-4-6/h4-5H,3H2,1-2H3
INCHIAUX=N/A
PUBMED=N/A
SUBMITUSER=mwang87
TAGS=
LIBRARYQUALITY=3
SPECTRUMID=CCMSLIB00000426543
SCANS=1515
45.17 12.889 
END IONS

BEGIN IONS
PEPMASS=43.0058
CHARGE=1+
MSLEVEL=2
SOURCE_INSTRUMENT=Positive-Quattro_QQQ:10eV
FILENAME=hmdb_intermediate.mgf
SEQ=*..*
IONMODE=Positive
ORGANISM=HMDB
NAME=HMDB:HMDB02078-1987 Cyanate M+H
PI=HMDB
DATACOLLECTOR=HMDB
SMILES=[O-]C#N
INCHI=InChI=1S/CHNO/c2-1-3/h3H/p-1
INCHIAUX=N/A
PUBMED=N/A
SUBMITUSER=mwang87
TAGS=
LIBRARYQUALITY=3
SPECTRUMID=CCMSLIB00000426544
SCANS=1516
43.0 100.0 
44.0 36.201 
END IONS

BEGIN IONS
PEPMASS=165.055
CHARGE=1+
MSLEVEL=2
SOURCE_INSTRUMENT=Positive-Quattro_QQQ:40eV
FILENAME=hmdb_intermediate.mgf
SEQ=*..*
IONMODE=Positive
ORGANISM=HMDB
NAME=HMDB:HMDB31629-330 Phenylpyruvic acid M+H
PI=HMDB
DATACOLLECTOR=HMDB
SMILES=OC(=O)C(=O)CC1=CC=CC=C1
INCHI=InChI=1S/C9H8O3/c10-8(9(11)12)6-7-4-2-1-3-5-7/h1-5H,6H2,(H,11,12)
INCHIAUX=N/A
PUBMED=N/A
SUBMITUSER=mwang87
TAGS=
LIBRARYQUALITY=3
SPECTRUMID=CCMSLIB00000426553
SCANS=1525
51.0 22.122 
END IONS

BEGIN IONS
PEPMASS=111.045
CHARGE=1+
MSLEVEL=2
SOURCE_INSTRUMENT=Positive-Quattro_QQQ:40eV
FILENAME=hmdb_intermediate.mgf
SEQ=*..*
IONMODE=Positive
ORGANISM=HMDB
NAME=HMDB:HMDB00957-1359 Pyrocatechol M+H
PI=HMDB
DATACOLLECTOR=HMDB
SMILES=OC1=CC=CC=C1O
INCHI=InChI=1S/C6H6O2/c7-5-3-1-2-4-6(5)8/h1-4,7-8H
INCHIAUX=N/A
PUBMED=N/A
SUBMITUSER=mwang87
TAGS=
LIBRARYQUALITY=3
SPECTRUMID=CCMSLIB00000426559
SCANS=1531
53.207 7.0 
END IONS

BEGIN IONS
PEPMASS=289.217
CHARGE=1+
MSLEVEL=2
SOURCE_INSTRUMENT=Positive-Quattro_QQQ:40eV
FILENAME=hmdb_intermediate.mgf
SEQ=*..*
IONMODE=Positive
ORGANISM=HMDB
NAME=HMDB:HMDB00077-128 Dehydroepiandrosterone M+H
PI=HMDB
DATACOLLECTOR=HMDB
SMILES=C[C@]12CCC3C(CC=C4C[C@@H](O)CC[C@]34C)C1CCC2=O
INCHI=InChI=1S/C19H28O2/c1-18-9-7-13(20)11-12(18)3-4-14-15-5-6-17(21)19(15,2)10-8-16(14)18/h3,13-16,20H,4-11H2,1-2H3/t13-,14?,15?,16?,18-,19-/m0/s1
INCHIAUX=N/A
PUBMED=N/A
SUBMITUSER=mwang87
TAGS=
LIBRARYQUALITY=3
SPECTRUMID=CCMSLIB00000426561
SCANS=1533
43.326 11.688 
END IONS

BEGIN IONS
PEPMASS=103.003
CHARGE=1+
MSLEVEL=2
SOURCE_INSTRUMENT=Negative-Quattro_QQQ:40eV
FILENAME=hmdb_intermediate.mgf
SEQ=*..*
IONMODE=Negative
ORGANISM=HMDB
NAME=HMDB:HMDB00691-960 Malonic acid M-H
PI=HMDB
DATACOLLECTOR=HMDB
SMILES=OC(=O)CC(O)=O
INCHI=InChI=1S/C3H4O4/c4-2(5)1-3(6)7/h1H2,(H,4,5)(H,6,7)
INCHIAUX=N/A
PUBMED=N/A
SUBMITUSER=mwang87
TAGS=
LIBRARYQUALITY=3
SPECTRUMID=CCMSLIB00000426564
SCANS=1536
41.594 100.0 
END IONS

BEGIN IONS
PEPMASS=160.134
CHARGE=1+
MSLEVEL=2
SOURCE_INSTRUMENT=Positive-Quattro_QQQ:25eV
FILENAME=hmdb_intermediate.mgf
SEQ=*..*
IONMODE=Positive
ORGANISM=HMDB
NAME=HMDB:HMDB00991-1382 DL-2-Aminooctanoic acid M+H
PI=HMDB
DATACOLLECTOR=HMDB
SMILES=CCCCCCC(N)C(O)=O
INCHI=InChI=1S/C8H17NO2/c1-2-3-4-5-6-7(9)8(10)11/h7H,2-6,9H2,1H3,(H,10,11)
INCHIAUX=N/A
PUBMED=N/A
SUBMITUSER=mwang87
TAGS=
LIBRARYQUALITY=3
SPECTRUMID=CCMSLIB00000426567
SCANS=1539
41.381 3.998 
43.379 36.025 
44.488 3.494 
END IONS

BEGIN IONS
PEPMASS=281.114
CHARGE=1+
MSLEVEL=2
SOURCE_INSTRUMENT=Positive-Quattro_QQQ:40eV
FILENAME=hmdb_intermediate.mgf
SEQ=*..*
IONMODE=Positive
ORGANISM=HMDB
NAME=HMDB:HMDB00706-989 L-Aspartyl-L-phenylalanine M+H
PI=HMDB
DATACOLLECTOR=HMDB
SMILES=N[C@@H](CC(O)=O)C(=O)N[C@@H](CC1=CC=CC=C1)C(O)=O
INCHI=InChI=1S/C13H16N2O5/c14-9(7-11(16)17)12(18)15-10(13(19)20)6-8-4-2-1-3-5-8/h1-5,9-10H,6-7,14H2,(H,15,18)(H,16,17)(H,19,20)/t9-,10-/m0/s1
INCHIAUX=N/A
PUBMED=N/A
SUBMITUSER=mwang87
TAGS=
LIBRARYQUALITY=3
SPECTRUMID=CCMSLIB00000426571
SCANS=1543
43.326 11.607 
END IONS

BEGIN IONS
PEPMASS=132.102
CHARGE=1+
MSLEVEL=2
SOURCE_INSTRUMENT=Positive-Quattro_QQQ:40eV
FILENAME=hmdb_intermediate.mgf
SEQ=*..*
IONMODE=Positive
ORGANISM=HMDB
NAME=HMDB:HMDB00172-273 L-Isoleucine M+H
PI=HMDB
DATACOLLECTOR=HMDB
SMILES=CC[C@H](C)[C@H](N)C(O)=O
INCHI=InChI=1S/C6H13NO2/c1-3-4(2)5(7)6(8)9/h4-5H,3,7H2,1-2H3,(H,8,9)/t4-,5-/m0/s1
INCHIAUX=N/A
PUBMED=N/A
SUBMITUSER=mwang87
TAGS=
LIBRARYQUALITY=3
SPECTRUMID=CCMSLIB00000426572
SCANS=1544
41.305 100.0 
44.161 64.873 
45.378 17.722 
END IONS

BEGIN IONS
PEPMASS=316.249
CHARGE=1+
MSLEVEL=2
SOURCE_INSTRUMENT=Positive-Quattro_QQQ:40eV
FILENAME=hmdb_intermediate.mgf
SEQ=*..*
IONMODE=Positive
ORGANISM=HMDB
NAME=HMDB:HMDB00651-890 Decanoylcarnitine M+H
PI=HMDB
DATACOLLECTOR=HMDB
SMILES=CCCCCCCCCC(=O)OC(CC([O-])=O)C[N+](C)(C)C
INCHI=InChI=1S/C17H33NO4/c1-5-6-7-8-9-10-11-12-17(21)22-15(13-16(19)20)14-18(2,3)4/h15H,5-14H2,1-4H3
INCHIAUX=N/A
PUBMED=N/A
SUBMITUSER=mwang87
TAGS=
LIBRARYQUALITY=3
SPECTRUMID=CCMSLIB00000426575
SCANS=1547
43.626 8.036 
END IONS

BEGIN IONS
PEPMASS=268.105
CHARGE=1+
MSLEVEL=2
SOURCE_INSTRUMENT=Positive-Quattro_QQQ:40eV
FILENAME=hmdb_intermediate.mgf
SEQ=*..*
IONMODE=Positive
ORGANISM=HMDB
NAME=HMDB:HMDB00085-137 Deoxyguanosine M+H
PI=HMDB
DATACOLLECTOR=HMDB
SMILES=NC1=NC2=C(N=CN2[C@H]2C[C@H](O)[C@@H](CO)O2)C(=O)N1
INCHI=InChI=1S/C10H13N5O4/c11-10-13-8-7(9(18)14-10)12-3-15(8)6-1-4(17)5(2-16)19-6/h3-6,16-17H,1-2H2,(H3,11,13,14,18)/t4-,5+,6+/m0/s1
INCHIAUX=N/A
PUBMED=N/A
SUBMITUSER=mwang87
TAGS=
LIBRARYQUALITY=3
SPECTRUMID=CCMSLIB00000426578
SCANS=1550
43.298 18.328 
45.273 13.176 
END IONS

BEGIN IONS
PEPMASS=89.1079
CHARGE=1+
MSLEVEL=2
SOURCE_INSTRUMENT=Positive-Quattro_QQQ:40eV
FILENAME=hmdb_intermediate.mgf
SEQ=*..*
IONMODE=Positive
ORGANISM=HMDB
NAME=HMDB:HMDB01414-1570 Putrescine M+H
PI=HMDB
DATACOLLECTOR=HMDB
SMILES=NCCCCN
INCHI=InChI=1S/C4H12N2/c5-3-1-2-4-6/h1-6H2
INCHIAUX=N/A
PUBMED=N/A
SUBMITUSER=mwang87
TAGS=
LIBRARYQUALITY=3
SPECTRUMID=CCMSLIB00000426580
SCANS=1552
41.364 13.72 
42.356 27.744 
43.425 14.482 
44.339 28.963 
END IONS

BEGIN IONS
PEPMASS=91.0395
CHARGE=1+
MSLEVEL=2
SOURCE_INSTRUMENT=Positive-Quattro_QQQ:25eV
FILENAME=hmdb_intermediate.mgf
SEQ=*..*
IONMODE=Positive
ORGANISM=HMDB
NAME=HMDB:HMDB01051-1404 Glyceraldehyde M+H
PI=HMDB
DATACOLLECTOR=HMDB
SMILES=OCC(O)C=O
INCHI=InChI=1S/C3H6O3/c4-1-3(6)2-5/h1,3,5-6H,2H2
INCHIAUX=N/A
PUBMED=N/A
SUBMITUSER=mwang87
TAGS=
LIBRARYQUALITY=3
SPECTRUMID=CCMSLIB00000426581
SCANS=1553
42.434 10.222 
43.277 100.0 
45.252 27.119 
END IONS

BEGIN IONS
PEPMASS=153.055
CHARGE=1+
MSLEVEL=2
SOURCE_INSTRUMENT=Positive-Quattro_QQQ:40eV
FILENAME=hmdb_intermediate.mgf
SEQ=*..*
IONMODE=Positive
ORGANISM=HMDB
NAME=HMDB:HMDB01101-1423 p-Anisic acid M+H
PI=HMDB
DATACOLLECTOR=HMDB
SMILES=COC1=CC=C(C=C1)C(O)=O
INCHI=InChI=1S/C8H8O3/c1-11-7-4-2-6(3-5-7)8(9)10/h2-5H,1H3,(H,9,10)
INCHIAUX=N/A
PUBMED=N/A
SUBMITUSER=mwang87
TAGS=
LIBRARYQUALITY=3
SPECTRUMID=CCMSLIB00000426583
SCANS=1555
51.06 52.341 
END IONS

BEGIN IONS
PEPMASS=209.093
CHARGE=1+
MSLEVEL=2
SOURCE_INSTRUMENT=Positive-Quattro_QQQ:25eV
FILENAME=hmdb_intermediate.mgf
SEQ=*..*
IONMODE=Positive
ORGANISM=HMDB
NAME=HMDB:HMDB00684-949 L-Kynurenine M+H
PI=HMDB
DATACOLLECTOR=HMDB
SMILES=N[C@@H](CC(=O)C1=CC=CC=C1N)C(O)=O
INCHI=InChI=1S/C10H12N2O3/c11-7-4-2-1-3-6(7)9(13)5-8(12)10(14)15/h1-4,8H,5,11-12H2,(H,14,15)/t8-/m0/s1
INCHIAUX=N/A
PUBMED=N/A
SUBMITUSER=mwang87
TAGS=
LIBRARYQUALITY=3
SPECTRUMID=CCMSLIB00000426586
SCANS=1558
43.288 6.291 
46.239 7.113 
END IONS

BEGIN IONS
PEPMASS=127.051
CHARGE=1+
MSLEVEL=2
SOURCE_INSTRUMENT=Positive-Quattro_QQQ:40eV
FILENAME=hmdb_intermediate.mgf
SEQ=*..*
IONMODE=Positive
ORGANISM=HMDB
NAME=HMDB:HMDB00262-456 Thymine M+H
PI=HMDB
DATACOLLECTOR=HMDB
SMILES=CC1=CNC(=O)NC1=O
INCHI=InChI=1S/C5H6N2O2/c1-3-2-6-5(9)7-4(3)8/h2H,1H3,(H2,6,7,8,9)
INCHIAUX=N/A
PUBMED=N/A
SUBMITUSER=mwang87
TAGS=
LIBRARYQUALITY=3
SPECTRUMID=CCMSLIB00000426588
SCANS=1560
41.317 4.95 
44.235 42.953 
END IONS

BEGIN IONS
PEPMASS=148.061
CHARGE=1+
MSLEVEL=2
SOURCE_INSTRUMENT=Positive-Quattro_QQQ:40eV
FILENAME=hmdb_intermediate.mgf
SEQ=*..*
IONMODE=Positive
ORGANISM=HMDB
NAME=HMDB:HMDB00148-223 L-Glutamic acid M+H
PI=HMDB
DATACOLLECTOR=HMDB
SMILES=N[C@@H](CCC(O)=O)C(O)=O
INCHI=InChI=1S/C5H9NO4/c6-3(5(9)10)1-2-4(7)8/h3H,1-2,6H2,(H,7,8)(H,9,10)/t3-/m0/s1
INCHIAUX=N/A
PUBMED=N/A
SUBMITUSER=mwang87
TAGS=
LIBRARYQUALITY=3
SPECTRUMID=CCMSLIB00000426591
SCANS=1563
41.309 30.446 
43.283 3.821 
END IONS

BEGIN IONS
PEPMASS=101.06
CHARGE=1+
MSLEVEL=2
SOURCE_INSTRUMENT=Positive-Quattro_QQQ:10eV
FILENAME=hmdb_intermediate.mgf
SEQ=*..*
IONMODE=Positive
ORGANISM=HMDB
NAME=HMDB:HMDB01862-1741 2-Ethylacrylic acid M+H
PI=HMDB
DATACOLLECTOR=HMDB
SMILES=CCC(=C)C(O)=O
INCHI=InChI=1S/C5H8O2/c1-3-4(2)5(6)7/h2-3H2,1H3,(H,6,7)
INCHIAUX=N/A
PUBMED=N/A
SUBMITUSER=mwang87
TAGS=
LIBRARYQUALITY=3
SPECTRUMID=CCMSLIB00000426594
SCANS=1566
42.0 14.284 
43.0 19.986 
44.0 42.158 
45.0 31.197 
END IONS

BEGIN IONS
PEPMASS=197.067
CHARGE=1+
MSLEVEL=2
SOURCE_INSTRUMENT=Positive-Quattro_QQQ:40eV
FILENAME=hmdb_intermediate.mgf
SEQ=*..*
IONMODE=Positive
ORGANISM=HMDB
NAME=HMDB:HMDB01982-1925 3,7-Dimethyluric acid M+H
PI=HMDB
DATACOLLECTOR=HMDB
SMILES=CN1C(=O)NC2=C1C(=O)NC(=O)N2C
INCHI=InChI=1S/C7H8N4O3/c1-10-3-4(8-6(10)13)11(2)7(14)9-5(3)12/h1-2H3,(H,8,13)(H,9,12,14)
INCHIAUX=N/A
PUBMED=N/A
SUBMITUSER=mwang87
TAGS=
LIBRARYQUALITY=3
SPECTRUMID=CCMSLIB00000426595
SCANS=1567
42.0 100.0 
43.0 25.257 
44.0 7.182 
53.0 11.512 
END IONS

BEGIN IONS
PEPMASS=163.04
CHARGE=1+
MSLEVEL=2
SOURCE_INSTRUMENT=Negative-Quattro_QQQ:40eV
FILENAME=hmdb_intermediate.mgf
SEQ=*..*
IONMODE=Negative
ORGANISM=HMDB
NAME=HMDB:HMDB01713-1677 m-Coumaric acid M-H
PI=HMDB
DATACOLLECTOR=HMDB
SMILES=OC(=O)\C=C\C1=CC=CC(O)=C1
INCHI=InChI=1S/C9H8O3/c10-8-3-1-2-7(6-8)4-5-9(11)12/h1-6,10H,(H,11,12)/b5-4+
INCHIAUX=N/A
PUBMED=N/A
SUBMITUSER=mwang87
TAGS=
LIBRARYQUALITY=3
SPECTRUMID=CCMSLIB00000426600
SCANS=1572
41.628 13.47 
51.529 14.978 
END IONS

BEGIN IONS
PEPMASS=157.006
CHARGE=1+
MSLEVEL=2
SOURCE_INSTRUMENT=Positive-Quattro_QQQ:40eV
FILENAME=hmdb_intermediate.mgf
SEQ=*..*
IONMODE=Positive
ORGANISM=HMDB
NAME=HMDB:HMDB01544-1642 m-Chlorobenzoic acid M+H
PI=HMDB
DATACOLLECTOR=HMDB
SMILES=OC(=O)C1=CC(Cl)=CC=C1
INCHI=InChI=1S/C7H5ClO2/c8-6-3-1-2-5(4-6)7(9)10/h1-4H,(H,9,10)
INCHIAUX=N/A
PUBMED=N/A
SUBMITUSER=mwang87
TAGS=
LIBRARYQUALITY=3
SPECTRUMID=CCMSLIB00000426601
SCANS=1573
46.0 9.909 
END IONS

BEGIN IONS
PEPMASS=171.139
CHARGE=1+
MSLEVEL=2
SOURCE_INSTRUMENT=Positive-Quattro_QQQ:25eV
FILENAME=hmdb_intermediate.mgf
SEQ=*..*
IONMODE=Positive
ORGANISM=HMDB
NAME=HMDB:HMDB04980-2416 cis-4-Decenoic acid M+H
PI=HMDB
DATACOLLECTOR=HMDB
SMILES=CCCCC\C=C/CCC(O)=O
INCHI=InChI=1S/C10H18O2/c1-2-3-4-5-6-7-8-9-10(11)12/h6-7H,2-5,8-9H2,1H3,(H,11,12)/b7-6-
INCHIAUX=N/A
PUBMED=N/A
SUBMITUSER=mwang87
TAGS=
LIBRARYQUALITY=3
SPECTRUMID=CCMSLIB00000426606
SCANS=1578
43.0 100.0 
44.0 54.896 
END IONS

BEGIN IONS
PEPMASS=260.186
CHARGE=1+
MSLEVEL=2
SOURCE_INSTRUMENT=Positive-Quattro_QQQ:40eV
FILENAME=hmdb_intermediate.mgf
SEQ=*..*
IONMODE=Positive
ORGANISM=HMDB
NAME=HMDB:HMDB00705-986 Hexanoylcarnitine M+H
PI=HMDB
DATACOLLECTOR=HMDB
SMILES=CCCCCC(=O)OC(CC([O-])=O)C[N+](C)(C)C
INCHI=InChI=1S/C13H25NO4/c1-5-6-7-8-13(17)18-11(9-12(15)16)10-14(2,3)4/h11H,5-10H2,1-4H3
INCHIAUX=N/A
PUBMED=N/A
SUBMITUSER=mwang87
TAGS=
LIBRARYQUALITY=3
SPECTRUMID=CCMSLIB00000426607
SCANS=1579
43.598 17.219 
END IONS

BEGIN IONS
PEPMASS=268.105
CHARGE=1+
MSLEVEL=2
SOURCE_INSTRUMENT=Positive-Quattro_QQQ:25eV
FILENAME=hmdb_intermediate.mgf
SEQ=*..*
IONMODE=Positive
ORGANISM=HMDB
NAME=HMDB:HMDB00085-136 Deoxyguanosine M+H
PI=HMDB
DATACOLLECTOR=HMDB
SMILES=NC1=NC2=C(N=CN2[C@H]2C[C@H](O)[C@@H](CO)O2)C(=O)N1
INCHI=InChI=1S/C10H13N5O4/c11-10-13-8-7(9(18)14-10)12-3-15(8)6-1-4(17)5(2-16)19-6/h3-6,16-17H,1-2H2,(H3,11,13,14,18)/t4-,5+,6+/m0/s1
INCHIAUX=N/A
PUBMED=N/A
SUBMITUSER=mwang87
TAGS=
LIBRARYQUALITY=3
SPECTRUMID=CCMSLIB00000426608
SCANS=1580
43.298 2.38 
END IONS

BEGIN IONS
PEPMASS=157.159
CHARGE=1+
MSLEVEL=2
SOURCE_INSTRUMENT=Positive-Quattro_QQQ:40eV
FILENAME=hmdb_intermediate.mgf
SEQ=*..*
IONMODE=Positive
ORGANISM=HMDB
NAME=HMDB:HMDB03352-2261 Menthol M+H
PI=HMDB
DATACOLLECTOR=HMDB
SMILES=CC(C)[C@@H]1CC[C@@H](C)C[C@H]1O
INCHI=InChI=1S/C10H20O/c1-7(2)9-5-4-8(3)6-10(9)11/h7-11H,4-6H2,1-3H3/t8-,9+,10-/m1/s1
INCHIAUX=N/A
PUBMED=N/A
SUBMITUSER=mwang87
TAGS=
LIBRARYQUALITY=3
SPECTRUMID=CCMSLIB00000426609
SCANS=1581
41.0 93.988 
44.0 91.933 
45.0 100.0 
END IONS

BEGIN IONS
PEPMASS=175.061
CHARGE=1+
MSLEVEL=2
SOURCE_INSTRUMENT=Negative-Quattro_QQQ:40eV
FILENAME=hmdb_intermediate.mgf
SEQ=*..*
IONMODE=Negative
ORGANISM=HMDB
NAME=HMDB:HMDB00402-611 2-Isopropylmalic acid M-H
PI=HMDB
DATACOLLECTOR=HMDB
SMILES=CC(C)[C@@](O)(CC(O)=O)C(O)=O
INCHI=InChI=1S/C7H12O5/c1-4(2)7(12,6(10)11)3-5(8)9/h4,12H,3H2,1-2H3,(H,8,9)(H,10,11)/t7-/m0/s1
INCHIAUX=N/A
PUBMED=N/A
SUBMITUSER=mwang87
TAGS=
LIBRARYQUALITY=3
SPECTRUMID=CCMSLIB00000426614
SCANS=1586
41.631 48.929 
45.541 41.071 
END IONS

BEGIN IONS
PEPMASS=116.071
CHARGE=1+
MSLEVEL=2
SOURCE_INSTRUMENT=Positive-Quattro_QQQ:40eV
FILENAME=hmdb_intermediate.mgf
SEQ=*..*
IONMODE=Positive
ORGANISM=HMDB
NAME=HMDB:HMDB00162-256 L-Proline M+H
PI=HMDB
DATACOLLECTOR=HMDB
SMILES=OC(=O)[C@@H]1CCCN1
INCHI=InChI=1S/C5H9NO2/c7-5(8)4-2-1-3-6-4/h4,6H,1-3H2,(H,7,8)/t4-/m0/s1
INCHIAUX=N/A
PUBMED=N/A
SUBMITUSER=mwang87
TAGS=
LIBRARYQUALITY=3
SPECTRUMID=CCMSLIB00000426615
SCANS=1587
41.36 5.793 
43.225 28.659 
END IONS

BEGIN IONS
PEPMASS=163.061
CHARGE=1+
MSLEVEL=2
SOURCE_INSTRUMENT=Positive-Quattro_QQQ:25eV
FILENAME=hmdb_intermediate.mgf
SEQ=*..*
IONMODE=Positive
ORGANISM=HMDB
NAME=HMDB:HMDB00640-877 Levoglucosan M+H
PI=HMDB
DATACOLLECTOR=HMDB
SMILES=[H][C@@]12OC[C@@H](O1)[C@@H](O)[C@H](O)[C@H]2O
INCHI=InChI=1S/C6H10O5/c7-3-2-1-10-6(11-2)5(9)4(3)8/h2-9H,1H2/t2-,3-,4+,5-,6-/m1/s1
INCHIAUX=N/A
PUBMED=N/A
SUBMITUSER=mwang87
TAGS=
LIBRARYQUALITY=3
SPECTRUMID=CCMSLIB00000426618
SCANS=1590
41.404 43.056 
43.348 51.736 
45.339 43.056 
53.239 21.701 
END IONS

BEGIN IONS
PEPMASS=109.065
CHARGE=1+
MSLEVEL=2
SOURCE_INSTRUMENT=Positive-Quattro_QQQ:25eV
FILENAME=hmdb_intermediate.mgf
SEQ=*..*
IONMODE=Positive
ORGANISM=HMDB
NAME=HMDB:HMDB02048-1969 m-Cresol M+H
PI=HMDB
DATACOLLECTOR=HMDB
SMILES=CC1=CC(O)=CC=C1
INCHI=InChI=1S/C7H8O/c1-6-3-2-4-7(8)5-6/h2-5,8H,1H3
INCHIAUX=N/A
PUBMED=N/A
SUBMITUSER=mwang87
TAGS=
LIBRARYQUALITY=3
SPECTRUMID=CCMSLIB00000426624
SCANS=1596
39.0 14.534 
41.0 6.646 
END IONS

BEGIN IONS
PEPMASS=32.05
CHARGE=1+
MSLEVEL=2
SOURCE_INSTRUMENT=Positive-Quattro_QQQ:40eV
FILENAME=hmdb_intermediate.mgf
SEQ=*..*
IONMODE=Positive
ORGANISM=HMDB
NAME=HMDB:HMDB60291-262 Methylammonium M+H
PI=HMDB
DATACOLLECTOR=HMDB
SMILES=CN
INCHI=InChI=1S/CH5N/c1-2/h2H2,1H3
INCHIAUX=N/A
PUBMED=N/A
SUBMITUSER=mwang87
TAGS=
LIBRARYQUALITY=3
SPECTRUMID=CCMSLIB00000426628
SCANS=1600
30.0 16.338 
31.0 37.051 
32.0 100.0 
33.0 38.892 
END IONS

BEGIN IONS
PEPMASS=109.065
CHARGE=1+
MSLEVEL=2
SOURCE_INSTRUMENT=Positive-Quattro_QQQ:40eV
FILENAME=hmdb_intermediate.mgf
SEQ=*..*
IONMODE=Positive
ORGANISM=HMDB
NAME=HMDB:HMDB01858-1731 p-Cresol M+H
PI=HMDB
DATACOLLECTOR=HMDB
SMILES=CC1=CC=C(O)C=C1
INCHI=InChI=1S/C7H8O/c1-6-2-4-7(8)5-3-6/h2-5,8H,1H3
INCHIAUX=N/A
PUBMED=N/A
SUBMITUSER=mwang87
TAGS=
LIBRARYQUALITY=3
SPECTRUMID=CCMSLIB00000426629
SCANS=1601
38.0 36.384 
39.0 85.212 
40.0 43.062 
41.0 32.75 
END IONS

BEGIN IONS
PEPMASS=310.114
CHARGE=1+
MSLEVEL=2
SOURCE_INSTRUMENT=Positive-Quattro_QQQ:40eV
FILENAME=hmdb_intermediate.mgf
SEQ=*..*
IONMODE=Positive
ORGANISM=HMDB
NAME=HMDB:HMDB00230-387 N-Acetylneuraminic acid M+H
PI=HMDB
DATACOLLECTOR=HMDB
SMILES=CC(=O)N[C@@H]1[C@@H](O)C[C@](O)(O[C@H]1[C@H](O)[C@H](O)CO)C(O)=O
INCHI=InChI=1S/C11H19NO9/c1-4(14)12-7-5(15)2-11(20,10(18)19)21-9(7)8(17)6(16)3-13/h5-9,13,15-17,20H,2-3H2,1H3,(H,12,14)(H,18,19)/t5-,6+,7+,8+,9+,11-/m0/s1
INCHIAUX=N/A
PUBMED=N/A
SUBMITUSER=mwang87
TAGS=
LIBRARYQUALITY=3
SPECTRUMID=CCMSLIB00000426632
SCANS=1604
43.346 23.947 
45.345 15.789 
END IONS

BEGIN IONS
PEPMASS=61.0402
CHARGE=1+
MSLEVEL=2
SOURCE_INSTRUMENT=Positive-Quattro_QQQ:25eV
FILENAME=hmdb_intermediate.mgf
SEQ=*..*
IONMODE=Positive
ORGANISM=HMDB
NAME=HMDB:HMDB00294-499 Urea M+H
PI=HMDB
DATACOLLECTOR=HMDB
SMILES=NC(N)=O
INCHI=InChI=1S/CH4N2O/c2-1(3)4/h(H4,2,3,4)
INCHIAUX=N/A
PUBMED=N/A
SUBMITUSER=mwang87
TAGS=
LIBRARYQUALITY=3
SPECTRUMID=CCMSLIB00000426634
SCANS=1606
44.0 72.173 
END IONS

BEGIN IONS
PEPMASS=183.066
CHARGE=1+
MSLEVEL=2
SOURCE_INSTRUMENT=Negative-Quattro_QQQ:40eV
FILENAME=hmdb_intermediate.mgf
SEQ=*..*
IONMODE=Negative
ORGANISM=HMDB
NAME=HMDB:HMDB01490-1609 Vanylglycol M-H
PI=HMDB
DATACOLLECTOR=HMDB
SMILES=COC1=CC(=CC=C1O)C(O)CO
INCHI=InChI=1S/C9H12O4/c1-13-9-4-6(8(12)5-10)2-3-7(9)11/h2-4,8,10-12H,5H2,1H3
INCHIAUX=N/A
PUBMED=N/A
SUBMITUSER=mwang87
TAGS=
LIBRARYQUALITY=3
SPECTRUMID=CCMSLIB00000426642
SCANS=1614
41.0 11.421 
END IONS

BEGIN IONS
PEPMASS=260.186
CHARGE=1+
MSLEVEL=2
SOURCE_INSTRUMENT=Positive-Quattro_QQQ:25eV
FILENAME=hmdb_intermediate.mgf
SEQ=*..*
IONMODE=Positive
ORGANISM=HMDB
NAME=HMDB:HMDB00756-1087 L-Hexanoylcarnitine M+H
PI=HMDB
DATACOLLECTOR=HMDB
SMILES=CCCCCC(=O)O[C@H](CC([O-])=O)C[N+](C)(C)C
INCHI=InChI=1S/C13H25NO4/c1-5-6-7-8-13(17)18-11(9-12(15)16)10-14(2,3)4/h11H,5-10H2,1-4H3/t11-/m1/s1
INCHIAUX=N/A
PUBMED=N/A
SUBMITUSER=mwang87
TAGS=
LIBRARYQUALITY=3
SPECTRUMID=CCMSLIB00000426644
SCANS=1616
43.59 4.608 
END IONS

BEGIN IONS
PEPMASS=106.087
CHARGE=1+
MSLEVEL=2
SOURCE_INSTRUMENT=Positive-Quattro_QQQ:10eV
FILENAME=hmdb_intermediate.mgf
SEQ=*..*
IONMODE=Positive
ORGANISM=HMDB
NAME=HMDB:HMDB04437-2385 Diethanolamine M+H
PI=HMDB
DATACOLLECTOR=HMDB
SMILES=OCCNCCO
INCHI=InChI=1S/C4H11NO2/c6-3-1-5-2-4-7/h5-7H,1-4H2
INCHIAUX=N/A
PUBMED=N/A
SUBMITUSER=mwang87
TAGS=
LIBRARYQUALITY=3
SPECTRUMID=CCMSLIB00000426646
SCANS=1618
44.0 5.921 
END IONS

BEGIN IONS
PEPMASS=119.071
CHARGE=1+
MSLEVEL=2
SOURCE_INSTRUMENT=Positive-Quattro_QQQ:25eV
FILENAME=hmdb_intermediate.mgf
SEQ=*..*
IONMODE=Positive
ORGANISM=HMDB
NAME=HMDB:HMDB00351-565 3-Hydroxy-2-methyl-[R-(R,S)]-butanoic acid M+H
PI=HMDB
DATACOLLECTOR=HMDB
SMILES=C[C@@H](O)[C@H](C)C(O)=O
INCHI=InChI=1S/C5H10O3/c1-3(4(2)6)5(7)8/h3-4,6H,1-2H3,(H,7,8)/t3-,4+/m0/s1
INCHIAUX=N/A
PUBMED=N/A
SUBMITUSER=mwang87
TAGS=
LIBRARYQUALITY=3
SPECTRUMID=CCMSLIB00000426647
SCANS=1619
41.0 24.038 
45.0 93.902 
46.0 26.112 
END IONS

BEGIN IONS
PEPMASS=123.056
CHARGE=1+
MSLEVEL=2
SOURCE_INSTRUMENT=Positive-Quattro_QQQ:40eV
FILENAME=hmdb_intermediate.mgf
SEQ=*..*
IONMODE=Positive
ORGANISM=HMDB
NAME=HMDB:HMDB01406-1561 Niacinamide M+H
PI=HMDB
DATACOLLECTOR=HMDB
SMILES=NC(=O)C1=CN=CC=C1
INCHI=InChI=1S/C6H6N2O/c7-6(9)5-2-1-3-8-4-5/h1-4H,(H2,7,9)
INCHIAUX=N/A
PUBMED=N/A
SUBMITUSER=mwang87
TAGS=
LIBRARYQUALITY=3
SPECTRUMID=CCMSLIB00000426648
SCANS=1620
53.217 30.435 
END IONS

BEGIN IONS
PEPMASS=32.05
CHARGE=1+
MSLEVEL=2
SOURCE_INSTRUMENT=Positive-Quattro_QQQ:10eV
FILENAME=hmdb_intermediate.mgf
SEQ=*..*
IONMODE=Positive
ORGANISM=HMDB
NAME=HMDB:HMDB00164-260 Methylamine M+H
PI=HMDB
DATACOLLECTOR=HMDB
SMILES=CN
INCHI=InChI=1S/CH5N/c1-2/h2H2,1H3
INCHIAUX=N/A
PUBMED=N/A
SUBMITUSER=mwang87
TAGS=
LIBRARYQUALITY=3
SPECTRUMID=CCMSLIB00000426649
SCANS=1621
31.0 8.159 
32.0 100.0 
33.0 11.568 
END IONS

BEGIN IONS
PEPMASS=112.087
CHARGE=1+
MSLEVEL=2
SOURCE_INSTRUMENT=Positive-Quattro_QQQ:40eV
FILENAME=hmdb_intermediate.mgf
SEQ=*..*
IONMODE=Positive
ORGANISM=HMDB
NAME=HMDB:HMDB60263-1225 Histamium M+H
PI=HMDB
DATACOLLECTOR=HMDB
SMILES=NCCC1=CN=CN1
INCHI=InChI=1S/C5H9N3/c6-2-1-5-3-7-4-8-5/h3-4H,1-2,6H2,(H,7,8)
INCHIAUX=N/A
PUBMED=N/A
SUBMITUSER=mwang87
TAGS=
LIBRARYQUALITY=3
SPECTRUMID=CCMSLIB00000426650
SCANS=1622
41.316 100.0 
42.456 10.938 
END IONS

BEGIN IONS
PEPMASS=179.071
CHARGE=1+
MSLEVEL=2
SOURCE_INSTRUMENT=Positive-Quattro_QQQ:40eV
FILENAME=hmdb_intermediate.mgf
SEQ=*..*
IONMODE=Positive
ORGANISM=HMDB
NAME=HMDB:HMDB02040-1964 4-Methoxycinnamic acid M+H
PI=HMDB
DATACOLLECTOR=HMDB
SMILES=COC1=CC=C(\C=C\C(O)=O)C=C1
INCHI=InChI=1S/C10H10O3/c1-13-9-5-2-8(3-6-9)4-7-10(11)12/h2-7H,1H3,(H,11,12)/b7-4+
INCHIAUX=N/A
PUBMED=N/A
SUBMITUSER=mwang87
TAGS=
LIBRARYQUALITY=3
SPECTRUMID=CCMSLIB00000426652
SCANS=1624
51.0 8.893 
END IONS

BEGIN IONS
PEPMASS=153.076
CHARGE=1+
MSLEVEL=2
SOURCE_INSTRUMENT=Positive-Quattro_QQQ:25eV
FILENAME=hmdb_intermediate.mgf
SEQ=*..*
IONMODE=Positive
ORGANISM=HMDB
NAME=HMDB:HMDB00508-726 Ribitol M+H
PI=HMDB
DATACOLLECTOR=HMDB
SMILES=OC[C@H](O)[C@H](O)[C@H](O)CO
INCHI=InChI=1S/C5H12O5/c6-1-3(8)5(10)4(9)2-7/h3-10H,1-2H2/t3-,4+,5-
INCHIAUX=N/A
PUBMED=N/A
SUBMITUSER=mwang87
TAGS=
LIBRARYQUALITY=3
SPECTRUMID=CCMSLIB00000426657
SCANS=1629
41.374 35.385 
43.341 90.769 
45.316 40.769 
53.264 27.308 
END IONS

BEGIN IONS
PEPMASS=132.102
CHARGE=1+
MSLEVEL=2
SOURCE_INSTRUMENT=Positive-Quattro_QQQ:25eV
FILENAME=hmdb_intermediate.mgf
SEQ=*..*
IONMODE=Positive
ORGANISM=HMDB
NAME=HMDB:HMDB00557-780 L-Alloisoleucine M+H
PI=HMDB
DATACOLLECTOR=HMDB
SMILES=CC[C@@H](C)[C@H](N)C(O)=O
INCHI=InChI=1S/C6H13NO2/c1-3-4(2)5(7)6(8)9/h4-5H,3,7H2,1-2H3,(H,8,9)/t4-,5+/m1/s1
INCHIAUX=N/A
PUBMED=N/A
SUBMITUSER=mwang87
TAGS=
LIBRARYQUALITY=3
SPECTRUMID=CCMSLIB00000426662
SCANS=1634
41.368 65.556 
44.288 68.889 
END IONS

BEGIN IONS
PEPMASS=133.098
CHARGE=1+
MSLEVEL=2
SOURCE_INSTRUMENT=Positive-Quattro_QQQ:40eV
FILENAME=hmdb_intermediate.mgf
SEQ=*..*
IONMODE=Positive
ORGANISM=HMDB
NAME=HMDB:HMDB00214-351 Ornithine M+H
PI=HMDB
DATACOLLECTOR=HMDB
SMILES=NCCC[C@H](N)C(O)=O
INCHI=InChI=1S/C5H12N2O2/c6-3-1-2-4(7)5(8)9/h4H,1-3,6-7H2,(H,8,9)/t4-/m0/s1
INCHIAUX=N/A
PUBMED=N/A
SUBMITUSER=mwang87
TAGS=
LIBRARYQUALITY=3
SPECTRUMID=CCMSLIB00000426663
SCANS=1635
41.352 4.511 
43.271 18.478 
53.221 2.649 
END IONS

BEGIN IONS
PEPMASS=183.087
CHARGE=1+
MSLEVEL=2
SOURCE_INSTRUMENT=Positive-Quattro_QQQ:40eV
FILENAME=hmdb_intermediate.mgf
SEQ=*..*
IONMODE=Positive
ORGANISM=HMDB
NAME=HMDB:HMDB00247-423 Sorbitol M+H
PI=HMDB
DATACOLLECTOR=HMDB
SMILES=OC[C@H](O)[C@@H](O)[C@H](O)[C@H](O)CO
INCHI=InChI=1S/C6H14O6/c7-1-3(9)5(11)6(12)4(10)2-8/h3-12H,1-2H2/t3-,4+,5-,6-/m1/s1
INCHIAUX=N/A
PUBMED=N/A
SUBMITUSER=mwang87
TAGS=
LIBRARYQUALITY=3
SPECTRUMID=CCMSLIB00000426667
SCANS=1639
41.355 47.137 
43.307 100.0 
45.298 37.595 
53.261 21.756 
END IONS

BEGIN IONS
PEPMASS=189.135
CHARGE=1+
MSLEVEL=2
SOURCE_INSTRUMENT=Positive-Quattro_QQQ:25eV
FILENAME=hmdb_intermediate.mgf
SEQ=*..*
IONMODE=Positive
ORGANISM=HMDB
NAME=HMDB:HMDB00670-922 Homo-L-arginine M+H
PI=HMDB
DATACOLLECTOR=HMDB
SMILES=N[C@@H](CCCCNC(N)=N)C(O)=O
INCHI=InChI=1S/C7H16N4O2/c8-5(6(12)13)3-1-2-4-11-7(9)10/h5H,1-4,8H2,(H,12,13)(H4,9,10,11)/t5-/m0/s1
INCHIAUX=N/A
PUBMED=N/A
SUBMITUSER=mwang87
TAGS=
LIBRARYQUALITY=3
SPECTRUMID=CCMSLIB00000426669
SCANS=1641
41.351 2.843 
43.216 3.456 
END IONS

BEGIN IONS
PEPMASS=115.076
CHARGE=1+
MSLEVEL=2
SOURCE_INSTRUMENT=Positive-Quattro_QQQ:40eV
FILENAME=hmdb_intermediate.mgf
SEQ=*..*
IONMODE=Positive
ORGANISM=HMDB
NAME=HMDB:HMDB03843-2348 Gamma-Caprolactone M+H
PI=HMDB
DATACOLLECTOR=HMDB
SMILES=CCC1CCC(=O)O1
INCHI=InChI=1S/C6H10O2/c1-2-5-3-4-6(7)8-5/h5H,2-4H2,1H3
INCHIAUX=N/A
PUBMED=N/A
SUBMITUSER=mwang87
TAGS=
LIBRARYQUALITY=3
SPECTRUMID=CCMSLIB00000426670
SCANS=1642
28.62 24.491 
38.67 20.018 
41.06 28.563 
42.2 42.815 
43.31 100.0 
END IONS

BEGIN IONS
PEPMASS=104.071
CHARGE=1+
MSLEVEL=2
SOURCE_INSTRUMENT=Positive-Quattro_QQQ:25eV
FILENAME=hmdb_intermediate.mgf
SEQ=*..*
IONMODE=Positive
ORGANISM=HMDB
NAME=HMDB:HMDB00112-163 Gamma-Aminobutyric acid M+H
PI=HMDB
DATACOLLECTOR=HMDB
SMILES=NCCCC(O)=O
INCHI=InChI=1S/C4H9NO2/c5-3-1-2-4(6)7/h1-3,5H2,(H,6,7)
INCHIAUX=N/A
PUBMED=N/A
SUBMITUSER=mwang87
TAGS=
LIBRARYQUALITY=3
SPECTRUMID=CCMSLIB00000426671
SCANS=1643
41.317 48.408 
43.276 33.599 
45.258 100.0 
END IONS

BEGIN IONS
PEPMASS=149.045
CHARGE=1+
MSLEVEL=2
SOURCE_INSTRUMENT=Positive-Quattro_QQQ:40eV
FILENAME=hmdb_intermediate.mgf
SEQ=*..*
IONMODE=Positive
ORGANISM=HMDB
NAME=HMDB:HMDB01900-1818 Ribonolactone M+H
PI=HMDB
DATACOLLECTOR=HMDB
SMILES=OC[C@H]1OC(=O)[C@H](O)[C@@H]1O
INCHI=InChI=1S/C5H8O5/c6-1-2-3(7)4(8)5(9)10-2/h2-4,6-8H,1H2/t2-,3-,4-/m1/s1
INCHIAUX=N/A
PUBMED=N/A
SUBMITUSER=mwang87
TAGS=
LIBRARYQUALITY=3
SPECTRUMID=CCMSLIB00000426674
SCANS=1646
51.159 32.315 
51.533 25.765 
END IONS

BEGIN IONS
PEPMASS=289.217
CHARGE=1+
MSLEVEL=2
SOURCE_INSTRUMENT=Positive-Quattro_QQQ:40eV
FILENAME=hmdb_intermediate.mgf
SEQ=*..*
IONMODE=Positive
ORGANISM=HMDB
NAME=HMDB:HMDB00234-393 Testosterone M+H
PI=HMDB
DATACOLLECTOR=HMDB
SMILES=[H][C@@]12CC[C@H](O)[C@@]1(C)CC[C@@]1([H])[C@@]2([H])CCC2=CC(=O)CC[C@]12C
INCHI=InChI=1S/C19H28O2/c1-18-9-7-13(20)11-12(18)3-4-14-15-5-6-17(21)19(15,2)10-8-16(14)18/h11,14-17,21H,3-10H2,1-2H3/t14-,15-,16-,17-,18-,19-/m0/s1
INCHIAUX=N/A
PUBMED=N/A
SUBMITUSER=mwang87
TAGS=
LIBRARYQUALITY=3
SPECTRUMID=CCMSLIB00000426676
SCANS=1648
41.367 5.758 
43.326 8.144 
END IONS

BEGIN IONS
PEPMASS=168.066
CHARGE=1+
MSLEVEL=2
SOURCE_INSTRUMENT=Positive-Quattro_QQQ:40eV
FILENAME=hmdb_intermediate.mgf
SEQ=*..*
IONMODE=Positive
ORGANISM=HMDB
NAME=HMDB:HMDB01545-1645 Pyridoxal M+H
PI=HMDB
DATACOLLECTOR=HMDB
SMILES=CC1=C(O)C(C=O)=C(CO)C=N1
INCHI=InChI=1S/C8H9NO3/c1-5-8(12)7(4-11)6(3-10)2-9-5/h2,4,10,12H,3H2,1H3
INCHIAUX=N/A
PUBMED=N/A
SUBMITUSER=mwang87
TAGS=
LIBRARYQUALITY=3
SPECTRUMID=CCMSLIB00000426684
SCANS=1656
41.38 58.333 
42.489 5.686 
51.295 5.99 
53.254 53.472 
END IONS

BEGIN IONS
PEPMASS=121.065
CHARGE=1+
MSLEVEL=2
SOURCE_INSTRUMENT=Positive-Quattro_QQQ:25eV
FILENAME=hmdb_intermediate.mgf
SEQ=*..*
IONMODE=Positive
ORGANISM=HMDB
NAME=HMDB:HMDB06236-2479 Phenylacetaldehyde M+H
PI=HMDB
DATACOLLECTOR=HMDB
SMILES=O=CCC1=CC=CC=C1
INCHI=InChI=1S/C8H8O/c9-7-6-8-4-2-1-3-5-8/h1-5,7H,6H2
INCHIAUX=N/A
PUBMED=N/A
SUBMITUSER=mwang87
TAGS=
LIBRARYQUALITY=3
SPECTRUMID=CCMSLIB00000426685
SCANS=1657
51.0 5.993 
END IONS

BEGIN IONS
PEPMASS=133.065
CHARGE=1+
MSLEVEL=2
SOURCE_INSTRUMENT=Positive-Quattro_QQQ:25eV
FILENAME=hmdb_intermediate.mgf
SEQ=*..*
IONMODE=Positive
ORGANISM=HMDB
NAME=HMDB:HMDB03441-2311 Cinnamaldehyde M+H
PI=HMDB
DATACOLLECTOR=HMDB
SMILES=O=C\C=C\C1=CC=CC=C1
INCHI=InChI=1S/C9H8O/c10-8-4-7-9-5-2-1-3-6-9/h1-8H/b7-4+
INCHIAUX=N/A
PUBMED=N/A
SUBMITUSER=mwang87
TAGS=
LIBRARYQUALITY=3
SPECTRUMID=CCMSLIB00000426686
SCANS=1658
27.0 10.0 
31.0 14.388 
END IONS

BEGIN IONS
PEPMASS=34.0293
CHARGE=1+
MSLEVEL=2
SOURCE_INSTRUMENT=Positive-Quattro_QQQ:40eV
FILENAME=hmdb_intermediate.mgf
SEQ=*..*
IONMODE=Positive
ORGANISM=HMDB
NAME=HMDB:HMDB03338-2253 Hydroxylamine M+H
PI=HMDB
DATACOLLECTOR=HMDB
SMILES=NO
INCHI=InChI=1S/H3NO/c1-2/h2H,1H2
INCHIAUX=N/A
PUBMED=N/A
SUBMITUSER=mwang87
TAGS=
LIBRARYQUALITY=3
SPECTRUMID=CCMSLIB00000426690
SCANS=1662
33.0 26.185 
34.0 100.0 
35.0 48.047 
END IONS

BEGIN IONS
PEPMASS=124.04
CHARGE=1+
MSLEVEL=2
SOURCE_INSTRUMENT=Positive-Quattro_QQQ:40eV
FILENAME=hmdb_intermediate.mgf
SEQ=*..*
IONMODE=Positive
ORGANISM=HMDB
NAME=HMDB:HMDB01488-1606 Nicotinic acid M+H
PI=HMDB
DATACOLLECTOR=HMDB
SMILES=OC(=O)C1=CN=CC=C1
INCHI=InChI=1S/C6H5NO2/c8-6(9)5-2-1-3-7-4-5/h1-4H,(H,8,9)
INCHIAUX=N/A
PUBMED=N/A
SUBMITUSER=mwang87
TAGS=
LIBRARYQUALITY=3
SPECTRUMID=CCMSLIB00000426694
SCANS=1666
52.003 100.0 
53.323 79.605 
END IONS

BEGIN IONS
PEPMASS=60.98
CHARGE=1+
MSLEVEL=2
SOURCE_INSTRUMENT=Negative-Quattro_QQQ:25eV
FILENAME=hmdb_intermediate.mgf
SEQ=*..*
IONMODE=Negative
ORGANISM=HMDB
NAME=HMDB:HMDB02878-2153 Nitrate M-H
PI=HMDB
DATACOLLECTOR=HMDB
SMILES=[O-][N+]([O-])=O
INCHI=InChI=1S/NO3/c2-1(3)4/q-1
INCHIAUX=N/A
PUBMED=N/A
SUBMITUSER=mwang87
TAGS=
LIBRARYQUALITY=3
SPECTRUMID=CCMSLIB00000426695
SCANS=1667
45.0 89.45 
46.0 12.089 
END IONS

BEGIN IONS
PEPMASS=60.0562
CHARGE=1+
MSLEVEL=2
SOURCE_INSTRUMENT=Positive-Quattro_QQQ:25eV
FILENAME=hmdb_intermediate.mgf
SEQ=*..*
IONMODE=Positive
ORGANISM=HMDB
NAME=HMDB:HMDB01842-1691 Guanidine M+H
PI=HMDB
DATACOLLECTOR=HMDB
SMILES=NC(N)=N
INCHI=InChI=1S/CH5N3/c2-1(3)4/h(H5,2,3,4)
INCHIAUX=N/A
PUBMED=N/A
SUBMITUSER=mwang87
TAGS=
LIBRARYQUALITY=3
SPECTRUMID=CCMSLIB00000426696
SCANS=1668
43.0 100.0 
END IONS

BEGIN IONS
PEPMASS=154.087
CHARGE=1+
MSLEVEL=2
SOURCE_INSTRUMENT=Positive-Quattro_QQQ:40eV
FILENAME=hmdb_intermediate.mgf
SEQ=*..*
IONMODE=Positive
ORGANISM=HMDB
NAME=HMDB:HMDB00073-122 Dopamine M+H
PI=HMDB
DATACOLLECTOR=HMDB
SMILES=NCCC1=CC=C(O)C(O)=C1
INCHI=InChI=1S/C8H11NO2/c9-4-3-6-1-2-7(10)8(11)5-6/h1-2,5,10-11H,3-4,9H2
INCHIAUX=N/A
PUBMED=N/A
SUBMITUSER=mwang87
TAGS=
LIBRARYQUALITY=3
SPECTRUMID=CCMSLIB00000426698
SCANS=1670
41.366 8.503 
END IONS

BEGIN IONS
PEPMASS=175.12
CHARGE=1+
MSLEVEL=2
SOURCE_INSTRUMENT=Positive-Quattro_QQQ:25eV
FILENAME=hmdb_intermediate.mgf
SEQ=*..*
IONMODE=Positive
ORGANISM=HMDB
NAME=HMDB:HMDB00517-741 L-Arginine M+H
PI=HMDB
DATACOLLECTOR=HMDB
SMILES=N[C@@H](CCCN=C(N)N)C(O)=O
INCHI=InChI=1S/C6H14N4O2/c7-4(5(11)12)2-1-3-10-6(8)9/h4H,1-3,7H2,(H,11,12)(H4,8,9,10)/t4-/m0/s1
INCHIAUX=N/A
PUBMED=N/A
SUBMITUSER=mwang87
TAGS=
LIBRARYQUALITY=3
SPECTRUMID=CCMSLIB00000426700
SCANS=1672
43.318 2.034 
END IONS

BEGIN IONS
PEPMASS=130.998
CHARGE=1+
MSLEVEL=2
SOURCE_INSTRUMENT=Negative-Quattro_QQQ:40eV
FILENAME=hmdb_intermediate.mgf
SEQ=*..*
IONMODE=Negative
ORGANISM=HMDB
NAME=HMDB:HMDB00223-369 Oxalacetic acid M-H
PI=HMDB
DATACOLLECTOR=HMDB
SMILES=OC(=O)CC(=O)C(O)=O
INCHI=InChI=1S/C4H4O5/c5-2(4(8)9)1-3(6)7/h1H2,(H,6,7)(H,8,9)
INCHIAUX=N/A
PUBMED=N/A
SUBMITUSER=mwang87
TAGS=
LIBRARYQUALITY=3
SPECTRUMID=CCMSLIB00000426706
SCANS=1678
41.619 100.0 
43.581 74.39 
45.544 6.479 
END IONS

BEGIN IONS
PEPMASS=78.0377
CHARGE=1+
MSLEVEL=2
SOURCE_INSTRUMENT=Positive-Quattro_QQQ:25eV
FILENAME=hmdb_intermediate.mgf
SEQ=*..*
IONMODE=Positive
ORGANISM=HMDB
NAME=HMDB:HMDB02991-2177 Cysteamine M+H
PI=HMDB
DATACOLLECTOR=HMDB
SMILES=NCCS
INCHI=InChI=1S/C2H7NS/c3-1-2-4/h4H,1-3H2
INCHIAUX=N/A
PUBMED=N/A
SUBMITUSER=mwang87
TAGS=
LIBRARYQUALITY=3
SPECTRUMID=CCMSLIB00000426707
SCANS=1679
18.0 5.988 
27.0 24.183 
35.0 31.818 
END IONS

BEGIN IONS
PEPMASS=129.019
CHARGE=1+
MSLEVEL=2
SOURCE_INSTRUMENT=Negative-Quattro_QQQ:40eV
FILENAME=hmdb_intermediate.mgf
SEQ=*..*
IONMODE=Negative
ORGANISM=HMDB
NAME=HMDB:HMDB00620-839 Glutaconic acid M-H
PI=HMDB
DATACOLLECTOR=HMDB
SMILES=OC(=O)C\C=C\C(O)=O
INCHI=InChI=1S/C5H6O4/c6-4(7)2-1-3-5(8)9/h1-2H,3H2,(H,6,7)(H,8,9)/b2-1+
INCHIAUX=N/A
PUBMED=N/A
SUBMITUSER=mwang87
TAGS=
LIBRARYQUALITY=3
SPECTRUMID=CCMSLIB00000426716
SCANS=1688
41.286 100.0 
END IONS

BEGIN IONS
PEPMASS=191.019
CHARGE=1+
MSLEVEL=2
SOURCE_INSTRUMENT=Negative-Quattro_QQQ:25eV
FILENAME=hmdb_intermediate.mgf
SEQ=*..*
IONMODE=Negative
ORGANISM=HMDB
NAME=HMDB:HMDB00094-145 Citric acid M-H
PI=HMDB
DATACOLLECTOR=HMDB
SMILES=OC(=O)CC(O)(CC(O)=O)C(O)=O
INCHI=InChI=1S/C6H8O7/c7-3(8)1-6(13,5(11)12)2-4(9)10/h13H,1-2H2,(H,7,8)(H,9,10)(H,11,12)
INCHIAUX=N/A
PUBMED=N/A
SUBMITUSER=mwang87
TAGS=
LIBRARYQUALITY=3
SPECTRUMID=CCMSLIB00000426722
SCANS=1694
41.397 39.08 
43.355 41.954 
END IONS

BEGIN IONS
PEPMASS=132.102
CHARGE=1+
MSLEVEL=2
SOURCE_INSTRUMENT=Positive-Quattro_QQQ:25eV
FILENAME=hmdb_intermediate.mgf
SEQ=*..*
IONMODE=Positive
ORGANISM=HMDB
NAME=HMDB:HMDB00172-272 L-Isoleucine M+H
PI=HMDB
DATACOLLECTOR=HMDB
SMILES=CC[C@H](C)[C@H](N)C(O)=O
INCHI=InChI=1S/C6H13NO2/c1-3-4(2)5(7)6(8)9/h4-5H,3,7H2,1-2H3,(H,8,9)/t4-,5-/m0/s1
INCHIAUX=N/A
PUBMED=N/A
SUBMITUSER=mwang87
TAGS=
LIBRARYQUALITY=3
SPECTRUMID=CCMSLIB00000426723
SCANS=1695
41.321 57.5 
44.247 65.5 
END IONS

BEGIN IONS
PEPMASS=150.059
CHARGE=1+
MSLEVEL=2
SOURCE_INSTRUMENT=Positive-Quattro_QQQ:40eV
FILENAME=hmdb_intermediate.mgf
SEQ=*..*
IONMODE=Positive
ORGANISM=HMDB
NAME=HMDB:HMDB00696-971 L-Methionine M+H
PI=HMDB
DATACOLLECTOR=HMDB
SMILES=CSCC[C@H](N)C(O)=O
INCHI=InChI=1S/C5H11NO2S/c1-9-3-2-4(6)5(7)8/h4H,2-3,6H2,1H3,(H,7,8)/t4-/m0/s1
INCHIAUX=N/A
PUBMED=N/A
SUBMITUSER=mwang87
TAGS=
LIBRARYQUALITY=3
SPECTRUMID=CCMSLIB00000426727
SCANS=1699
45.277 4.542 
46.291 11.801 
END IONS

BEGIN IONS
PEPMASS=147.066
CHARGE=1+
MSLEVEL=2
SOURCE_INSTRUMENT=Positive-Quattro_QQQ:40eV
FILENAME=hmdb_intermediate.mgf
SEQ=*..*
IONMODE=Positive
ORGANISM=HMDB
NAME=HMDB:HMDB00752-1076 Methylglutaric acid M+H
PI=HMDB
DATACOLLECTOR=HMDB
SMILES=CC(CC(O)=O)CC(O)=O
INCHI=InChI=1S/C6H10O4/c1-4(2-5(7)8)3-6(9)10/h4H,2-3H2,1H3,(H,7,8)(H,9,10)
INCHIAUX=N/A
PUBMED=N/A
SUBMITUSER=mwang87
TAGS=
LIBRARYQUALITY=3
SPECTRUMID=CCMSLIB00000426728
SCANS=1700
51.888 100.0 
END IONS

BEGIN IONS
PEPMASS=103.04
CHARGE=1+
MSLEVEL=2
SOURCE_INSTRUMENT=Negative-Quattro_QQQ:25eV
FILENAME=hmdb_intermediate.mgf
SEQ=*..*
IONMODE=Negative
ORGANISM=HMDB
NAME=HMDB:HMDB00357-574 3-Hydroxybutyric acid M-H
PI=HMDB
DATACOLLECTOR=HMDB
SMILES=CC(O)CC(O)=O
INCHI=InChI=1S/C4H8O3/c1-3(5)2-4(6)7/h3,5H,2H2,1H3,(H,6,7)
INCHIAUX=N/A
PUBMED=N/A
SUBMITUSER=mwang87
TAGS=
LIBRARYQUALITY=3
SPECTRUMID=CCMSLIB00000426732
SCANS=1704
41.255 48.485 
END IONS

BEGIN IONS
PEPMASS=133.061
CHARGE=1+
MSLEVEL=2
SOURCE_INSTRUMENT=Positive-Quattro_QQQ:25eV
FILENAME=hmdb_intermediate.mgf
SEQ=*..*
IONMODE=Positive
ORGANISM=HMDB
NAME=HMDB:HMDB00168-267 L-Asparagine M+H
PI=HMDB
DATACOLLECTOR=HMDB
SMILES=N[C@@H](CC(N)=O)C(O)=O
INCHI=InChI=1S/C4H8N2O3/c5-2(4(8)9)1-3(6)7/h2H,1,5H2,(H2,6,7)(H,8,9)/t2-/m0/s1
INCHIAUX=N/A
PUBMED=N/A
SUBMITUSER=mwang87
TAGS=
LIBRARYQUALITY=3
SPECTRUMID=CCMSLIB00000426739
SCANS=1711
43.232 10.355 
44.348 10.947 
46.206 21.154 
END IONS

BEGIN IONS
PEPMASS=209.03
CHARGE=1+
MSLEVEL=2
SOURCE_INSTRUMENT=Negative-Quattro_QQQ:25eV
FILENAME=hmdb_intermediate.mgf
SEQ=*..*
IONMODE=Negative
ORGANISM=HMDB
NAME=HMDB:HMDB00639-874 Galactaric acid M-H
PI=HMDB
DATACOLLECTOR=HMDB
SMILES=O[C@@H]([C@@H](O)[C@H](O)C(O)=O)[C@@H](O)C(O)=O
INCHI=InChI=1S/C6H10O8/c7-1(3(9)5(11)12)2(8)4(10)6(13)14/h1-4,7-10H,(H,11,12)(H,13,14)/t1-,2+,3+,4-
INCHIAUX=N/A
PUBMED=N/A
SUBMITUSER=mwang87
TAGS=
LIBRARYQUALITY=3
SPECTRUMID=CCMSLIB00000426743
SCANS=1715
43.632 15.341 
END IONS

BEGIN IONS
PEPMASS=152.071
CHARGE=1+
MSLEVEL=2
SOURCE_INSTRUMENT=Positive-Quattro_QQQ:25eV
FILENAME=hmdb_intermediate.mgf
SEQ=*..*
IONMODE=Positive
ORGANISM=HMDB
NAME=HMDB:HMDB01859-1733 Acetaminophen M+H
PI=HMDB
DATACOLLECTOR=HMDB
SMILES=CC(=O)NC1=CC=C(O)C=C1
INCHI=InChI=1S/C8H9NO2/c1-6(10)9-7-2-4-8(11)5-3-7/h2-5,11H,1H3,(H,9,10)
INCHIAUX=N/A
PUBMED=N/A
SUBMITUSER=mwang87
TAGS=
LIBRARYQUALITY=3
SPECTRUMID=CCMSLIB00000426748
SCANS=1720
43.201 11.237 
43.577 11.054 
END IONS

BEGIN IONS
PEPMASS=153.076
CHARGE=1+
MSLEVEL=2
SOURCE_INSTRUMENT=Positive-Quattro_QQQ:10eV
FILENAME=hmdb_intermediate.mgf
SEQ=*..*
IONMODE=Positive
ORGANISM=HMDB
NAME=HMDB:HMDB00508-725 Ribitol M+H
PI=HMDB
DATACOLLECTOR=HMDB
SMILES=OC[C@H](O)[C@H](O)[C@H](O)CO
INCHI=InChI=1S/C5H12O5/c6-1-3(8)5(10)4(9)2-7/h3-10H,1-2H2/t3-,4+,5-
INCHIAUX=N/A
PUBMED=N/A
SUBMITUSER=mwang87
TAGS=
LIBRARYQUALITY=3
SPECTRUMID=CCMSLIB00000426749
SCANS=1721
43.349 6.867 
END IONS

BEGIN IONS
PEPMASS=142.027
CHARGE=1+
MSLEVEL=2
SOURCE_INSTRUMENT=Positive-Quattro_QQQ:40eV
FILENAME=hmdb_intermediate.mgf
SEQ=*..*
IONMODE=Positive
ORGANISM=HMDB
NAME=HMDB:HMDB00224-372 O-Phosphoethanolamine M+H
PI=HMDB
DATACOLLECTOR=HMDB
SMILES=NCCOP(O)(O)=O
INCHI=InChI=1S/C2H8NO4P/c3-1-2-7-8(4,5)6/h1-3H2,(H2,4,5,6)
INCHIAUX=N/A
PUBMED=N/A
SUBMITUSER=mwang87
TAGS=
LIBRARYQUALITY=3
SPECTRUMID=CCMSLIB00000426758
SCANS=1730
42.665 5.922 
44.628 100.0 
END IONS

BEGIN IONS
PEPMASS=104.071
CHARGE=1+
MSLEVEL=2
SOURCE_INSTRUMENT=Positive-Quattro_QQQ:25eV
FILENAME=hmdb_intermediate.mgf
SEQ=*..*
IONMODE=Positive
ORGANISM=HMDB
NAME=HMDB:HMDB00452-660 L-Alpha-aminobutyric acid M+H
PI=HMDB
DATACOLLECTOR=HMDB
SMILES=CC[C@H](N)C(O)=O
INCHI=InChI=1S/C4H9NO2/c1-2-3(5)4(6)7/h3H,2,5H2,1H3,(H,6,7)/t3-/m0/s1
INCHIAUX=N/A
PUBMED=N/A
SUBMITUSER=mwang87
TAGS=
LIBRARYQUALITY=3
SPECTRUMID=CCMSLIB00000426759
SCANS=1731
41.308 34.239 
43.284 21.875 
45.189 7.948 
END IONS

BEGIN IONS
PEPMASS=85.0653
CHARGE=1+
MSLEVEL=2
SOURCE_INSTRUMENT=Positive-Quattro_QQQ:25eV
FILENAME=hmdb_intermediate.mgf
SEQ=*..*
IONMODE=Positive
ORGANISM=HMDB
NAME=HMDB:HMDB01184-1452 Methyl propenyl ketone M+H
PI=HMDB
DATACOLLECTOR=HMDB
SMILES=C\C=C\C(C)=O
INCHI=InChI=1S/C5H8O/c1-3-4-5(2)6/h3-4H,1-2H3/b4-3+
INCHIAUX=N/A
PUBMED=N/A
SUBMITUSER=mwang87
TAGS=
LIBRARYQUALITY=3
SPECTRUMID=CCMSLIB00000426765
SCANS=1737
39.217 10.664 
41.241 21.79 
43.152 100.0 
45.149 17.893 
END IONS

BEGIN IONS
PEPMASS=173.081
CHARGE=1+
MSLEVEL=2
SOURCE_INSTRUMENT=Positive-Quattro_QQQ:40eV
FILENAME=hmdb_intermediate.mgf
SEQ=*..*
IONMODE=Positive
ORGANISM=HMDB
NAME=HMDB:HMDB00341-551 2-Octenedioic acid M+H
PI=HMDB
DATACOLLECTOR=HMDB
SMILES=OC(=O)CCCC\C=C\C(O)=O
INCHI=InChI=1S/C8H12O4/c9-7(10)5-3-1-2-4-6-8(11)12/h3,5H,1-2,4,6H2,(H,9,10)(H,11,12)/b5-3+
INCHIAUX=N/A
PUBMED=N/A
SUBMITUSER=mwang87
TAGS=
LIBRARYQUALITY=3
SPECTRUMID=CCMSLIB00000426767
SCANS=1739
41.0 100.0 
42.0 30.444 
43.0 35.452 
53.0 44.665 
END IONS

BEGIN IONS
PEPMASS=147.077
CHARGE=1+
MSLEVEL=2
SOURCE_INSTRUMENT=Positive-Quattro_QQQ:40eV
FILENAME=hmdb_intermediate.mgf
SEQ=*..*
IONMODE=Positive
ORGANISM=HMDB
NAME=HMDB:HMDB00641-881 L-Glutamine M+H
PI=HMDB
DATACOLLECTOR=HMDB
SMILES=N[C@@H](CCC(N)=O)C(O)=O
INCHI=InChI=1S/C5H10N2O3/c6-3(5(9)10)1-2-4(7)8/h3H,1-2,6H2,(H2,7,8)(H,9,10)/t3-/m0/s1
INCHIAUX=N/A
PUBMED=N/A
SUBMITUSER=mwang87
TAGS=
LIBRARYQUALITY=3
SPECTRUMID=CCMSLIB00000426769
SCANS=1741
41.332 32.022 
44.22 8.989 
END IONS

BEGIN IONS
PEPMASS=80.9646
CHARGE=1+
MSLEVEL=2
SOURCE_INSTRUMENT=Positive-Quattro_QQQ:25eV
FILENAME=hmdb_intermediate.mgf
SEQ=*..*
IONMODE=Positive
ORGANISM=HMDB
NAME=HMDB:HMDB00240-407 Sulfite M+H
PI=HMDB
DATACOLLECTOR=HMDB
SMILES=[O-]S([O-])=O
INCHI=InChI=1S/H2O3S/c1-4(2)3/h(H2,1,2,3)/p-2
INCHIAUX=N/A
PUBMED=N/A
SUBMITUSER=mwang87
TAGS=
LIBRARYQUALITY=3
SPECTRUMID=CCMSLIB00000426773
SCANS=1745
51.044 45.946 
END IONS

BEGIN IONS
PEPMASS=293.248
CHARGE=1+
MSLEVEL=2
SOURCE_INSTRUMENT=Positive-Quattro_QQQ:40eV
FILENAME=hmdb_intermediate.mgf
SEQ=*..*
IONMODE=Positive
ORGANISM=HMDB
NAME=HMDB:HMDB00493-715 5a-Androstane-3b,17b-diol M+H
PI=HMDB
DATACOLLECTOR=HMDB
SMILES=[H][C@@]12CC[C@H](O)[C@@]1(C)CC[C@@]1([H])[C@@]2([H])CC[C@@]2([H])C[C@@H](O)CC[C@]12C
INCHI=InChI=1S/C19H32O2/c1-18-9-7-13(20)11-12(18)3-4-14-15-5-6-17(21)19(15,2)10-8-16(14)18/h12-17,20-21H,3-11H2,1-2H3/t12-,13-,14-,15-,16-,17-,18-,19-/m0/s1
INCHIAUX=N/A
PUBMED=N/A
SUBMITUSER=mwang87
TAGS=
LIBRARYQUALITY=3
SPECTRUMID=CCMSLIB00000426774
SCANS=1746
53.423 10.39 
END IONS

BEGIN IONS
PEPMASS=229.082
CHARGE=1+
MSLEVEL=2
SOURCE_INSTRUMENT=Positive-Quattro_QQQ:40eV
FILENAME=hmdb_intermediate.mgf
SEQ=*..*
IONMODE=Positive
ORGANISM=HMDB
NAME=HMDB:HMDB00012-21 Deoxyuridine M+H
PI=HMDB
DATACOLLECTOR=HMDB
SMILES=OC[C@H]1O[C@H](C[C@@H]1O)N1C=CC(=O)NC1=O
INCHI=InChI=1S/C9H12N2O5/c12-4-6-5(13)3-8(16-6)11-2-1-7(14)10-9(11)15/h1-2,5-6,8,12-13H,3-4H2,(H,10,14,15)/t5-,6+,8+/m0/s1
INCHIAUX=N/A
PUBMED=N/A
SUBMITUSER=mwang87
TAGS=
LIBRARYQUALITY=3
SPECTRUMID=CCMSLIB00000426775
SCANS=1747
41.396 21.816 
43.356 74.057 
45.323 70.755 
53.262 16.627 
END IONS

BEGIN IONS
PEPMASS=137.024
CHARGE=1+
MSLEVEL=2
SOURCE_INSTRUMENT=Negative-Quattro_QQQ:40eV
FILENAME=hmdb_intermediate.mgf
SEQ=*..*
IONMODE=Negative
ORGANISM=HMDB
NAME=HMDB:HMDB01895-1812 Salicylic acid M-H
PI=HMDB
DATACOLLECTOR=HMDB
SMILES=OC(=O)C1=CC=CC=C1O
INCHI=InChI=1S/C7H6O3/c8-6-4-2-1-3-5(6)7(9)10/h1-4,8H,(H,9,10)
INCHIAUX=N/A
PUBMED=N/A
SUBMITUSER=mwang87
TAGS=
LIBRARYQUALITY=3
SPECTRUMID=CCMSLIB00000426778
SCANS=1750
53.406 19.354 
END IONS

BEGIN IONS
PEPMASS=90.0555
CHARGE=1+
MSLEVEL=2
SOURCE_INSTRUMENT=Positive-Quattro_QQQ:10eV
FILENAME=hmdb_intermediate.mgf
SEQ=*..*
IONMODE=Positive
ORGANISM=HMDB
NAME=HMDB:HMDB00161-251 L-Alanine M+H
PI=HMDB
DATACOLLECTOR=HMDB
SMILES=C[C@H](N)C(O)=O
INCHI=InChI=1S/C3H7NO2/c1-2(4)3(5)6/h2H,4H2,1H3,(H,5,6)/t2-/m0/s1
INCHIAUX=N/A
PUBMED=N/A
SUBMITUSER=mwang87
TAGS=
LIBRARYQUALITY=3
SPECTRUMID=CCMSLIB00000426780
SCANS=1752
44.286 100.0 
END IONS

BEGIN IONS
PEPMASS=220.118
CHARGE=1+
MSLEVEL=2
SOURCE_INSTRUMENT=Positive-Quattro_QQQ:40eV
FILENAME=hmdb_intermediate.mgf
SEQ=*..*
IONMODE=Positive
ORGANISM=HMDB
NAME=HMDB:HMDB00210-342 Pantothenic acid M+H
PI=HMDB
DATACOLLECTOR=HMDB
SMILES=CC(C)(CO)C(O)C(=O)NCCC(O)=O
INCHI=InChI=1S/C9H17NO5/c1-9(2,5-11)7(14)8(15)10-4-3-6(12)13/h7,11,14H,3-5H2,1-2H3,(H,10,15)(H,12,13)
INCHIAUX=N/A
PUBMED=N/A
SUBMITUSER=mwang87
TAGS=
LIBRARYQUALITY=3
SPECTRUMID=CCMSLIB00000426783
SCANS=1755
41.366 62.162 
42.459 12.782 
43.279 66.667 
45.277 15.09 
END IONS

BEGIN IONS
PEPMASS=148.061
CHARGE=1+
MSLEVEL=2
SOURCE_INSTRUMENT=Positive-Quattro_QQQ:40eV
FILENAME=hmdb_intermediate.mgf
SEQ=*..*
IONMODE=Positive
ORGANISM=HMDB
NAME=HMDB:HMDB02393-2100 N-Methyl-D-aspartic acid M+H
PI=HMDB
DATACOLLECTOR=HMDB
SMILES=CN[C@H](CC(O)=O)C(O)=O
INCHI=InChI=1S/C5H9NO4/c1-6-3(5(9)10)2-4(7)8/h3,6H,2H2,1H3,(H,7,8)(H,9,10)/t3-/m1/s1
INCHIAUX=N/A
PUBMED=N/A
SUBMITUSER=mwang87
TAGS=
LIBRARYQUALITY=3
SPECTRUMID=CCMSLIB00000426784
SCANS=1756
42.0 100.0 
43.0 2.097 
44.0 4.42 
END IONS

BEGIN IONS
PEPMASS=118.98
CHARGE=1+
MSLEVEL=2
SOURCE_INSTRUMENT=Negative-Quattro_QQQ:40eV
FILENAME=hmdb_intermediate.mgf
SEQ=*..*
IONMODE=Negative
ORGANISM=HMDB
NAME=HMDB:HMDB01368-1536 3-Mercaptopyruvic acid M-H
PI=HMDB
DATACOLLECTOR=HMDB
SMILES=OC(=O)C(=O)CS
INCHI=InChI=1S/C3H4O3S/c4-2(1-7)3(5)6/h7H,1H2,(H,5,6)
INCHIAUX=N/A
PUBMED=N/A
SUBMITUSER=mwang87
TAGS=
LIBRARYQUALITY=3
SPECTRUMID=CCMSLIB00000426785
SCANS=1757
33.0 100.0 
END IONS

BEGIN IONS
PEPMASS=89.0603
CHARGE=1+
MSLEVEL=2
SOURCE_INSTRUMENT=Positive-Quattro_QQQ:25eV
FILENAME=hmdb_intermediate.mgf
SEQ=*..*
IONMODE=Positive
ORGANISM=HMDB
NAME=HMDB:HMDB01873-1763 Isobutyric acid M+H
PI=HMDB
DATACOLLECTOR=HMDB
SMILES=CC(C)C(O)=O
INCHI=InChI=1S/C4H8O2/c1-3(2)4(5)6/h3H,1-2H3,(H,5,6)
INCHIAUX=N/A
PUBMED=N/A
SUBMITUSER=mwang87
TAGS=
LIBRARYQUALITY=3
SPECTRUMID=CCMSLIB00000426788
SCANS=1760
53.282 9.654 
END IONS

BEGIN IONS
PEPMASS=118.087
CHARGE=1+
MSLEVEL=2
SOURCE_INSTRUMENT=Positive-Quattro_QQQ:40eV
FILENAME=hmdb_intermediate.mgf
SEQ=*..*
IONMODE=Positive
ORGANISM=HMDB
NAME=HMDB:HMDB00883-1246 L-Valine M+H
PI=HMDB
DATACOLLECTOR=HMDB
SMILES=CC(C)[C@H](N)C(O)=O
INCHI=InChI=1S/C5H11NO2/c1-3(2)4(6)5(7)8/h3-4H,6H2,1-2H3,(H,7,8)/t4-/m0/s1
INCHIAUX=N/A
PUBMED=N/A
SUBMITUSER=mwang87
TAGS=
LIBRARYQUALITY=3
SPECTRUMID=CCMSLIB00000426789
SCANS=1761
41.274 21.127 
42.398 20.423 
45.121 23.592 
53.244 6.866 
END IONS

BEGIN IONS
PEPMASS=61.0653
CHARGE=1+
MSLEVEL=2
SOURCE_INSTRUMENT=Positive-Quattro_QQQ:40eV
FILENAME=hmdb_intermediate.mgf
SEQ=*..*
IONMODE=Positive
ORGANISM=HMDB
NAME=HMDB:HMDB00863-1219 Isopropyl alcohol M+H
PI=HMDB
DATACOLLECTOR=HMDB
SMILES=CC(C)O
INCHI=InChI=1S/C3H8O/c1-3(2)4/h3-4H,1-2H3
INCHIAUX=N/A
PUBMED=N/A
SUBMITUSER=mwang87
TAGS=
LIBRARYQUALITY=3
SPECTRUMID=CCMSLIB00000426791
SCANS=1763
15.0 46.371 
END IONS

BEGIN IONS
PEPMASS=157.014
CHARGE=1+
MSLEVEL=2
SOURCE_INSTRUMENT=Positive-Quattro_QQQ:40eV
FILENAME=hmdb_intermediate.mgf
SEQ=*..*
IONMODE=Positive
ORGANISM=HMDB
NAME=HMDB:HMDB04812-2405 2,5-Furandicarboxylic acid M+H
PI=HMDB
DATACOLLECTOR=HMDB
SMILES=OC(=O)C1=CC=C(O1)C(O)=O
INCHI=InChI=1S/C6H4O5/c7-5(8)3-1-2-4(11-3)6(9)10/h1-2H,(H,7,8)(H,9,10)
INCHIAUX=N/A
PUBMED=N/A
SUBMITUSER=mwang87
TAGS=
LIBRARYQUALITY=3
SPECTRUMID=CCMSLIB00000426792
SCANS=1764
39.41 100.0 
END IONS

BEGIN IONS
PEPMASS=59.0497
CHARGE=1+
MSLEVEL=2
SOURCE_INSTRUMENT=Positive-Quattro_QQQ:25eV
FILENAME=hmdb_intermediate.mgf
SEQ=*..*
IONMODE=Positive
ORGANISM=HMDB
NAME=HMDB:HMDB01659-1673 Acetone M+H
PI=HMDB
DATACOLLECTOR=HMDB
SMILES=CC(C)=O
INCHI=InChI=1S/C3H6O/c1-3(2)4/h1-2H3
INCHIAUX=N/A
PUBMED=N/A
SUBMITUSER=mwang87
TAGS=
LIBRARYQUALITY=3
SPECTRUMID=CCMSLIB00000426796
SCANS=1768
31.0 75.617 
39.0 17.61 
41.0 16.662 
42.0 73.75 
43.0 100.0 
44.0 18.163 
END IONS

BEGIN IONS
PEPMASS=126.022
CHARGE=1+
MSLEVEL=2
SOURCE_INSTRUMENT=Positive-Quattro_QQQ:40eV
FILENAME=hmdb_intermediate.mgf
SEQ=*..*
IONMODE=Positive
ORGANISM=HMDB
NAME=HMDB:HMDB00251-432 Taurine M+H
PI=HMDB
DATACOLLECTOR=HMDB
SMILES=NCCS(O)(=O)=O
INCHI=InChI=1S/C2H7NO3S/c3-1-2-7(4,5)6/h1-3H2,(H,4,5,6)
INCHIAUX=N/A
PUBMED=N/A
SUBMITUSER=mwang87
TAGS=
LIBRARYQUALITY=3
SPECTRUMID=CCMSLIB00000426800
SCANS=1772
42.362 8.929 
44.259 100.0 
45.414 26.471 
END IONS

BEGIN IONS
PEPMASS=163.061
CHARGE=1+
MSLEVEL=2
SOURCE_INSTRUMENT=Positive-Quattro_QQQ:40eV
FILENAME=hmdb_intermediate.mgf
SEQ=*..*
IONMODE=Positive
ORGANISM=HMDB
NAME=HMDB:HMDB00640-878 Levoglucosan M+H
PI=HMDB
DATACOLLECTOR=HMDB
SMILES=[H][C@@]12OC[C@@H](O1)[C@@H](O)[C@H](O)[C@H]2O
INCHI=InChI=1S/C6H10O5/c7-3-2-1-10-6(11-2)5(9)4(3)8/h2-9H,1H2/t2-,3-,4+,5-,6-/m1/s1
INCHIAUX=N/A
PUBMED=N/A
SUBMITUSER=mwang87
TAGS=
LIBRARYQUALITY=3
SPECTRUMID=CCMSLIB00000426801
SCANS=1773
41.396 97.03 
43.356 100.0 
45.331 72.277 
53.302 27.97 
END IONS

BEGIN IONS
PEPMASS=104.071
CHARGE=1+
MSLEVEL=2
SOURCE_INSTRUMENT=Positive-Quattro_QQQ:25eV
FILENAME=hmdb_intermediate.mgf
SEQ=*..*
IONMODE=Positive
ORGANISM=HMDB
NAME=HMDB:HMDB00650-886 D-Alpha-aminobutyric acid M+H
PI=HMDB
DATACOLLECTOR=HMDB
SMILES=CC[C@@H](N)C(O)=O
INCHI=InChI=1S/C4H9NO2/c1-2-3(5)4(6)7/h3H,2,5H2,1H3,(H,6,7)/t3-/m1/s1
INCHIAUX=N/A
PUBMED=N/A
SUBMITUSER=mwang87
TAGS=
LIBRARYQUALITY=3
SPECTRUMID=CCMSLIB00000426804
SCANS=1776
41.332 36.735 
43.299 23.469 
45.204 8.036 
END IONS

BEGIN IONS
PEPMASS=132.077
CHARGE=1+
MSLEVEL=2
SOURCE_INSTRUMENT=Positive-Quattro_QQQ:10eV
FILENAME=hmdb_intermediate.mgf
SEQ=*..*
IONMODE=Positive
ORGANISM=HMDB
NAME=HMDB:HMDB00064-105 Creatine M+H
PI=HMDB
DATACOLLECTOR=HMDB
SMILES=CN(CC(O)=O)C(N)=N
INCHI=InChI=1S/C4H9N3O2/c1-7(4(5)6)2-3(8)9/h2H2,1H3,(H3,5,6)(H,8,9)
INCHIAUX=N/A
PUBMED=N/A
SUBMITUSER=mwang87
TAGS=
LIBRARYQUALITY=3
SPECTRUMID=CCMSLIB00000426805
SCANS=1777
44.202 12.97 
END IONS

BEGIN IONS
PEPMASS=132.102
CHARGE=1+
MSLEVEL=2
SOURCE_INSTRUMENT=Positive-Quattro_QQQ:10eV
FILENAME=hmdb_intermediate.mgf
SEQ=*..*
IONMODE=Positive
ORGANISM=HMDB
NAME=HMDB:HMDB00557-779 L-Alloisoleucine M+H
PI=HMDB
DATACOLLECTOR=HMDB
SMILES=CC[C@@H](C)[C@H](N)C(O)=O
INCHI=InChI=1S/C6H13NO2/c1-3-4(2)5(7)6(8)9/h4-5H,3,7H2,1-2H3,(H,8,9)/t4-,5+/m1/s1
INCHIAUX=N/A
PUBMED=N/A
SUBMITUSER=mwang87
TAGS=
LIBRARYQUALITY=3
SPECTRUMID=CCMSLIB00000426809
SCANS=1781
44.335 6.337 
END IONS

BEGIN IONS
PEPMASS=175.061
CHARGE=1+
MSLEVEL=2
SOURCE_INSTRUMENT=Negative-Quattro_QQQ:25eV
FILENAME=hmdb_intermediate.mgf
SEQ=*..*
IONMODE=Negative
ORGANISM=HMDB
NAME=HMDB:HMDB00402-610 2-Isopropylmalic acid M-H
PI=HMDB
DATACOLLECTOR=HMDB
SMILES=CC(C)[C@@](O)(CC(O)=O)C(O)=O
INCHI=InChI=1S/C7H12O5/c1-4(2)7(12,6(10)11)3-5(8)9/h4,12H,3H2,1-2H3,(H,8,9)(H,10,11)/t7-/m0/s1
INCHIAUX=N/A
PUBMED=N/A
SUBMITUSER=mwang87
TAGS=
LIBRARYQUALITY=3
SPECTRUMID=CCMSLIB00000426812
SCANS=1784
45.58 9.968 
END IONS

BEGIN IONS
PEPMASS=397.347
CHARGE=1+
MSLEVEL=2
SOURCE_INSTRUMENT=Positive-Quattro_QQQ:25eV
FILENAME=hmdb_intermediate.mgf
SEQ=*..*
IONMODE=Positive
ORGANISM=HMDB
NAME=HMDB:HMDB00878-1239 Ergosterol M+H
PI=HMDB
DATACOLLECTOR=HMDB
SMILES=CC(C)[C@@H](C)\C=C\[C@@H](C)C1CCC2C3=CC=C4C[C@@H](O)CC[C@]4(C)C3CC[C@]12C
INCHI=InChI=1S/C28H44O/c1-18(2)19(3)7-8-20(4)24-11-12-25-23-10-9-21-17-22(29)13-15-27(21,5)26(23)14-16-28(24,25)6/h7-10,18-20,22,24-26,29H,11-17H2,1-6H3/b8-7+/t19-,20+,22-,24?,25?,26?,27-,28+/m0/s1
INCHIAUX=N/A
PUBMED=N/A
SUBMITUSER=mwang87
TAGS=
LIBRARYQUALITY=3
SPECTRUMID=CCMSLIB00000426813
SCANS=1785
43.361 40.553 
END IONS

BEGIN IONS
PEPMASS=261.038
CHARGE=1+
MSLEVEL=2
SOURCE_INSTRUMENT=Positive-Quattro_QQQ:40eV
FILENAME=hmdb_intermediate.mgf
SEQ=*..*
IONMODE=Positive
ORGANISM=HMDB
NAME=HMDB:HMDB00124-185 Fructose 6-phosphate M+H
PI=HMDB
DATACOLLECTOR=HMDB
SMILES=OCC(=O)[C@@H](O)[C@H](O)[C@H](O)COP(O)(O)=O
INCHI=InChI=1S/C6H13O9P/c7-1-3(8)5(10)6(11)4(9)2-15-16(12,13)14/h4-7,9-11H,1-2H2,(H2,12,13,14)/t4-,5-,6-/m1/s1
INCHIAUX=N/A
PUBMED=N/A
SUBMITUSER=mwang87
TAGS=
LIBRARYQUALITY=3
SPECTRUMID=CCMSLIB00000426817
SCANS=1789
52.346 78.338 
END IONS

BEGIN IONS
PEPMASS=189.124
CHARGE=1+
MSLEVEL=2
SOURCE_INSTRUMENT=Positive-Quattro_QQQ:40eV
FILENAME=hmdb_intermediate.mgf
SEQ=*..*
IONMODE=Positive
ORGANISM=HMDB
NAME=HMDB:HMDB00759-1091 Glycyl-L-leucine M+H
PI=HMDB
DATACOLLECTOR=HMDB
SMILES=CC(C)C[C@H](NC(=O)CN)C(O)=O
INCHI=InChI=1S/C8H16N2O3/c1-5(2)3-6(8(12)13)10-7(11)4-9/h5-6H,3-4,9H2,1-2H3,(H,10,11)(H,12,13)/t6-/m0/s1
INCHIAUX=N/A
PUBMED=N/A
SUBMITUSER=mwang87
TAGS=
LIBRARYQUALITY=3
SPECTRUMID=CCMSLIB00000426821
SCANS=1793
43.376 82.051 
44.414 55.769 
END IONS

BEGIN IONS
PEPMASS=163.076
CHARGE=1+
MSLEVEL=2
SOURCE_INSTRUMENT=Negative-Quattro_QQQ:25eV
FILENAME=hmdb_intermediate.mgf
SEQ=*..*
IONMODE=Negative
ORGANISM=HMDB
NAME=HMDB:HMDB00543-762 Benzenebutanoic acid M-H
PI=HMDB
DATACOLLECTOR=HMDB
SMILES=OC(=O)CCCC1=CC=CC=C1
INCHI=InChI=1S/C10H12O2/c11-10(12)8-4-7-9-5-2-1-3-6-9/h1-3,5-6H,4,7-8H2,(H,11,12)
INCHIAUX=N/A
PUBMED=N/A
SUBMITUSER=mwang87
TAGS=
LIBRARYQUALITY=3
SPECTRUMID=CCMSLIB00000426826
SCANS=1798
41.659 3.519 
END IONS

BEGIN IONS
PEPMASS=176.056
CHARGE=1+
MSLEVEL=2
SOURCE_INSTRUMENT=Positive-Quattro_QQQ:40eV
FILENAME=hmdb_intermediate.mgf
SEQ=*..*
IONMODE=Positive
ORGANISM=HMDB
NAME=HMDB:HMDB00812-1163 N-Acetyl-L-aspartic acid M+H
PI=HMDB
DATACOLLECTOR=HMDB
SMILES=CC(=O)N[C@@H](CC(O)=O)C(O)=O
INCHI=InChI=1S/C6H9NO5/c1-3(8)7-4(6(11)12)2-5(9)10/h4H,2H2,1H3,(H,7,8)(H,9,10)(H,11,12)/t4-/m0/s1
INCHIAUX=N/A
PUBMED=N/A
SUBMITUSER=mwang87
TAGS=
LIBRARYQUALITY=3
SPECTRUMID=CCMSLIB00000426830
SCANS=1802
43.292 100.0 
46.243 16.033 
END IONS

BEGIN IONS
PEPMASS=32.05
CHARGE=1+
MSLEVEL=2
SOURCE_INSTRUMENT=Positive-Quattro_QQQ:40eV
FILENAME=hmdb_intermediate.mgf
SEQ=*..*
IONMODE=Positive
ORGANISM=HMDB
NAME=HMDB:HMDB00164-262 Methylamine M+H
PI=HMDB
DATACOLLECTOR=HMDB
SMILES=CN
INCHI=InChI=1S/CH5N/c1-2/h2H2,1H3
INCHIAUX=N/A
PUBMED=N/A
SUBMITUSER=mwang87
TAGS=
LIBRARYQUALITY=3
SPECTRUMID=CCMSLIB00000426832
SCANS=1804
30.0 16.338 
31.0 37.051 
32.0 100.0 
33.0 38.892 
END IONS

BEGIN IONS
PEPMASS=186.017
CHARGE=1+
MSLEVEL=2
SOURCE_INSTRUMENT=Positive-Quattro_QQQ:40eV
FILENAME=hmdb_intermediate.mgf
SEQ=*..*
IONMODE=Positive
ORGANISM=HMDB
NAME=HMDB:HMDB00272-477 Phosphoserine M+H
PI=HMDB
DATACOLLECTOR=HMDB
SMILES=N[C@@H](COP(O)(O)=O)C(O)=O
INCHI=InChI=1S/C3H8NO6P/c4-2(3(5)6)1-10-11(7,8)9/h2H,1,4H2,(H,5,6)(H2,7,8,9)/t2-/m0/s1
INCHIAUX=N/A
PUBMED=N/A
SUBMITUSER=mwang87
TAGS=
LIBRARYQUALITY=3
SPECTRUMID=CCMSLIB00000426843
SCANS=1815
42.662 100.0 
43.862 4.204 
44.89 2.111 
END IONS

BEGIN IONS
PEPMASS=44.9851
CHARGE=1+
MSLEVEL=2
SOURCE_INSTRUMENT=Negative-Quattro_QQQ:25eV
FILENAME=hmdb_intermediate.mgf
SEQ=*..*
IONMODE=Negative
ORGANISM=HMDB
NAME=HMDB:HMDB02786-2132 Nitrite M-H
PI=HMDB
DATACOLLECTOR=HMDB
SMILES=[O-]N=O
INCHI=InChI=1S/HNO2/c2-1-3/h(H,2,3)/p-1
INCHIAUX=N/A
PUBMED=N/A
SUBMITUSER=mwang87
TAGS=
LIBRARYQUALITY=3
SPECTRUMID=CCMSLIB00000426848
SCANS=1820
43.0 32.309 
44.0 79.95 
45.0 100.0 
46.0 42.838 
END IONS

BEGIN IONS
PEPMASS=175.024
CHARGE=1+
MSLEVEL=2
SOURCE_INSTRUMENT=Positive-Quattro_QQQ:25eV
FILENAME=hmdb_intermediate.mgf
SEQ=*..*
IONMODE=Positive
ORGANISM=HMDB
NAME=HMDB:HMDB00958-1361 trans-Aconitic acid M+H
PI=HMDB
DATACOLLECTOR=HMDB
SMILES=OC(=O)C\C(=C/C(O)=O)C(O)=O
INCHI=InChI=1S/C6H6O6/c7-4(8)1-3(6(11)12)2-5(9)10/h1H,2H2,(H,7,8)(H,9,10)(H,11,12)/b3-1+
INCHIAUX=N/A
PUBMED=N/A
SUBMITUSER=mwang87
TAGS=
LIBRARYQUALITY=3
SPECTRUMID=CCMSLIB00000426856
SCANS=1828
41.37 100.0 
END IONS

BEGIN IONS
PEPMASS=132.066
CHARGE=1+
MSLEVEL=2
SOURCE_INSTRUMENT=Positive-Quattro_QQQ:40eV
FILENAME=hmdb_intermediate.mgf
SEQ=*..*
IONMODE=Positive
ORGANISM=HMDB
NAME=HMDB:HMDB00783-1118 Propionylglycine M+H
PI=HMDB
DATACOLLECTOR=HMDB
SMILES=CCC(=O)NCC(O)=O
INCHI=InChI=1S/C5H9NO3/c1-2-4(7)6-3-5(8)9/h2-3H2,1H3,(H,6,7)(H,8,9)
INCHIAUX=N/A
PUBMED=N/A
SUBMITUSER=mwang87
TAGS=
LIBRARYQUALITY=3
SPECTRUMID=CCMSLIB00000426858
SCANS=1830
44.649 3.926 
END IONS

BEGIN IONS
PEPMASS=241.13
CHARGE=1+
MSLEVEL=2
SOURCE_INSTRUMENT=Positive-Quattro_QQQ:40eV
FILENAME=hmdb_intermediate.mgf
SEQ=*..*
IONMODE=Positive
ORGANISM=HMDB
NAME=HMDB:HMDB00194-315 Anserine M+H
PI=HMDB
DATACOLLECTOR=HMDB
SMILES=CN1C=NC=C1C[C@H](NC(=O)CCN)C(O)=O
INCHI=InChI=1S/C10H16N4O3/c1-14-6-12-5-7(14)4-8(10(16)17)13-9(15)2-3-11/h5-6,8H,2-4,11H2,1H3,(H,13,15)(H,16,17)/t8-/m0/s1
INCHIAUX=N/A
PUBMED=N/A
SUBMITUSER=mwang87
TAGS=
LIBRARYQUALITY=3
SPECTRUMID=CCMSLIB00000426860
SCANS=1832
51.629 10.663 
END IONS

BEGIN IONS
PEPMASS=118.05
CHARGE=1+
MSLEVEL=2
SOURCE_INSTRUMENT=Positive-Quattro_QQQ:10eV
FILENAME=hmdb_intermediate.mgf
SEQ=*..*
IONMODE=Positive
ORGANISM=HMDB
NAME=HMDB:HMDB00532-752 Acetylglycine M+H
PI=HMDB
DATACOLLECTOR=HMDB
SMILES=CC(=O)NCC(O)=O
INCHI=InChI=1S/C4H7NO3/c1-3(6)5-2-4(7)8/h2H2,1H3,(H,5,6)(H,7,8)
INCHIAUX=N/A
PUBMED=N/A
SUBMITUSER=mwang87
TAGS=
LIBRARYQUALITY=3
SPECTRUMID=CCMSLIB00000426868
SCANS=1840
43.291 9.314 
48.28 3.015 
END IONS

BEGIN IONS
PEPMASS=72.0449
CHARGE=1+
MSLEVEL=2
SOURCE_INSTRUMENT=Positive-Quattro_QQQ:40eV
FILENAME=hmdb_intermediate.mgf
SEQ=*..*
IONMODE=Positive
ORGANISM=HMDB
NAME=HMDB:HMDB04296-2381 Acrylamide M+H
PI=HMDB
DATACOLLECTOR=HMDB
SMILES=NC(=O)C=C
INCHI=InChI=1S/C3H5NO/c1-2-3(4)5/h2H,1H2,(H2,4,5)
INCHIAUX=N/A
PUBMED=N/A
SUBMITUSER=mwang87
TAGS=
LIBRARYQUALITY=3
SPECTRUMID=CCMSLIB00000426874
SCANS=1846
44.15 100.0 
END IONS

BEGIN IONS
PEPMASS=141.066
CHARGE=1+
MSLEVEL=2
SOURCE_INSTRUMENT=Positive-Quattro_QQQ:25eV
FILENAME=hmdb_intermediate.mgf
SEQ=*..*
IONMODE=Positive
ORGANISM=HMDB
NAME=HMDB:HMDB02820-2141 Methylimidazoleacetic acid M+H
PI=HMDB
DATACOLLECTOR=HMDB
SMILES=CN1C=NC(CC(O)=O)=C1
INCHI=InChI=1S/C6H8N2O2/c1-8-3-5(7-4-8)2-6(9)10/h3-4H,2H2,1H3,(H,9,10)
INCHIAUX=N/A
PUBMED=N/A
SUBMITUSER=mwang87
TAGS=
LIBRARYQUALITY=3
SPECTRUMID=CCMSLIB00000426875
SCANS=1847
42.0 9.542 
END IONS

BEGIN IONS
PEPMASS=345.14
CHARGE=1+
MSLEVEL=2
SOURCE_INSTRUMENT=Positive-Quattro_QQQ:25eV
FILENAME=hmdb_intermediate.mgf
SEQ=*..*
IONMODE=Positive
ORGANISM=HMDB
NAME=HMDB:HMDB02928-2171 Maltitol M+H
PI=HMDB
DATACOLLECTOR=HMDB
SMILES=[H][C@@](O[C@H]1O[C@H](CO)[C@@H](O)[C@H](O)[C@H]1O)([C@H](O)CO)[C@H](O)[C@@H](O)CO
INCHI=InChI=1S/C12H24O11/c13-1-4(16)7(18)11(5(17)2-14)23-12-10(21)9(20)8(19)6(3-15)22-12/h4-21H,1-3H2/t4-,5+,6+,7+,8+,9-,10+,11+,12+/m0/s1
INCHIAUX=N/A
PUBMED=N/A
SUBMITUSER=mwang87
TAGS=
LIBRARYQUALITY=3
SPECTRUMID=CCMSLIB00000426880
SCANS=1852
43.0 5.414 
END IONS

BEGIN IONS
PEPMASS=152.057
CHARGE=1+
MSLEVEL=2
SOURCE_INSTRUMENT=Positive-Quattro_QQQ:40eV
FILENAME=hmdb_intermediate.mgf
SEQ=*..*
IONMODE=Positive
ORGANISM=HMDB
NAME=HMDB:HMDB00403-614 2-Hydroxyadenine M+H
PI=HMDB
DATACOLLECTOR=HMDB
SMILES=NC1=NC(O)=NC2=C1NC=N2
INCHI=InChI=1S/C5H5N5O/c6-3-2-4(8-1-7-2)10-5(11)9-3/h1H,(H4,6,7,8,9,10,11)
INCHIAUX=N/A
PUBMED=N/A
SUBMITUSER=mwang87
TAGS=
LIBRARYQUALITY=3
SPECTRUMID=CCMSLIB00000426881
SCANS=1853
40.0 9.611 
43.0 16.517 
52.0 27.119 
53.0 31.987 
END IONS

BEGIN IONS
PEPMASS=117.055
CHARGE=1+
MSLEVEL=2
SOURCE_INSTRUMENT=Positive-Quattro_QQQ:40eV
FILENAME=hmdb_intermediate.mgf
SEQ=*..*
IONMODE=Positive
ORGANISM=HMDB
NAME=HMDB:HMDB00720-1013 Levulinic acid M+H
PI=HMDB
DATACOLLECTOR=HMDB
SMILES=CC(=O)CCC(O)=O
INCHI=InChI=1S/C5H8O3/c1-4(6)2-3-5(7)8/h2-3H2,1H3,(H,7,8)
INCHIAUX=N/A
PUBMED=N/A
SUBMITUSER=mwang87
TAGS=
LIBRARYQUALITY=3
SPECTRUMID=CCMSLIB00000426882
SCANS=1854
41.235 60.55 
43.233 30.275 
END IONS

BEGIN IONS
PEPMASS=134.061
CHARGE=1+
MSLEVEL=2
SOURCE_INSTRUMENT=Positive-Quattro_QQQ:40eV
FILENAME=hmdb_intermediate.mgf
SEQ=*..*
IONMODE=Positive
ORGANISM=HMDB
NAME=HMDB:HMDB04094-2360 Indoxyl M+H
PI=HMDB
DATACOLLECTOR=HMDB
SMILES=OC1=CNC2=CC=CC=C12
INCHI=InChI=1S/C8H7NO/c10-8-5-9-7-4-2-1-3-6(7)8/h1-5,9-10H
INCHIAUX=N/A
PUBMED=N/A
SUBMITUSER=mwang87
TAGS=
LIBRARYQUALITY=3
SPECTRUMID=CCMSLIB00000426887
SCANS=1859
51.0 26.765 
END IONS

BEGIN IONS
PEPMASS=118.98
CHARGE=1+
MSLEVEL=2
SOURCE_INSTRUMENT=Negative-Quattro_QQQ:10eV
FILENAME=hmdb_intermediate.mgf
SEQ=*..*
IONMODE=Negative
ORGANISM=HMDB
NAME=HMDB:HMDB01368-1534 3-Mercaptopyruvic acid M-H
PI=HMDB
DATACOLLECTOR=HMDB
SMILES=OC(=O)C(=O)CS
INCHI=InChI=1S/C3H4O3S/c4-2(1-7)3(5)6/h7H,1H2,(H,5,6)
INCHIAUX=N/A
PUBMED=N/A
SUBMITUSER=mwang87
TAGS=
LIBRARYQUALITY=3
SPECTRUMID=CCMSLIB00000426896
SCANS=1868
33.0 100.0 
47.0 26.042 
END IONS

BEGIN IONS
PEPMASS=177.051
CHARGE=1+
MSLEVEL=2
SOURCE_INSTRUMENT=Positive-Quattro_QQQ:40eV
FILENAME=hmdb_intermediate.mgf
SEQ=*..*
IONMODE=Positive
ORGANISM=HMDB
NAME=HMDB:HMDB00828-1180 Ureidosuccinic acid M+H
PI=HMDB
DATACOLLECTOR=HMDB
SMILES=NC(=O)N[C@@H](CC(O)=O)C(O)=O
INCHI=InChI=1S/C5H8N2O5/c6-5(12)7-2(4(10)11)1-3(8)9/h2H,1H2,(H,8,9)(H,10,11)(H3,6,7,12)/t2-/m0/s1
INCHIAUX=N/A
PUBMED=N/A
SUBMITUSER=mwang87
TAGS=
LIBRARYQUALITY=3
SPECTRUMID=CCMSLIB00000426899
SCANS=1871
43.256 63.889 
44.418 9.549 
46.206 34.954 
END IONS

BEGIN IONS
PEPMASS=136.062
CHARGE=1+
MSLEVEL=2
SOURCE_INSTRUMENT=Positive-Quattro_QQQ:40eV
FILENAME=hmdb_intermediate.mgf
SEQ=*..*
IONMODE=Positive
ORGANISM=HMDB
NAME=HMDB:HMDB00034-59 Adenine M+H
PI=HMDB
DATACOLLECTOR=HMDB
SMILES=NC1=NC=NC2=C1NC=N2
INCHI=InChI=1S/C5H5N5/c6-4-3-5(9-1-7-3)10-2-8-4/h1-2H,(H3,6,7,8,9,10)
INCHIAUX=N/A
PUBMED=N/A
SUBMITUSER=mwang87
TAGS=
LIBRARYQUALITY=3
SPECTRUMID=CCMSLIB00000426906
SCANS=1878
40.341 18.148 
END IONS

BEGIN IONS
PEPMASS=153.019
CHARGE=1+
MSLEVEL=2
SOURCE_INSTRUMENT=Negative-Quattro_QQQ:40eV
FILENAME=hmdb_intermediate.mgf
SEQ=*..*
IONMODE=Negative
ORGANISM=HMDB
NAME=HMDB:HMDB00397-605 2-Pyrocatechuic acid M-H
PI=HMDB
DATACOLLECTOR=HMDB
SMILES=OC(=O)C1=CC=CC(O)=C1O
INCHI=InChI=1S/C7H6O4/c8-5-3-1-2-4(6(5)9)7(10)11/h1-3,8-9H,(H,10,11)
INCHIAUX=N/A
PUBMED=N/A
SUBMITUSER=mwang87
TAGS=
LIBRARYQUALITY=3
SPECTRUMID=CCMSLIB00000426907
SCANS=1879
41.629 12.5 
53.486 31.971 
END IONS

BEGIN IONS
PEPMASS=118.062
CHARGE=1+
MSLEVEL=2
SOURCE_INSTRUMENT=Positive-Quattro_QQQ:40eV
FILENAME=hmdb_intermediate.mgf
SEQ=*..*
IONMODE=Positive
ORGANISM=HMDB
NAME=HMDB:HMDB00128-196 Guanidoacetic acid M+H
PI=HMDB
DATACOLLECTOR=HMDB
SMILES=NC(=N)NCC(O)=O
INCHI=InChI=1S/C3H7N3O2/c4-3(5)6-1-2(7)8/h1H2,(H,7,8)(H4,4,5,6)
INCHIAUX=N/A
PUBMED=N/A
SUBMITUSER=mwang87
TAGS=
LIBRARYQUALITY=3
SPECTRUMID=CCMSLIB00000426911
SCANS=1883
43.283 100.0 
44.399 42.169 
END IONS

BEGIN IONS
PEPMASS=44.9851
CHARGE=1+
MSLEVEL=2
SOURCE_INSTRUMENT=Negative-Quattro_QQQ:40eV
FILENAME=hmdb_intermediate.mgf
SEQ=*..*
IONMODE=Negative
ORGANISM=HMDB
NAME=HMDB:HMDB02786-2133 Nitrite M-H
PI=HMDB
DATACOLLECTOR=HMDB
SMILES=[O-]N=O
INCHI=InChI=1S/HNO2/c2-1-3/h(H,2,3)/p-1
INCHIAUX=N/A
PUBMED=N/A
SUBMITUSER=mwang87
TAGS=
LIBRARYQUALITY=3
SPECTRUMID=CCMSLIB00000426912
SCANS=1884
42.0 19.887 
43.0 38.111 
44.0 100.0 
45.0 87.189 
46.0 36.028 
END IONS

BEGIN IONS
PEPMASS=176.104
CHARGE=1+
MSLEVEL=2
SOURCE_INSTRUMENT=Positive-Quattro_QQQ:40eV
FILENAME=hmdb_intermediate.mgf
SEQ=*..*
IONMODE=Positive
ORGANISM=HMDB
NAME=HMDB:HMDB00904-1288 Citrulline M+H
PI=HMDB
DATACOLLECTOR=HMDB
SMILES=N[C@@H](CCCNC(N)=O)C(O)=O
INCHI=InChI=1S/C6H13N3O3/c7-4(5(10)11)2-1-3-9-6(8)12/h4H,1-3,7H2,(H,10,11)(H3,8,9,12)/t4-/m0/s1
INCHIAUX=N/A
PUBMED=N/A
SUBMITUSER=mwang87
TAGS=
LIBRARYQUALITY=3
SPECTRUMID=CCMSLIB00000426915
SCANS=1887
41.328 2.026 
43.295 12.891 
END IONS

BEGIN IONS
PEPMASS=160.097
CHARGE=1+
MSLEVEL=2
SOURCE_INSTRUMENT=Positive-Quattro_QQQ:40eV
FILENAME=hmdb_intermediate.mgf
SEQ=*..*
IONMODE=Positive
ORGANISM=HMDB
NAME=HMDB:HMDB00678-941 Isovalerylglycine M+H
PI=HMDB
DATACOLLECTOR=HMDB
SMILES=CC(C)CC(=O)NCC(O)=O
INCHI=InChI=1S/C7H13NO3/c1-5(2)3-6(9)8-4-7(10)11/h5H,3-4H2,1-2H3,(H,8,9)(H,10,11)
INCHIAUX=N/A
PUBMED=N/A
SUBMITUSER=mwang87
TAGS=
LIBRARYQUALITY=3
SPECTRUMID=CCMSLIB00000426918
SCANS=1890
41.651 91.057 
43.63 16.667 
END IONS

BEGIN IONS
PEPMASS=75.0922
CHARGE=1+
MSLEVEL=2
SOURCE_INSTRUMENT=Positive-Quattro_QQQ:40eV
FILENAME=hmdb_intermediate.mgf
SEQ=*..*
IONMODE=Positive
ORGANISM=HMDB
NAME=HMDB:HMDB00002-6 1,3-Diaminopropane M+H
PI=HMDB
DATACOLLECTOR=HMDB
SMILES=NCCCN
INCHI=InChI=1S/C3H10N2/c4-2-1-3-5/h1-5H2
INCHIAUX=N/A
PUBMED=N/A
SUBMITUSER=mwang87
TAGS=
LIBRARYQUALITY=3
SPECTRUMID=CCMSLIB00000426922
SCANS=1894
30.35 100.0 
39.321 8.75 
41.226 15.221 
42.358 21.176 
43.381 12.794 
END IONS

BEGIN IONS
PEPMASS=123.056
CHARGE=1+
MSLEVEL=2
SOURCE_INSTRUMENT=Positive-Quattro_QQQ:25eV
FILENAME=hmdb_intermediate.mgf
SEQ=*..*
IONMODE=Positive
ORGANISM=HMDB
NAME=HMDB:HMDB01406-1560 Niacinamide M+H
PI=HMDB
DATACOLLECTOR=HMDB
SMILES=NC(=O)C1=CN=CC=C1
INCHI=InChI=1S/C6H6N2O/c7-6(9)5-2-1-3-8-4-5/h1-4H,(H2,7,9)
INCHIAUX=N/A
PUBMED=N/A
SUBMITUSER=mwang87
TAGS=
LIBRARYQUALITY=3
SPECTRUMID=CCMSLIB00000426926
SCANS=1898
53.217 30.435 
END IONS

BEGIN IONS
PEPMASS=189.135
CHARGE=1+
MSLEVEL=2
SOURCE_INSTRUMENT=Positive-Quattro_QQQ:40eV
FILENAME=hmdb_intermediate.mgf
SEQ=*..*
IONMODE=Positive
ORGANISM=HMDB
NAME=HMDB:HMDB00670-923 Homo-L-arginine M+H
PI=HMDB
DATACOLLECTOR=HMDB
SMILES=N[C@@H](CCCCNC(N)=N)C(O)=O
INCHI=InChI=1S/C7H16N4O2/c8-5(6(12)13)3-1-2-4-11-7(9)10/h5H,1-4,8H2,(H,12,13)(H4,9,10,11)/t5-/m0/s1
INCHIAUX=N/A
PUBMED=N/A
SUBMITUSER=mwang87
TAGS=
LIBRARYQUALITY=3
SPECTRUMID=CCMSLIB00000426927
SCANS=1899
41.343 23.276 
43.177 19.54 
44.41 4.544 
END IONS

BEGIN IONS
PEPMASS=137.133
CHARGE=1+
MSLEVEL=2
SOURCE_INSTRUMENT=Positive-Quattro_QQQ:25eV
FILENAME=hmdb_intermediate.mgf
SEQ=*..*
IONMODE=Positive
ORGANISM=HMDB
NAME=HMDB:HMDB04321-2383 (+)-Limonene M+H
PI=HMDB
DATACOLLECTOR=HMDB
SMILES=CC(=C)[C@@H]1CCC(C)=CC1
INCHI=InChI=1S/C10H16/c1-8(2)10-6-4-9(3)5-7-10/h4,10H,1,5-7H2,2-3H3/t10-/m0/s1
INCHIAUX=N/A
PUBMED=N/A
SUBMITUSER=mwang87
TAGS=
LIBRARYQUALITY=3
SPECTRUMID=CCMSLIB00000426928
SCANS=1900
41.0 67.323 
END IONS

BEGIN IONS
PEPMASS=101.06
CHARGE=1+
MSLEVEL=2
SOURCE_INSTRUMENT=Positive-Quattro_QQQ:40eV
FILENAME=hmdb_intermediate.mgf
SEQ=*..*
IONMODE=Positive
ORGANISM=HMDB
NAME=HMDB:HMDB01862-1743 2-Ethylacrylic acid M+H
PI=HMDB
DATACOLLECTOR=HMDB
SMILES=CCC(=C)C(O)=O
INCHI=InChI=1S/C5H8O2/c1-3-4(2)5(6)7/h2-3H2,1H3,(H,6,7)
INCHIAUX=N/A
PUBMED=N/A
SUBMITUSER=mwang87
TAGS=
LIBRARYQUALITY=3
SPECTRUMID=CCMSLIB00000426931
SCANS=1903
42.0 79.331 
44.0 100.0 
END IONS

BEGIN IONS
PEPMASS=181.071
CHARGE=1+
MSLEVEL=2
SOURCE_INSTRUMENT=Positive-Quattro_QQQ:25eV
FILENAME=hmdb_intermediate.mgf
SEQ=*..*
IONMODE=Positive
ORGANISM=HMDB
NAME=HMDB:HMDB03345-2254 Alpha-D-Glucose M+H
PI=HMDB
DATACOLLECTOR=HMDB
SMILES=OC[C@H]1O[C@H](O)[C@H](O)[C@@H](O)[C@@H]1O
INCHI=InChI=1S/C6H12O6/c7-1-2-3(8)4(9)5(10)6(11)12-2/h2-11H,1H2/t2-,3-,4+,5-,6+/m1/s1
INCHIAUX=N/A
PUBMED=N/A
SUBMITUSER=mwang87
TAGS=
LIBRARYQUALITY=3
SPECTRUMID=CCMSLIB00000426932
SCANS=1904
41.0 3.024 
END IONS

BEGIN IONS
PEPMASS=189.124
CHARGE=1+
MSLEVEL=2
SOURCE_INSTRUMENT=Positive-Quattro_QQQ:40eV
FILENAME=hmdb_intermediate.mgf
SEQ=*..*
IONMODE=Positive
ORGANISM=HMDB
NAME=HMDB:HMDB00206-333 N6-Acetyl-L-lysine M+H
PI=HMDB
DATACOLLECTOR=HMDB
SMILES=CC(=O)NCCCC[C@H](N)C(O)=O
INCHI=InChI=1S/C8H16N2O3/c1-6(11)10-5-3-2-4-7(9)8(12)13/h7H,2-5,9H2,1H3,(H,10,11)(H,12,13)/t7-/m0/s1
INCHIAUX=N/A
PUBMED=N/A
SUBMITUSER=mwang87
TAGS=
LIBRARYQUALITY=3
SPECTRUMID=CCMSLIB00000426933
SCANS=1905
43.197 8.108 
END IONS

BEGIN IONS
PEPMASS=331.227
CHARGE=1+
MSLEVEL=2
SOURCE_INSTRUMENT=Positive-Quattro_QQQ:40eV
FILENAME=hmdb_intermediate.mgf
SEQ=*..*
IONMODE=Positive
ORGANISM=HMDB
NAME=HMDB:HMDB00920-1308 11a-Hydroxyprogesterone M+H
PI=HMDB
DATACOLLECTOR=HMDB
SMILES=[H][C@@]12CCC(C(C)=O)[C@@]1(C)C[C@@H](O)[C@@]1([H])[C@@]2([H])CCC2=CC(=O)CC[C@]12C
INCHI=InChI=1S/C21H30O3/c1-12(22)16-6-7-17-15-5-4-13-10-14(23)8-9-20(13,2)19(15)18(24)11-21(16,17)3/h10,15-19,24H,4-9,11H2,1-3H3/t15-,16?,17-,18+,19+,20-,21+/m0/s1
INCHIAUX=N/A
PUBMED=N/A
SUBMITUSER=mwang87
TAGS=
LIBRARYQUALITY=3
SPECTRUMID=CCMSLIB00000426938
SCANS=1910
43.562 100.0 
END IONS

BEGIN IONS
PEPMASS=191.019
CHARGE=1+
MSLEVEL=2
SOURCE_INSTRUMENT=Negative-Quattro_QQQ:40eV
FILENAME=hmdb_intermediate.mgf
SEQ=*..*
IONMODE=Negative
ORGANISM=HMDB
NAME=HMDB:HMDB00094-146 Citric acid M-H
PI=HMDB
DATACOLLECTOR=HMDB
SMILES=OC(=O)CC(O)(CC(O)=O)C(O)=O
INCHI=InChI=1S/C6H8O7/c7-3(8)1-6(13,5(11)12)2-4(9)10/h13H,1-2H2,(H,7,8)(H,9,10)(H,11,12)
INCHIAUX=N/A
PUBMED=N/A
SUBMITUSER=mwang87
TAGS=
LIBRARYQUALITY=3
SPECTRUMID=CCMSLIB00000426939
SCANS=1911
41.374 75.658 
43.339 100.0 
END IONS

BEGIN IONS
PEPMASS=119.071
CHARGE=1+
MSLEVEL=2
SOURCE_INSTRUMENT=Positive-Quattro_QQQ:40eV
FILENAME=hmdb_intermediate.mgf
SEQ=*..*
IONMODE=Positive
ORGANISM=HMDB
NAME=HMDB:HMDB00351-566 3-Hydroxy-2-methyl-[R-(R,S)]-butanoic acid M+H
PI=HMDB
DATACOLLECTOR=HMDB
SMILES=C[C@@H](O)[C@H](C)C(O)=O
INCHI=InChI=1S/C5H10O3/c1-3(4(2)6)5(7)8/h3-4,6H,1-2H3,(H,7,8)/t3-,4+/m0/s1
INCHIAUX=N/A
PUBMED=N/A
SUBMITUSER=mwang87
TAGS=
LIBRARYQUALITY=3
SPECTRUMID=CCMSLIB00000426943
SCANS=1915
40.0 59.619 
41.0 54.457 
44.0 51.367 
45.0 100.0 
END IONS

BEGIN IONS
PEPMASS=179.056
CHARGE=1+
MSLEVEL=2
SOURCE_INSTRUMENT=Negative-Quattro_QQQ:40eV
FILENAME=hmdb_intermediate.mgf
SEQ=*..*
IONMODE=Negative
ORGANISM=HMDB
NAME=HMDB:HMDB01151-1438 Allose M-H
PI=HMDB
DATACOLLECTOR=HMDB
SMILES=[H][C@@]1(CO)OC(O)[C@@]([H])(O)[C@@]([H])(O)[C@@]1([H])O
INCHI=InChI=1S/C6H12O6/c7-1-2-3(8)4(9)5(10)6(11)12-2/h2-11H,1H2/t2-,3-,4-,5-,6?/m0/s1
INCHIAUX=N/A
PUBMED=N/A
SUBMITUSER=mwang87
TAGS=
LIBRARYQUALITY=3
SPECTRUMID=CCMSLIB00000426947
SCANS=1919
29.0 4.691 
31.0 3.48 
41.0 5.335 
43.0 11.584 
END IONS

BEGIN IONS
PEPMASS=103.04
CHARGE=1+
MSLEVEL=2
SOURCE_INSTRUMENT=Negative-Quattro_QQQ:10eV
FILENAME=hmdb_intermediate.mgf
SEQ=*..*
IONMODE=Negative
ORGANISM=HMDB
NAME=HMDB:HMDB00023-42 (S)-3-Hydroxyisobutyric acid M-H
PI=HMDB
DATACOLLECTOR=HMDB
SMILES=C[C@@H](CO)C(O)=O
INCHI=InChI=1S/C4H8O3/c1-3(2-5)4(6)7/h3,5H,2H2,1H3,(H,6,7)/t3-/m0/s1
INCHIAUX=N/A
PUBMED=N/A
SUBMITUSER=mwang87
TAGS=
LIBRARYQUALITY=3
SPECTRUMID=CCMSLIB00000426950
SCANS=1922
45.574 28.041 
END IONS

BEGIN IONS
PEPMASS=61.029
CHARGE=1+
MSLEVEL=2
SOURCE_INSTRUMENT=Positive-Quattro_QQQ:25eV
FILENAME=hmdb_intermediate.mgf
SEQ=*..*
IONMODE=Positive
ORGANISM=HMDB
NAME=HMDB:HMDB00042-70 Acetic acid M+H
PI=HMDB
DATACOLLECTOR=HMDB
SMILES=CC(O)=O
INCHI=InChI=1S/C2H4O2/c1-2(3)4/h1H3,(H,3,4)
INCHIAUX=N/A
PUBMED=N/A
SUBMITUSER=mwang87
TAGS=
LIBRARYQUALITY=3
SPECTRUMID=CCMSLIB00000426951
SCANS=1923
43.412 58.944 
44.284 59.21 
44.782 100.0 
END IONS

BEGIN IONS
PEPMASS=222.098
CHARGE=1+
MSLEVEL=2
SOURCE_INSTRUMENT=Positive-Quattro_QQQ:25eV
FILENAME=hmdb_intermediate.mgf
SEQ=*..*
IONMODE=Positive
ORGANISM=HMDB
NAME=HMDB:HMDB00212-347 N-Acetylgalactosamine M+H
PI=HMDB
DATACOLLECTOR=HMDB
SMILES=CC(=O)N[C@H]1[C@@H](O)O[C@H](CO)[C@H](O)[C@@H]1O
INCHI=InChI=1S/C8H15NO6/c1-3(11)9-5-7(13)6(12)4(2-10)15-8(5)14/h4-8,10,12-14H,2H2,1H3,(H,9,11)/t4-,5-,6+,7-,8+/m1/s1
INCHIAUX=N/A
PUBMED=N/A
SUBMITUSER=mwang87
TAGS=
LIBRARYQUALITY=3
SPECTRUMID=CCMSLIB00000426954
SCANS=1926
43.625 7.218 
END IONS

BEGIN IONS
PEPMASS=283.264
CHARGE=1+
MSLEVEL=2
SOURCE_INSTRUMENT=Positive-Quattro_QQQ:25eV
FILENAME=hmdb_intermediate.mgf
SEQ=*..*
IONMODE=Positive
ORGANISM=HMDB
NAME=HMDB:HMDB00207-335 Oleic acid M+H
PI=HMDB
DATACOLLECTOR=HMDB
SMILES=CCCCCCCC\C=C/CCCCCCCC(O)=O
INCHI=InChI=1S/C18H34O2/c1-2-3-4-5-6-7-8-9-10-11-12-13-14-15-16-17-18(19)20/h9-10H,2-8,11-17H2,1H3,(H,19,20)/b10-9-
INCHIAUX=N/A
PUBMED=N/A
SUBMITUSER=mwang87
TAGS=
LIBRARYQUALITY=3
SPECTRUMID=CCMSLIB00000426958
SCANS=1930
43.0 34.532 
END IONS

BEGIN IONS
PEPMASS=228.098
CHARGE=1+
MSLEVEL=2
SOURCE_INSTRUMENT=Positive-Quattro_QQQ:40eV
FILENAME=hmdb_intermediate.mgf
SEQ=*..*
IONMODE=Positive
ORGANISM=HMDB
NAME=HMDB:HMDB00014-24 Deoxycytidine M+H
PI=HMDB
DATACOLLECTOR=HMDB
SMILES=NC1=NC(=O)N(C=C1)[C@H]1C[C@H](O)[C@@H](CO)O1
INCHI=InChI=1S/C9H13N3O4/c10-7-1-2-12(9(15)11-7)8-3-5(14)6(4-13)16-8/h1-2,5-6,8,13-14H,3-4H2,(H2,10,11,15)/t5-,6+,8+/m0/s1
INCHIAUX=N/A
PUBMED=N/A
SUBMITUSER=mwang87
TAGS=
LIBRARYQUALITY=3
SPECTRUMID=CCMSLIB00000426959
SCANS=1931
43.333 20.906 
45.331 18.421 
END IONS

BEGIN IONS
PEPMASS=137.133
CHARGE=1+
MSLEVEL=2
SOURCE_INSTRUMENT=Positive-Quattro_QQQ:40eV
FILENAME=hmdb_intermediate.mgf
SEQ=*..*
IONMODE=Positive
ORGANISM=HMDB
NAME=HMDB:HMDB04321-2384 (+)-Limonene M+H
PI=HMDB
DATACOLLECTOR=HMDB
SMILES=CC(=C)[C@@H]1CCC(C)=CC1
INCHI=InChI=1S/C10H16/c1-8(2)10-6-4-9(3)5-7-10/h4,10H,1,5-7H2,2-3H3/t10-/m0/s1
INCHIAUX=N/A
PUBMED=N/A
SUBMITUSER=mwang87
TAGS=
LIBRARYQUALITY=3
SPECTRUMID=CCMSLIB00000426964
SCANS=1936
41.0 100.0 
42.0 84.752 
END IONS

BEGIN IONS
PEPMASS=176.067
CHARGE=1+
MSLEVEL=2
SOURCE_INSTRUMENT=Positive-Quattro_QQQ:25eV
FILENAME=hmdb_intermediate.mgf
SEQ=*..*
IONMODE=Positive
ORGANISM=HMDB
NAME=HMDB:HMDB03157-2207 Guanidinosuccinic acid M+H
PI=HMDB
DATACOLLECTOR=HMDB
SMILES=NC(=N)N[C@@H](CC(O)=O)C(O)=O
INCHI=InChI=1S/C5H9N3O4/c6-5(7)8-2(4(11)12)1-3(9)10/h2H,1H2,(H,9,10)(H,11,12)(H4,6,7,8)/t2-/m0/s1
INCHIAUX=N/A
PUBMED=N/A
SUBMITUSER=mwang87
TAGS=
LIBRARYQUALITY=3
SPECTRUMID=CCMSLIB00000426965
SCANS=1937
43.0 44.825 
44.0 15.388 
46.0 14.158 
END IONS

BEGIN IONS
PEPMASS=106.05
CHARGE=1+
MSLEVEL=2
SOURCE_INSTRUMENT=Positive-Quattro_QQQ:25eV
FILENAME=hmdb_intermediate.mgf
SEQ=*..*
IONMODE=Positive
ORGANISM=HMDB
NAME=HMDB:HMDB00187-296 L-Serine M+H
PI=HMDB
DATACOLLECTOR=HMDB
SMILES=N[C@@H](CO)C(O)=O
INCHI=InChI=1S/C3H7NO3/c4-2(1-5)3(6)7/h2,5H,1,4H2,(H,6,7)/t2-/m0/s1
INCHIAUX=N/A
PUBMED=N/A
SUBMITUSER=mwang87
TAGS=
LIBRARYQUALITY=3
SPECTRUMID=CCMSLIB00000426973
SCANS=1945
42.3 75.397 
43.408 13.095 
END IONS

BEGIN IONS
PEPMASS=73.0653
CHARGE=1+
MSLEVEL=2
SOURCE_INSTRUMENT=Positive-Quattro_QQQ:10eV
FILENAME=hmdb_intermediate.mgf
SEQ=*..*
IONMODE=Positive
ORGANISM=HMDB
NAME=HMDB:HMDB03543-2322 Butanal M+H
PI=HMDB
DATACOLLECTOR=HMDB
SMILES=CCCC=O
INCHI=InChI=1S/C4H8O/c1-2-3-4-5/h4H,2-3H2,1H3
INCHIAUX=N/A
PUBMED=N/A
SUBMITUSER=mwang87
TAGS=
LIBRARYQUALITY=3
SPECTRUMID=CCMSLIB00000426978
SCANS=1950
43.0 8.997 
END IONS

BEGIN IONS
PEPMASS=222.098
CHARGE=1+
MSLEVEL=2
SOURCE_INSTRUMENT=Positive-Quattro_QQQ:25eV
FILENAME=hmdb_intermediate.mgf
SEQ=*..*
IONMODE=Positive
ORGANISM=HMDB
NAME=HMDB:HMDB00803-1145 Beta-N-Acetylglucosamine M+H
PI=HMDB
DATACOLLECTOR=HMDB
SMILES=CC(=O)N[C@H]1[C@H](O)O[C@H](CO)[C@@H](O)[C@@H]1O
INCHI=InChI=1S/C8H15NO6/c1-3(11)9-5-7(13)6(12)4(2-10)15-8(5)14/h4-8,10,12-14H,2H2,1H3,(H,9,11)/t4-,5-,6-,7-,8-/m1/s1
INCHIAUX=N/A
PUBMED=N/A
SUBMITUSER=mwang87
TAGS=
LIBRARYQUALITY=3
SPECTRUMID=CCMSLIB00000426981
SCANS=1953
43.317 7.461 
END IONS

BEGIN IONS
PEPMASS=74.0718
CHARGE=1+
MSLEVEL=2
SOURCE_INSTRUMENT=Positive-Quattro_QQQ:40eV
FILENAME=hmdb_intermediate.mgf
SEQ=*..*
IONMODE=Positive
ORGANISM=HMDB
NAME=HMDB:HMDB01522-1624 Methylguanidine M+H
PI=HMDB
DATACOLLECTOR=HMDB
SMILES=CNC(N)=N
INCHI=InChI=1S/C2H7N3/c1-5-2(3)4/h1H3,(H4,3,4,5)
INCHIAUX=N/A
PUBMED=N/A
SUBMITUSER=mwang87
TAGS=
LIBRARYQUALITY=3
SPECTRUMID=CCMSLIB00000426982
SCANS=1954
43.193 100.0 
END IONS

BEGIN IONS
PEPMASS=89.1079
CHARGE=1+
MSLEVEL=2
SOURCE_INSTRUMENT=Positive-Quattro_QQQ:40eV
FILENAME=hmdb_intermediate.mgf
SEQ=*..*
IONMODE=Positive
ORGANISM=HMDB
NAME=HMDB:HMDB60243-1570 Putrescine M+H
PI=HMDB
DATACOLLECTOR=HMDB
SMILES=NCCCCN
INCHI=InChI=1S/C4H12N2/c5-3-1-2-4-6/h1-6H2
INCHIAUX=N/A
PUBMED=N/A
SUBMITUSER=mwang87
TAGS=
LIBRARYQUALITY=3
SPECTRUMID=CCMSLIB00000426984
SCANS=1956
41.364 13.72 
42.356 27.744 
43.425 14.482 
44.339 28.963 
END IONS

BEGIN IONS
PEPMASS=145.05
CHARGE=1+
MSLEVEL=2
SOURCE_INSTRUMENT=Negative-Quattro_QQQ:40eV
FILENAME=hmdb_intermediate.mgf
SEQ=*..*
IONMODE=Negative
ORGANISM=HMDB
NAME=HMDB:HMDB00448-655 Adipic acid M-H
PI=HMDB
DATACOLLECTOR=HMDB
SMILES=OC(=O)CCCCC(O)=O
INCHI=InChI=1S/C6H10O4/c7-5(8)3-1-2-4-6(9)10/h1-4H2,(H,7,8)(H,9,10)
INCHIAUX=N/A
PUBMED=N/A
SUBMITUSER=mwang87
TAGS=
LIBRARYQUALITY=3
SPECTRUMID=CCMSLIB00000426986
SCANS=1958
53.302 77.311 
END IONS

BEGIN IONS
PEPMASS=129.019
CHARGE=1+
MSLEVEL=2
SOURCE_INSTRUMENT=Negative-Quattro_QQQ:25eV
FILENAME=hmdb_intermediate.mgf
SEQ=*..*
IONMODE=Negative
ORGANISM=HMDB
NAME=HMDB:HMDB00634-865 Citraconic acid M-H
PI=HMDB
DATACOLLECTOR=HMDB
SMILES=C\C(=C\C(O)=O)C(O)=O
INCHI=InChI=1S/C5H6O4/c1-3(5(8)9)2-4(6)7/h2H,1H3,(H,6,7)(H,8,9)/b3-2-
INCHIAUX=N/A
PUBMED=N/A
SUBMITUSER=mwang87
TAGS=
LIBRARYQUALITY=3
SPECTRUMID=CCMSLIB00000426988
SCANS=1960
41.668 100.0 
END IONS

BEGIN IONS
PEPMASS=125.06
CHARGE=1+
MSLEVEL=2
SOURCE_INSTRUMENT=Positive-Quattro_QQQ:40eV
FILENAME=hmdb_intermediate.mgf
SEQ=*..*
IONMODE=Positive
ORGANISM=HMDB
NAME=HMDB:HMDB00873-1234 4-Methylcatechol M+H
PI=HMDB
DATACOLLECTOR=HMDB
SMILES=CC1=CC(O)=C(O)C=C1
INCHI=InChI=1S/C7H8O2/c1-5-2-3-6(8)7(9)4-5/h2-4,8-9H,1H3
INCHIAUX=N/A
PUBMED=N/A
SUBMITUSER=mwang87
TAGS=
LIBRARYQUALITY=3
SPECTRUMID=CCMSLIB00000426989
SCANS=1961
51.269 4.741 
53.252 2.759 
END IONS

BEGIN IONS
PEPMASS=173.021
CHARGE=1+
MSLEVEL=2
SOURCE_INSTRUMENT=Positive-Quattro_QQQ:40eV
FILENAME=hmdb_intermediate.mgf
SEQ=*..*
IONMODE=Positive
ORGANISM=HMDB
NAME=HMDB:HMDB00126-191 Glycerol 3-phosphate M+H
PI=HMDB
DATACOLLECTOR=HMDB
SMILES=OC[C@@H](O)COP(O)(O)=O
INCHI=InChI=1S/C3H9O6P/c4-1-3(5)2-9-10(6,7)8/h3-5H,1-2H2,(H2,6,7,8)/t3-/m1/s1
INCHIAUX=N/A
PUBMED=N/A
SUBMITUSER=mwang87
TAGS=
LIBRARYQUALITY=3
SPECTRUMID=CCMSLIB00000426991
SCANS=1963
45.0 8.165 
END IONS

BEGIN IONS
PEPMASS=140.995
CHARGE=1+
MSLEVEL=2
SOURCE_INSTRUMENT=Positive-Quattro_QQQ:40eV
FILENAME=hmdb_intermediate.mgf
SEQ=*..*
IONMODE=Positive
ORGANISM=HMDB
NAME=HMDB:HMDB01494-1615 Acetylphosphate M+H
PI=HMDB
DATACOLLECTOR=HMDB
SMILES=CC(=O)OP(O)(O)=O
INCHI=InChI=1S/C2H5O5P/c1-2(3)7-8(4,5)6/h1H3,(H2,4,5,6)
INCHIAUX=N/A
PUBMED=N/A
SUBMITUSER=mwang87
TAGS=
LIBRARYQUALITY=3
SPECTRUMID=CCMSLIB00000426997
SCANS=1969
51.0 59.986 
END IONS

BEGIN IONS
PEPMASS=175.024
CHARGE=1+
MSLEVEL=2
SOURCE_INSTRUMENT=Positive-Quattro_QQQ:25eV
FILENAME=hmdb_intermediate.mgf
SEQ=*..*
IONMODE=Positive
ORGANISM=HMDB
NAME=HMDB:HMDB00072-118 cis-Aconitic acid M+H
PI=HMDB
DATACOLLECTOR=HMDB
SMILES=OC(=O)C\C(=C\C(O)=O)C(O)=O
INCHI=InChI=1S/C6H6O6/c7-4(8)1-3(6(11)12)2-5(9)10/h1H,2H2,(H,7,8)(H,9,10)(H,11,12)/b3-1-
INCHIAUX=N/A
PUBMED=N/A
SUBMITUSER=mwang87
TAGS=
LIBRARYQUALITY=3
SPECTRUMID=CCMSLIB00000426998
SCANS=1970
41.37 100.0 
END IONS

BEGIN IONS
PEPMASS=146.082
CHARGE=1+
MSLEVEL=2
SOURCE_INSTRUMENT=Positive-Quattro_QQQ:40eV
FILENAME=hmdb_intermediate.mgf
SEQ=*..*
IONMODE=Positive
ORGANISM=HMDB
NAME=HMDB:HMDB00730-1028 Isobutyrylglycine M+H
PI=HMDB
DATACOLLECTOR=HMDB
SMILES=CC(C)C(=O)NCC(O)=O
INCHI=InChI=1S/C6H11NO3/c1-4(2)6(10)7-3-5(8)9/h4H,3H2,1-2H3,(H,7,10)(H,8,9)
INCHIAUX=N/A
PUBMED=N/A
SUBMITUSER=mwang87
TAGS=
LIBRARYQUALITY=3
SPECTRUMID=CCMSLIB00000427000
SCANS=1972
41.661 35.045 
43.624 100.0 
END IONS

BEGIN IONS
PEPMASS=103.076
CHARGE=1+
MSLEVEL=2
SOURCE_INSTRUMENT=Positive-Quattro_QQQ:25eV
FILENAME=hmdb_intermediate.mgf
SEQ=*..*
IONMODE=Positive
ORGANISM=HMDB
NAME=HMDB:HMDB00718-1006 Isovaleric acid M+H
PI=HMDB
DATACOLLECTOR=HMDB
SMILES=CC(C)CC(O)=O
INCHI=InChI=1S/C5H10O2/c1-4(2)3-5(6)7/h4H,3H2,1-2H3,(H,6,7)
INCHIAUX=N/A
PUBMED=N/A
SUBMITUSER=mwang87
TAGS=
LIBRARYQUALITY=3
SPECTRUMID=CCMSLIB00000427001
SCANS=1973
40.0 8.793 
41.0 48.267 
42.0 37.786 
43.0 100.0 
END IONS

BEGIN IONS
PEPMASS=112.937
CHARGE=1+
MSLEVEL=2
SOURCE_INSTRUMENT=Positive-Quattro_QQQ:40eV
FILENAME=hmdb_intermediate.mgf
SEQ=*..*
IONMODE=Positive
ORGANISM=HMDB
NAME=HMDB:HMDB00257-447 Thiosulfate M+H
PI=HMDB
DATACOLLECTOR=HMDB
SMILES=[O-]S([S-])(=O)=O
INCHI=InChI=1S/H2O3S2/c1-5(2,3)4/h(H2,1,2,3,4)/p-2
INCHIAUX=N/A
PUBMED=N/A
SUBMITUSER=mwang87
TAGS=
LIBRARYQUALITY=3
SPECTRUMID=CCMSLIB00000427005
SCANS=1977
52.295 20.34 
END IONS

BEGIN IONS
PEPMASS=69.0453
CHARGE=1+
MSLEVEL=2
SOURCE_INSTRUMENT=Positive-Quattro_QQQ:25eV
FILENAME=hmdb_intermediate.mgf
SEQ=*..*
IONMODE=Positive
ORGANISM=HMDB
NAME=HMDB:HMDB01525-1626 Imidazole M+H
PI=HMDB
DATACOLLECTOR=HMDB
SMILES=N1C=CN=C1
INCHI=InChI=1S/C3H4N2/c1-2-5-3-4-1/h1-3H,(H,4,5)
INCHIAUX=N/A
PUBMED=N/A
SUBMITUSER=mwang87
TAGS=
LIBRARYQUALITY=3
SPECTRUMID=CCMSLIB00000427006
SCANS=1978
42.416 24.549 
42.541 23.614 
END IONS

BEGIN IONS
PEPMASS=195.05
CHARGE=1+
MSLEVEL=2
SOURCE_INSTRUMENT=Positive-Quattro_QQQ:40eV
FILENAME=hmdb_intermediate.mgf
SEQ=*..*
IONMODE=Positive
ORGANISM=HMDB
NAME=HMDB:HMDB02545-2118 Galacturonic acid M+H
PI=HMDB
DATACOLLECTOR=HMDB
SMILES=O[C@@H](C=O)[C@@H](O)[C@@H](O)[C@H](O)C(O)=O
INCHI=InChI=1S/C6H10O7/c7-1-2(8)3(9)4(10)5(11)6(12)13/h1-5,8-11H,(H,12,13)/t2-,3+,4+,5-/m0/s1
INCHIAUX=N/A
PUBMED=N/A
SUBMITUSER=mwang87
TAGS=
LIBRARYQUALITY=3
SPECTRUMID=CCMSLIB00000427007
SCANS=1979
41.0 30.398 
END IONS

BEGIN IONS
PEPMASS=157.159
CHARGE=1+
MSLEVEL=2
SOURCE_INSTRUMENT=Positive-Quattro_QQQ:25eV
FILENAME=hmdb_intermediate.mgf
SEQ=*..*
IONMODE=Positive
ORGANISM=HMDB
NAME=HMDB:HMDB03352-2260 Menthol M+H
PI=HMDB
DATACOLLECTOR=HMDB
SMILES=CC(C)[C@@H]1CC[C@@H](C)C[C@H]1O
INCHI=InChI=1S/C10H20O/c1-7(2)9-5-4-8(3)6-10(9)11/h7-11H,4-6H2,1-3H3/t8-,9+,10-/m1/s1
INCHIAUX=N/A
PUBMED=N/A
SUBMITUSER=mwang87
TAGS=
LIBRARYQUALITY=3
SPECTRUMID=CCMSLIB00000427014
SCANS=1986
40.0 32.729 
41.0 47.122 
42.0 28.538 
43.0 36.221 
44.0 38.79 
END IONS

BEGIN IONS
PEPMASS=245.077
CHARGE=1+
MSLEVEL=2
SOURCE_INSTRUMENT=Positive-Quattro_QQQ:40eV
FILENAME=hmdb_intermediate.mgf
SEQ=*..*
IONMODE=Positive
ORGANISM=HMDB
NAME=HMDB:HMDB00296-506 Uridine M+H
PI=HMDB
DATACOLLECTOR=HMDB
SMILES=OC[C@H]1O[C@H]([C@H](O)[C@@H]1O)N1C=CC(=O)NC1=O
INCHI=InChI=1S/C9H12N2O6/c12-3-4-6(14)7(15)8(17-4)11-2-1-5(13)10-9(11)16/h1-2,4,6-8,12,14-15H,3H2,(H,10,13,16)/t4-,6-,7-,8-/m1/s1
INCHIAUX=N/A
PUBMED=N/A
SUBMITUSER=mwang87
TAGS=
LIBRARYQUALITY=3
SPECTRUMID=CCMSLIB00000427017
SCANS=1989
41.387 9.256 
43.331 18.671 
45.337 10.443 
END IONS

BEGIN IONS
PEPMASS=73.029
CHARGE=1+
MSLEVEL=2
SOURCE_INSTRUMENT=Positive-Quattro_QQQ:40eV
FILENAME=hmdb_intermediate.mgf
SEQ=*..*
IONMODE=Positive
ORGANISM=HMDB
NAME=HMDB:HMDB01167-1444 Pyruvaldehyde M+H
PI=HMDB
DATACOLLECTOR=HMDB
SMILES=CC(=O)C=O
INCHI=InChI=1S/C3H4O2/c1-3(5)2-4/h2H,1H3
INCHIAUX=N/A
PUBMED=N/A
SUBMITUSER=mwang87
TAGS=
LIBRARYQUALITY=3
SPECTRUMID=CCMSLIB00000427023
SCANS=1995
41.0 33.909 
43.0 9.903 
45.0 79.186 
END IONS

BEGIN IONS
PEPMASS=227.201
CHARGE=1+
MSLEVEL=2
SOURCE_INSTRUMENT=Negative-Quattro_QQQ:25eV
FILENAME=hmdb_intermediate.mgf
SEQ=*..*
IONMODE=Negative
ORGANISM=HMDB
NAME=HMDB:HMDB00806-1151 Myristic acid M-H
PI=HMDB
DATACOLLECTOR=HMDB
SMILES=CCCCCCCCCCCCCC(O)=O
INCHI=InChI=1S/C14H28O2/c1-2-3-4-5-6-7-8-9-10-11-12-13-14(15)16/h2-13H2,1H3,(H,15,16)
INCHIAUX=N/A
PUBMED=N/A
SUBMITUSER=mwang87
TAGS=
LIBRARYQUALITY=3
SPECTRUMID=CCMSLIB00000427026
SCANS=1998
45.335 7.974 
END IONS

BEGIN IONS
PEPMASS=173.081
CHARGE=1+
MSLEVEL=2
SOURCE_INSTRUMENT=Negative-Quattro_QQQ:40eV
FILENAME=hmdb_intermediate.mgf
SEQ=*..*
IONMODE=Negative
ORGANISM=HMDB
NAME=HMDB:HMDB00893-1258 Suberic acid M-H
PI=HMDB
DATACOLLECTOR=HMDB
SMILES=OC(=O)CCCCCCC(O)=O
INCHI=InChI=1S/C8H14O4/c9-7(10)5-3-1-2-4-6-8(11)12/h1-6H2,(H,9,10)(H,11,12)
INCHIAUX=N/A
PUBMED=N/A
SUBMITUSER=mwang87
TAGS=
LIBRARYQUALITY=3
SPECTRUMID=CCMSLIB00000427031
SCANS=2003
41.354 24.879 
53.318 28.277 
END IONS

BEGIN IONS
PEPMASS=61.0402
CHARGE=1+
MSLEVEL=2
SOURCE_INSTRUMENT=Positive-Quattro_QQQ:40eV
FILENAME=hmdb_intermediate.mgf
SEQ=*..*
IONMODE=Positive
ORGANISM=HMDB
NAME=HMDB:HMDB00294-500 Urea M+H
PI=HMDB
DATACOLLECTOR=HMDB
SMILES=NC(N)=O
INCHI=InChI=1S/CH4N2O/c2-1(3)4/h(H4,2,3,4)
INCHIAUX=N/A
PUBMED=N/A
SUBMITUSER=mwang87
TAGS=
LIBRARYQUALITY=3
SPECTRUMID=CCMSLIB00000427032
SCANS=2004
41.0 4.5 
43.0 19.73 
END IONS

BEGIN IONS
PEPMASS=60.0813
CHARGE=1+
MSLEVEL=2
SOURCE_INSTRUMENT=Positive-Quattro_QQQ:40eV
FILENAME=hmdb_intermediate.mgf
SEQ=*..*
IONMODE=Positive
ORGANISM=HMDB
NAME=HMDB:HMDB00906-1294 Trimethylamine M+H
PI=HMDB
DATACOLLECTOR=HMDB
SMILES=CN(C)C
INCHI=InChI=1S/C3H9N/c1-4(2)3/h1-3H3
INCHIAUX=N/A
PUBMED=N/A
SUBMITUSER=mwang87
TAGS=
LIBRARYQUALITY=3
SPECTRUMID=CCMSLIB00000427033
SCANS=2005
43.0 100.0 
44.0 37.26 
END IONS

BEGIN IONS
PEPMASS=146.093
CHARGE=1+
MSLEVEL=2
SOURCE_INSTRUMENT=Positive-Quattro_QQQ:40eV
FILENAME=hmdb_intermediate.mgf
SEQ=*..*
IONMODE=Positive
ORGANISM=HMDB
NAME=HMDB:HMDB03464-2321 4-Guanidinobutanoic acid M+H
PI=HMDB
DATACOLLECTOR=HMDB
SMILES=NC(N)=NCCCC(O)=O
INCHI=InChI=1S/C5H11N3O2/c6-5(7)8-3-1-2-4(9)10/h1-3H2,(H,9,10)(H4,6,7,8)
INCHIAUX=N/A
PUBMED=N/A
SUBMITUSER=mwang87
TAGS=
LIBRARYQUALITY=3
SPECTRUMID=CCMSLIB00000427037
SCANS=2009
9.0 100.0 
END IONS

BEGIN IONS
PEPMASS=174.088
CHARGE=1+
MSLEVEL=2
SOURCE_INSTRUMENT=Positive-Quattro_QQQ:25eV
FILENAME=hmdb_intermediate.mgf
SEQ=*..*
IONMODE=Positive
ORGANISM=HMDB
NAME=HMDB:HMDB04225-2374 2-Oxoarginine M+H
PI=HMDB
DATACOLLECTOR=HMDB
SMILES=NC(N)=NCCCC(=O)C(O)=O
INCHI=InChI=1S/C6H11N3O3/c7-6(8)9-3-1-2-4(10)5(11)12/h1-3H2,(H,11,12)(H4,7,8,9)
INCHIAUX=N/A
PUBMED=N/A
SUBMITUSER=mwang87
TAGS=
LIBRARYQUALITY=3
SPECTRUMID=CCMSLIB00000427038
SCANS=2010
40.96 33.526 
42.39 29.209 
END IONS

BEGIN IONS
PEPMASS=72.9926
CHARGE=1+
MSLEVEL=2
SOURCE_INSTRUMENT=Negative-Quattro_QQQ:40eV
FILENAME=hmdb_intermediate.mgf
SEQ=*..*
IONMODE=Negative
ORGANISM=HMDB
NAME=HMDB:HMDB00119-173 Glyoxylic acid M-H
PI=HMDB
DATACOLLECTOR=HMDB
SMILES=OC(=O)C=O
INCHI=InChI=1S/C2H2O3/c3-1-2(4)5/h1H,(H,4,5)
INCHIAUX=N/A
PUBMED=N/A
SUBMITUSER=mwang87
TAGS=
LIBRARYQUALITY=3
SPECTRUMID=CCMSLIB00000427044
SCANS=2016
44.292 5.112 
45.252 9.732 
END IONS

BEGIN IONS
PEPMASS=147.029
CHARGE=1+
MSLEVEL=2
SOURCE_INSTRUMENT=Negative-Quattro_QQQ:40eV
FILENAME=hmdb_intermediate.mgf
SEQ=*..*
IONMODE=Negative
ORGANISM=HMDB
NAME=HMDB:HMDB00426-631 Citramalic acid M-H
PI=HMDB
DATACOLLECTOR=HMDB
SMILES=CC(O)(CC(O)=O)C(O)=O
INCHI=InChI=1S/C5H8O5/c1-5(10,4(8)9)2-3(6)7/h10H,2H2,1H3,(H,6,7)(H,8,9)
INCHIAUX=N/A
PUBMED=N/A
SUBMITUSER=mwang87
TAGS=
LIBRARYQUALITY=3
SPECTRUMID=CCMSLIB00000427050
SCANS=2022
41.606 100.0 
43.577 42.969 
45.509 16.667 
END IONS

BEGIN IONS
PEPMASS=115.076
CHARGE=1+
MSLEVEL=2
SOURCE_INSTRUMENT=Positive-Quattro_QQQ:10eV
FILENAME=hmdb_intermediate.mgf
SEQ=*..*
IONMODE=Positive
ORGANISM=HMDB
NAME=HMDB:HMDB03843-2346 Gamma-Caprolactone M+H
PI=HMDB
DATACOLLECTOR=HMDB
SMILES=CCC1CCC(=O)O1
INCHI=InChI=1S/C6H10O2/c1-2-5-3-4-6(7)8-5/h5H,2-4H2,1H3
INCHIAUX=N/A
PUBMED=N/A
SUBMITUSER=mwang87
TAGS=
LIBRARYQUALITY=3
SPECTRUMID=CCMSLIB00000427051
SCANS=2023
42.24 57.797 
42.85 12.151 
END IONS

BEGIN IONS
PEPMASS=229.144
CHARGE=1+
MSLEVEL=2
SOURCE_INSTRUMENT=Negative-Quattro_QQQ:40eV
FILENAME=hmdb_intermediate.mgf
SEQ=*..*
IONMODE=Negative
ORGANISM=HMDB
NAME=HMDB:HMDB00623-848 Dodecanedioic acid M-H
PI=HMDB
DATACOLLECTOR=HMDB
SMILES=OC(=O)CCCCCCCCCCC(O)=O
INCHI=InChI=1S/C12H22O4/c13-11(14)9-7-5-3-1-2-4-6-8-10-12(15)16/h1-10H2,(H,13,14)(H,15,16)
INCHIAUX=N/A
PUBMED=N/A
SUBMITUSER=mwang87
TAGS=
LIBRARYQUALITY=3
SPECTRUMID=CCMSLIB00000427053
SCANS=2025
41.62 21.875 
43.607 11.172 
45.531 31.25 
END IONS

BEGIN IONS
PEPMASS=140.995
CHARGE=1+
MSLEVEL=2
SOURCE_INSTRUMENT=Positive-Quattro_QQQ:25eV
FILENAME=hmdb_intermediate.mgf
SEQ=*..*
IONMODE=Positive
ORGANISM=HMDB
NAME=HMDB:HMDB04110-2365 Phosphonoacetate M+H
PI=HMDB
DATACOLLECTOR=HMDB
SMILES=OC(=O)CP(O)(O)=O
INCHI=InChI=1S/C2H5O5P/c3-2(4)1-8(5,6)7/h1H2,(H,3,4)(H2,5,6,7)
INCHIAUX=N/A
PUBMED=N/A
SUBMITUSER=mwang87
TAGS=
LIBRARYQUALITY=3
SPECTRUMID=CCMSLIB00000427057
SCANS=2029
43.0 18.618 
47.0 5.788 
END IONS

BEGIN IONS
PEPMASS=103.04
CHARGE=1+
MSLEVEL=2
SOURCE_INSTRUMENT=Negative-Quattro_QQQ:25eV
FILENAME=hmdb_intermediate.mgf
SEQ=*..*
IONMODE=Negative
ORGANISM=HMDB
NAME=HMDB:HMDB00023-43 (S)-3-Hydroxyisobutyric acid M-H
PI=HMDB
DATACOLLECTOR=HMDB
SMILES=C[C@@H](CO)C(O)=O
INCHI=InChI=1S/C4H8O3/c1-3(2-5)4(6)7/h3,5H,2H2,1H3,(H,6,7)/t3-/m0/s1
INCHIAUX=N/A
PUBMED=N/A
SUBMITUSER=mwang87
TAGS=
LIBRARYQUALITY=3
SPECTRUMID=CCMSLIB00000427058
SCANS=2030
41.625 31.944 
45.52 49.167 
END IONS

BEGIN IONS
PEPMASS=257.175
CHARGE=1+
MSLEVEL=2
SOURCE_INSTRUMENT=Negative-Quattro_QQQ:40eV
FILENAME=hmdb_intermediate.mgf
SEQ=*..*
IONMODE=Negative
ORGANISM=HMDB
NAME=HMDB:HMDB00872-1231 Tetradecanedioic acid M-H
PI=HMDB
DATACOLLECTOR=HMDB
SMILES=OC(=O)CCCCCCCCCCCCC(O)=O
INCHI=InChI=1S/C14H26O4/c15-13(16)11-9-7-5-3-1-2-4-6-8-10-12-14(17)18/h1-12H2,(H,15,16)(H,17,18)
INCHIAUX=N/A
PUBMED=N/A
SUBMITUSER=mwang87
TAGS=
LIBRARYQUALITY=3
SPECTRUMID=CCMSLIB00000427062
SCANS=2034
41.374 12.95 
43.394 7.329 
45.313 22.662 
END IONS

BEGIN IONS
PEPMASS=32.05
CHARGE=1+
MSLEVEL=2
SOURCE_INSTRUMENT=Positive-Quattro_QQQ:25eV
FILENAME=hmdb_intermediate.mgf
SEQ=*..*
IONMODE=Positive
ORGANISM=HMDB
NAME=HMDB:HMDB00164-261 Methylamine M+H
PI=HMDB
DATACOLLECTOR=HMDB
SMILES=CN
INCHI=InChI=1S/CH5N/c1-2/h2H2,1H3
INCHIAUX=N/A
PUBMED=N/A
SUBMITUSER=mwang87
TAGS=
LIBRARYQUALITY=3
SPECTRUMID=CCMSLIB00000427064
SCANS=2036
30.0 16.427 
31.0 21.433 
32.0 100.0 
33.0 50.012 
END IONS

BEGIN IONS
PEPMASS=117.055
CHARGE=1+
MSLEVEL=2
SOURCE_INSTRUMENT=Negative-Quattro_QQQ:40eV
FILENAME=hmdb_intermediate.mgf
SEQ=*..*
IONMODE=Negative
ORGANISM=HMDB
NAME=HMDB:HMDB00407-620 2-Hydroxy-3-methylbutyric acid M-H
PI=HMDB
DATACOLLECTOR=HMDB
SMILES=CC(C)C(O)C(O)=O
INCHI=InChI=1S/C5H10O3/c1-3(2)4(6)5(7)8/h3-4,6H,1-2H3,(H,7,8)
INCHIAUX=N/A
PUBMED=N/A
SUBMITUSER=mwang87
TAGS=
LIBRARYQUALITY=3
SPECTRUMID=CCMSLIB00000427066
SCANS=2038
45.474 100.0 
END IONS

BEGIN IONS
PEPMASS=238.094
CHARGE=1+
MSLEVEL=2
SOURCE_INSTRUMENT=Positive-Quattro_QQQ:40eV
FILENAME=hmdb_intermediate.mgf
SEQ=*..*
IONMODE=Positive
ORGANISM=HMDB
NAME=HMDB:HMDB00468-682 Biopterin M+H
PI=HMDB
DATACOLLECTOR=HMDB
SMILES=C[C@H](O)[C@H](O)C1=NC2=C(NC(N)=NC2=O)N=C1
INCHI=InChI=1S/C9H11N5O3/c1-3(15)6(16)4-2-11-7-5(12-4)8(17)14-9(10)13-7/h2-3,6,15-16H,1H3,(H3,10,11,13,14,17)/t3-,6-/m0/s1
INCHIAUX=N/A
PUBMED=N/A
SUBMITUSER=mwang87
TAGS=
LIBRARYQUALITY=3
SPECTRUMID=CCMSLIB00000427072
SCANS=2044
43.277 41.346 
53.238 31.731 
END IONS

BEGIN IONS
PEPMASS=198.003
CHARGE=1+
MSLEVEL=2
SOURCE_INSTRUMENT=Positive-Quattro_QQQ:40eV
FILENAME=hmdb_intermediate.mgf
SEQ=*..*
IONMODE=Positive
ORGANISM=HMDB
NAME=HMDB:HMDB03966-2354 Selenomethionine M+H
PI=HMDB
DATACOLLECTOR=HMDB
SMILES=C[Se]CCC(N)C(O)=O
INCHI=InChI=1S/C5H11NO2Se/c1-9-3-2-4(6)5(7)8/h4H,2-3,6H2,1H3,(H,7,8)
INCHIAUX=N/A
PUBMED=N/A
SUBMITUSER=mwang87
TAGS=
LIBRARYQUALITY=3
SPECTRUMID=CCMSLIB00000427074
SCANS=2046
28.0 14.833 
29.0 4.293 
46.0 3.85 
END IONS

BEGIN IONS
PEPMASS=121.051
CHARGE=1+
MSLEVEL=2
SOURCE_INSTRUMENT=Positive-Quattro_QQQ:40eV
FILENAME=hmdb_intermediate.mgf
SEQ=*..*
IONMODE=Positive
ORGANISM=HMDB
NAME=HMDB:HMDB01366-1533 Purine M+H
PI=HMDB
DATACOLLECTOR=HMDB
SMILES=N1C=NC2=C1C=NC=N2
INCHI=InChI=1S/C5H4N4/c1-4-5(8-2-6-1)9-3-7-4/h1-3H,(H,6,7,8,9)
INCHIAUX=N/A
PUBMED=N/A
SUBMITUSER=mwang87
TAGS=
LIBRARYQUALITY=3
SPECTRUMID=CCMSLIB00000427075
SCANS=2047
52.23 17.32 
END IONS

BEGIN IONS
PEPMASS=243.16
CHARGE=1+
MSLEVEL=2
SOURCE_INSTRUMENT=Negative-Quattro_QQQ:40eV
FILENAME=hmdb_intermediate.mgf
SEQ=*..*
IONMODE=Negative
ORGANISM=HMDB
NAME=HMDB:HMDB02327-2060 1,11-Undecanedicarboxylic acid M-H
PI=HMDB
DATACOLLECTOR=HMDB
SMILES=OC(=O)CCCCCCCCCCCC(O)=O
INCHI=InChI=1S/C13H24O4/c14-12(15)10-8-6-4-2-1-3-5-7-9-11-13(16)17/h1-11H2,(H,14,15)(H,16,17)
INCHIAUX=N/A
PUBMED=N/A
SUBMITUSER=mwang87
TAGS=
LIBRARYQUALITY=3
SPECTRUMID=CCMSLIB00000427076
SCANS=2048
53.0 100.0 
END IONS

BEGIN IONS
PEPMASS=32.05
CHARGE=1+
MSLEVEL=2
SOURCE_INSTRUMENT=Positive-Quattro_QQQ:25eV
FILENAME=hmdb_intermediate.mgf
SEQ=*..*
IONMODE=Positive
ORGANISM=HMDB
NAME=HMDB:HMDB60291-261 Methylammonium M+H
PI=HMDB
DATACOLLECTOR=HMDB
SMILES=CN
INCHI=InChI=1S/CH5N/c1-2/h2H2,1H3
INCHIAUX=N/A
PUBMED=N/A
SUBMITUSER=mwang87
TAGS=
LIBRARYQUALITY=3
SPECTRUMID=CCMSLIB00000427077
SCANS=2049
30.0 16.427 
31.0 21.433 
32.0 100.0 
33.0 50.012 
END IONS

BEGIN IONS
PEPMASS=73.0653
CHARGE=1+
MSLEVEL=2
SOURCE_INSTRUMENT=Positive-Quattro_QQQ:25eV
FILENAME=hmdb_intermediate.mgf
SEQ=*..*
IONMODE=Positive
ORGANISM=HMDB
NAME=HMDB:HMDB00246-419 Tetrahydrofuran M+H
PI=HMDB
DATACOLLECTOR=HMDB
SMILES=C1CCOC1
INCHI=InChI=1S/C4H8O/c1-2-4-5-3-1/h1-4H2
INCHIAUX=N/A
PUBMED=N/A
SUBMITUSER=mwang87
TAGS=
LIBRARYQUALITY=3
SPECTRUMID=CCMSLIB00000427079
SCANS=2051
31.0 35.561 
39.0 25.658 
41.0 30.332 
43.0 84.667 
44.0 35.468 
45.0 83.895 
46.0 26.196 
53.0 24.171 
END IONS

BEGIN IONS
PEPMASS=77.0603
CHARGE=1+
MSLEVEL=2
SOURCE_INSTRUMENT=Positive-Quattro_QQQ:10eV
FILENAME=hmdb_intermediate.mgf
SEQ=*..*
IONMODE=Positive
ORGANISM=HMDB
NAME=HMDB:HMDB01881-1780 Propylene glycol M+H
PI=HMDB
DATACOLLECTOR=HMDB
SMILES=CC(O)CO
INCHI=InChI=1S/C3H8O2/c1-3(5)2-4/h3-5H,2H2,1H3
INCHIAUX=N/A
PUBMED=N/A
SUBMITUSER=mwang87
TAGS=
LIBRARYQUALITY=3
SPECTRUMID=CCMSLIB00000427080
SCANS=2052
19.759 75.106 
30.268 41.133 
31.257 48.104 
31.875 73.668 
34.472 32.39 
41.519 24.754 
END IONS

BEGIN IONS
PEPMASS=60.98
CHARGE=1+
MSLEVEL=2
SOURCE_INSTRUMENT=Negative-Quattro_QQQ:40eV
FILENAME=hmdb_intermediate.mgf
SEQ=*..*
IONMODE=Negative
ORGANISM=HMDB
NAME=HMDB:HMDB02878-2154 Nitrate M-H
PI=HMDB
DATACOLLECTOR=HMDB
SMILES=[O-][N+]([O-])=O
INCHI=InChI=1S/NO3/c2-1(3)4/q-1
INCHIAUX=N/A
PUBMED=N/A
SUBMITUSER=mwang87
TAGS=
LIBRARYQUALITY=3
SPECTRUMID=CCMSLIB00000427081
SCANS=2053
16.0 16.446 
45.0 27.127 
46.0 9.241 
END IONS

BEGIN IONS
PEPMASS=113.035
CHARGE=1+
MSLEVEL=2
SOURCE_INSTRUMENT=Positive-Quattro_QQQ:40eV
FILENAME=hmdb_intermediate.mgf
SEQ=*..*
IONMODE=Positive
ORGANISM=HMDB
NAME=HMDB:HMDB00300-512 Uracil M+H
PI=HMDB
DATACOLLECTOR=HMDB
SMILES=O=C1NC=CC(=O)N1
INCHI=InChI=1S/C4H4N2O2/c7-3-1-2-5-4(8)6-3/h1-2H,(H2,5,6,7,8)
INCHIAUX=N/A
PUBMED=N/A
SUBMITUSER=mwang87
TAGS=
LIBRARYQUALITY=3
SPECTRUMID=CCMSLIB00000427091
SCANS=2063
40.291 100.0 
42.265 46.901 
43.318 8.213 
44.177 51.446 
52.191 7.076 
53.198 12.707 
END IONS

BEGIN IONS
PEPMASS=120.066
CHARGE=1+
MSLEVEL=2
SOURCE_INSTRUMENT=Positive-Quattro_QQQ:40eV
FILENAME=hmdb_intermediate.mgf
SEQ=*..*
IONMODE=Positive
ORGANISM=HMDB
NAME=HMDB:HMDB00719-1010 L-Homoserine M+H
PI=HMDB
DATACOLLECTOR=HMDB
SMILES=N[C@@H](CCO)C(O)=O
INCHI=InChI=1S/C4H9NO3/c5-3(1-2-6)4(7)8/h3,6H,1-2,5H2,(H,7,8)/t3-/m0/s1
INCHIAUX=N/A
PUBMED=N/A
SUBMITUSER=mwang87
TAGS=
LIBRARYQUALITY=3
SPECTRUMID=CCMSLIB00000427095
SCANS=2067
44.267 65.476 
END IONS

BEGIN IONS
PEPMASS=389.378
CHARGE=1+
MSLEVEL=2
SOURCE_INSTRUMENT=Positive-Quattro_QQQ:40eV
FILENAME=hmdb_intermediate.mgf
SEQ=*..*
IONMODE=Positive
ORGANISM=HMDB
NAME=HMDB:HMDB00908-1297 5alpha-Cholestanol M+H
PI=HMDB
DATACOLLECTOR=HMDB
SMILES=[H][C@@]1(CC[C@@]2([H])[C@]3([H])CC[C@@]4([H])C[C@@H](O)CC[C@]4(C)[C@@]3([H])CC[C@]12C)[C@H](C)CCCC(C)C
INCHI=InChI=1S/C27H48O/c1-18(2)7-6-8-19(3)23-11-12-24-22-10-9-20-17-21(28)13-15-26(20,4)25(22)14-16-27(23,24)5/h18-25,28H,6-17H2,1-5H3/t19-,20+,21+,22+,23-,24+,25+,26+,27-/m1/s1
INCHIAUX=N/A
PUBMED=N/A
SUBMITUSER=mwang87
TAGS=
LIBRARYQUALITY=3
SPECTRUMID=CCMSLIB00000427098
SCANS=2070
43.0 80.92 
45.0 67.514 
46.0 71.34 
END IONS

BEGIN IONS
PEPMASS=169.05
CHARGE=1+
MSLEVEL=2
SOURCE_INSTRUMENT=Positive-Quattro_QQQ:40eV
FILENAME=hmdb_intermediate.mgf
SEQ=*..*
IONMODE=Positive
ORGANISM=HMDB
NAME=HMDB:HMDB01336-1521 3,4-Dihydroxybenzeneacetic acid M+H
PI=HMDB
DATACOLLECTOR=HMDB
SMILES=OC(=O)CC1=CC=C(O)C(O)=C1
INCHI=InChI=1S/C8H8O4/c9-6-2-1-5(3-7(6)10)4-8(11)12/h1-3,9-10H,4H2,(H,11,12)
INCHIAUX=N/A
PUBMED=N/A
SUBMITUSER=mwang87
TAGS=
LIBRARYQUALITY=3
SPECTRUMID=CCMSLIB00000427099
SCANS=2071
51.0 51.964 
END IONS

BEGIN IONS
PEPMASS=153.076
CHARGE=1+
MSLEVEL=2
SOURCE_INSTRUMENT=Positive-Quattro_QQQ:40eV
FILENAME=hmdb_intermediate.mgf
SEQ=*..*
IONMODE=Positive
ORGANISM=HMDB
NAME=HMDB:HMDB00508-727 Ribitol M+H
PI=HMDB
DATACOLLECTOR=HMDB
SMILES=OC[C@H](O)[C@H](O)[C@H](O)CO
INCHI=InChI=1S/C5H12O5/c6-1-3(8)5(10)4(9)2-7/h3-10H,1-2H2/t3-,4+,5-
INCHIAUX=N/A
PUBMED=N/A
SUBMITUSER=mwang87
TAGS=
LIBRARYQUALITY=3
SPECTRUMID=CCMSLIB00000427100
SCANS=2072
41.358 52.703 
43.326 100.0 
45.301 35.473 
53.256 16.892 
END IONS

BEGIN IONS
PEPMASS=181.071
CHARGE=1+
MSLEVEL=2
SOURCE_INSTRUMENT=Positive-Quattro_QQQ:40eV
FILENAME=hmdb_intermediate.mgf
SEQ=*..*
IONMODE=Positive
ORGANISM=HMDB
NAME=HMDB:HMDB01266-1500 L-Sorbose M+H
PI=HMDB
DATACOLLECTOR=HMDB
SMILES=OC[C@@]1(O)OC[C@H](O)[C@@H](O)[C@@H]1O
INCHI=InChI=1S/C6H12O6/c7-2-6(11)5(10)4(9)3(8)1-12-6/h3-5,7-11H,1-2H2/t3-,4+,5-,6+/m0/s1
INCHIAUX=N/A
PUBMED=N/A
SUBMITUSER=mwang87
TAGS=
LIBRARYQUALITY=3
SPECTRUMID=CCMSLIB00000427107
SCANS=2079
41.0 22.702 
45.0 51.071 
END IONS

BEGIN IONS
PEPMASS=199.17
CHARGE=1+
MSLEVEL=2
SOURCE_INSTRUMENT=Positive-Quattro_QQQ:40eV
FILENAME=hmdb_intermediate.mgf
SEQ=*..*
IONMODE=Positive
ORGANISM=HMDB
NAME=HMDB:HMDB00529-751 5-Dodecenoic acid M+H
PI=HMDB
DATACOLLECTOR=HMDB
SMILES=CCCCCC\C=C/CCCC(O)=O
INCHI=InChI=1S/C12H22O2/c1-2-3-4-5-6-7-8-9-10-11-12(13)14/h7-8H,2-6,9-11H2,1H3,(H,13,14)/b8-7-
INCHIAUX=N/A
PUBMED=N/A
SUBMITUSER=mwang87
TAGS=
LIBRARYQUALITY=3
SPECTRUMID=CCMSLIB00000427110
SCANS=2082
40.0 38.962 
41.0 99.405 
42.0 45.72 
43.0 78.195 
END IONS

BEGIN IONS
PEPMASS=89.0239
CHARGE=1+
MSLEVEL=2
SOURCE_INSTRUMENT=Negative-Quattro_QQQ:40eV
FILENAME=hmdb_intermediate.mgf
SEQ=*..*
IONMODE=Negative
ORGANISM=HMDB
NAME=HMDB:HMDB01311-1515 D-Lactic acid M-H
PI=HMDB
DATACOLLECTOR=HMDB
SMILES=C[C@@H](O)C(O)=O
INCHI=InChI=1S/C3H6O3/c1-2(4)3(5)6/h2,4H,1H3,(H,5,6)/t2-/m1/s1
INCHIAUX=N/A
PUBMED=N/A
SUBMITUSER=mwang87
TAGS=
LIBRARYQUALITY=3
SPECTRUMID=CCMSLIB00000427111
SCANS=2083
17.0 85.272 
41.0 17.554 
42.0 13.049 
43.0 60.732 
44.0 25.003 
45.0 73.685 
END IONS

BEGIN IONS
PEPMASS=167.071
CHARGE=1+
MSLEVEL=2
SOURCE_INSTRUMENT=Positive-Quattro_QQQ:40eV
FILENAME=hmdb_intermediate.mgf
SEQ=*..*
IONMODE=Positive
ORGANISM=HMDB
NAME=HMDB:HMDB00748-1067 L-3-Phenyllactic acid M+H
PI=HMDB
DATACOLLECTOR=HMDB
SMILES=O[C@H](CC1=CC=CC=C1)C(O)=O
INCHI=InChI=1S/C9H10O3/c10-8(9(11)12)6-7-4-2-1-3-5-7/h1-5,8,10H,6H2,(H,11,12)/t8-/m1/s1
INCHIAUX=N/A
PUBMED=N/A
SUBMITUSER=mwang87
TAGS=
LIBRARYQUALITY=3
SPECTRUMID=CCMSLIB00000427112
SCANS=2084
51.516 21.607 
52.905 30.169 
END IONS

BEGIN IONS
PEPMASS=174.113
CHARGE=1+
MSLEVEL=2
SOURCE_INSTRUMENT=Positive-Quattro_QQQ:40eV
FILENAME=hmdb_intermediate.mgf
SEQ=*..*
IONMODE=Positive
ORGANISM=HMDB
NAME=HMDB:HMDB00701-980 Hexanoylglycine M+H
PI=HMDB
DATACOLLECTOR=HMDB
SMILES=CCCCCC(=O)NCC(O)=O
INCHI=InChI=1S/C8H15NO3/c1-2-3-4-5-7(10)9-6-8(11)12/h2-6H2,1H3,(H,9,10)(H,11,12)
INCHIAUX=N/A
PUBMED=N/A
SUBMITUSER=mwang87
TAGS=
LIBRARYQUALITY=3
SPECTRUMID=CCMSLIB00000427113
SCANS=2085
41.67 21.961 
43.656 100.0 
END IONS

BEGIN IONS
PEPMASS=164.057
CHARGE=1+
MSLEVEL=2
SOURCE_INSTRUMENT=Positive-Quattro_QQQ:40eV
FILENAME=hmdb_intermediate.mgf
SEQ=*..*
IONMODE=Positive
ORGANISM=HMDB
NAME=HMDB:HMDB00802-1143 Pterin M+H
PI=HMDB
DATACOLLECTOR=HMDB
SMILES=NC1=NC2=NC=CN=C2C(=O)N1
INCHI=InChI=1S/C6H5N5O/c7-6-10-4-3(5(12)11-6)8-1-2-9-4/h1-2H,(H3,7,9,10,11,12)
INCHIAUX=N/A
PUBMED=N/A
SUBMITUSER=mwang87
TAGS=
LIBRARYQUALITY=3
SPECTRUMID=CCMSLIB00000427119
SCANS=2091
40.389 11.625 
42.372 27.0 
52.295 16.5 
END IONS

BEGIN IONS
PEPMASS=186.017
CHARGE=1+
MSLEVEL=2
SOURCE_INSTRUMENT=Positive-Quattro_QQQ:40eV
FILENAME=hmdb_intermediate.mgf
SEQ=*..*
IONMODE=Positive
ORGANISM=HMDB
NAME=HMDB:HMDB01721-1680 DL-O-Phosphoserine M+H
PI=HMDB
DATACOLLECTOR=HMDB
SMILES=NC(COP(O)(O)=O)C(O)=O
INCHI=InChI=1S/C3H8NO6P/c4-2(3(5)6)1-10-11(7,8)9/h2H,1,4H2,(H,5,6)(H2,7,8,9)
INCHIAUX=N/A
PUBMED=N/A
SUBMITUSER=mwang87
TAGS=
LIBRARYQUALITY=3
SPECTRUMID=CCMSLIB00000427125
SCANS=2097
42.662 100.0 
43.862 4.204 
44.89 2.111 
END IONS

BEGIN IONS
PEPMASS=73.0653
CHARGE=1+
MSLEVEL=2
SOURCE_INSTRUMENT=Positive-Quattro_QQQ:40eV
FILENAME=hmdb_intermediate.mgf
SEQ=*..*
IONMODE=Positive
ORGANISM=HMDB
NAME=HMDB:HMDB00246-420 Tetrahydrofuran M+H
PI=HMDB
DATACOLLECTOR=HMDB
SMILES=C1CCOC1
INCHI=InChI=1S/C4H8O/c1-2-4-5-3-1/h1-4H2
INCHIAUX=N/A
PUBMED=N/A
SUBMITUSER=mwang87
TAGS=
LIBRARYQUALITY=3
SPECTRUMID=CCMSLIB00000427127
SCANS=2099
31.0 69.095 
39.0 72.692 
40.0 69.427 
41.0 73.019 
42.0 69.812 
43.0 93.099 
44.0 73.782 
45.0 84.412 
END IONS

BEGIN IONS
PEPMASS=130.05
CHARGE=1+
MSLEVEL=2
SOURCE_INSTRUMENT=Positive-Quattro_QQQ:25eV
FILENAME=hmdb_intermediate.mgf
SEQ=*..*
IONMODE=Positive
ORGANISM=HMDB
NAME=HMDB:HMDB00805-1148 Pyrrolidonecarboxylic acid M+H
PI=HMDB
DATACOLLECTOR=HMDB
SMILES=OC(=O)C1CCC(=O)N1
INCHI=InChI=1S/C5H7NO3/c7-4-2-1-3(6-4)5(8)9/h3H,1-2H2,(H,6,7)(H,8,9)
INCHIAUX=N/A
PUBMED=N/A
SUBMITUSER=mwang87
TAGS=
LIBRARYQUALITY=3
SPECTRUMID=CCMSLIB00000427130
SCANS=2102
41.681 34.593 
END IONS

BEGIN IONS
PEPMASS=223.075
CHARGE=1+
MSLEVEL=2
SOURCE_INSTRUMENT=Positive-Quattro_QQQ:40eV
FILENAME=hmdb_intermediate.mgf
SEQ=*..*
IONMODE=Positive
ORGANISM=HMDB
NAME=HMDB:HMDB00455-667 Allocystathionine M+H
PI=HMDB
DATACOLLECTOR=HMDB
SMILES=N[C@@H](CCSCC(N)C(O)=O)C(O)=O
INCHI=InChI=1S/C7H14N2O4S/c8-4(6(10)11)1-2-14-3-5(9)7(12)13/h4-5H,1-3,8-9H2,(H,10,11)(H,12,13)/t4-,5?/m0/s1
INCHIAUX=N/A
PUBMED=N/A
SUBMITUSER=mwang87
TAGS=
LIBRARYQUALITY=3
SPECTRUMID=CCMSLIB00000427131
SCANS=2103
44.371 3.496 
END IONS

BEGIN IONS
PEPMASS=151.04
CHARGE=1+
MSLEVEL=2
SOURCE_INSTRUMENT=Negative-Quattro_QQQ:25eV
FILENAME=hmdb_intermediate.mgf
SEQ=*..*
IONMODE=Negative
ORGANISM=HMDB
NAME=HMDB:HMDB00020-34 p-Hydroxyphenylacetic acid M-H
PI=HMDB
DATACOLLECTOR=HMDB
SMILES=OC(=O)CC1=CC=C(O)C=C1
INCHI=InChI=1S/C8H8O3/c9-7-3-1-6(2-4-7)5-8(10)11/h1-4,9H,5H2,(H,10,11)
INCHIAUX=N/A
PUBMED=N/A
SUBMITUSER=mwang87
TAGS=
LIBRARYQUALITY=3
SPECTRUMID=CCMSLIB00000427133
SCANS=2105
45.597 9.746 
END IONS

BEGIN IONS
PEPMASS=132.081
CHARGE=1+
MSLEVEL=2
SOURCE_INSTRUMENT=Positive-Quattro_QQQ:40eV
FILENAME=hmdb_intermediate.mgf
SEQ=*..*
IONMODE=Positive
ORGANISM=HMDB
NAME=HMDB:HMDB00466-676 3-Methylindole M+H
PI=HMDB
DATACOLLECTOR=HMDB
SMILES=CC1=CNC2=C1C=CC=C2
INCHI=InChI=1S/C9H9N/c1-7-6-10-9-5-3-2-4-8(7)9/h2-6,10H,1H3
INCHIAUX=N/A
PUBMED=N/A
SUBMITUSER=mwang87
TAGS=
LIBRARYQUALITY=3
SPECTRUMID=CCMSLIB00000427134
SCANS=2106
51.184 6.156 
END IONS

BEGIN IONS
PEPMASS=69.0453
CHARGE=1+
MSLEVEL=2
SOURCE_INSTRUMENT=Positive-Quattro_QQQ:40eV
FILENAME=hmdb_intermediate.mgf
SEQ=*..*
IONMODE=Positive
ORGANISM=HMDB
NAME=HMDB:HMDB01525-1627 Imidazole M+H
PI=HMDB
DATACOLLECTOR=HMDB
SMILES=N1C=CN=C1
INCHI=InChI=1S/C3H4N2/c1-2-5-3-4-1/h1-3H,(H,4,5)
INCHIAUX=N/A
PUBMED=N/A
SUBMITUSER=mwang87
TAGS=
LIBRARYQUALITY=3
SPECTRUMID=CCMSLIB00000427140
SCANS=2112
41.42 18.012 
42.416 84.225 
42.541 85.496 
END IONS

BEGIN IONS
PEPMASS=135.029
CHARGE=1+
MSLEVEL=2
SOURCE_INSTRUMENT=Positive-Quattro_QQQ:40eV
FILENAME=hmdb_intermediate.mgf
SEQ=*..*
IONMODE=Positive
ORGANISM=HMDB
NAME=HMDB:HMDB00156-241 L-Malic acid M+H
PI=HMDB
DATACOLLECTOR=HMDB
SMILES=O[C@@H](CC(O)=O)C(O)=O
INCHI=InChI=1S/C4H6O5/c5-2(4(8)9)1-3(6)7/h2,5H,1H2,(H,6,7)(H,8,9)/t2-/m0/s1
INCHIAUX=N/A
PUBMED=N/A
SUBMITUSER=mwang87
TAGS=
LIBRARYQUALITY=3
SPECTRUMID=CCMSLIB00000427141
SCANS=2113
27.0 31.278 
29.0 38.75 
41.0 35.271 
42.0 24.594 
43.0 100.0 
44.0 25.031 
45.0 69.17 
51.0 29.104 
53.0 31.258 
END IONS

BEGIN IONS
PEPMASS=168.99
CHARGE=1+
MSLEVEL=2
SOURCE_INSTRUMENT=Positive-Quattro_QQQ:10eV
FILENAME=hmdb_intermediate.mgf
SEQ=*..*
IONMODE=Positive
ORGANISM=HMDB
NAME=HMDB:HMDB00263-457 Phosphoenolpyruvic acid M+H
PI=HMDB
DATACOLLECTOR=HMDB
SMILES=OC(=O)C(=C)OP(O)(O)=O
INCHI=InChI=1S/C3H5O6P/c1-2(3(4)5)9-10(6,7)8/h1H2,(H,4,5)(H2,6,7,8)
INCHIAUX=N/A
PUBMED=N/A
SUBMITUSER=mwang87
TAGS=
LIBRARYQUALITY=3
SPECTRUMID=CCMSLIB00000427143
SCANS=2115
43.0 6.809 
END IONS

BEGIN IONS
PEPMASS=111.045
CHARGE=1+
MSLEVEL=2
SOURCE_INSTRUMENT=Positive-Quattro_QQQ:10eV
FILENAME=hmdb_intermediate.mgf
SEQ=*..*
IONMODE=Positive
ORGANISM=HMDB
NAME=HMDB:HMDB02434-2107 Hydroquinone M+H
PI=HMDB
DATACOLLECTOR=HMDB
SMILES=OC1=CC=C(O)C=C1
INCHI=InChI=1S/C6H6O2/c7-5-1-2-6(8)4-3-5/h1-4,7-8H
INCHIAUX=N/A
PUBMED=N/A
SUBMITUSER=mwang87
TAGS=
LIBRARYQUALITY=3
SPECTRUMID=CCMSLIB00000427144
SCANS=2116
43.0 8.493 
END IONS

BEGIN IONS
PEPMASS=59.0497
CHARGE=1+
MSLEVEL=2
SOURCE_INSTRUMENT=Positive-Quattro_QQQ:25eV
FILENAME=hmdb_intermediate.mgf
SEQ=*..*
IONMODE=Positive
ORGANISM=HMDB
NAME=HMDB:HMDB03366-2272 Propanal M+H
PI=HMDB
DATACOLLECTOR=HMDB
SMILES=CCC=O
INCHI=InChI=1S/C3H6O/c1-2-3-4/h3H,2H2,1H3
INCHIAUX=N/A
PUBMED=N/A
SUBMITUSER=mwang87
TAGS=
LIBRARYQUALITY=3
SPECTRUMID=CCMSLIB00000427145
SCANS=2117
15.0 52.419 
28.0 23.528 
29.0 23.56 
30.0 25.113 
31.0 40.816 
41.0 42.577 
42.0 100.0 
43.0 72.706 
44.0 28.97 
END IONS

BEGIN IONS
PEPMASS=76.0762
CHARGE=1+
MSLEVEL=2
SOURCE_INSTRUMENT=Positive-Quattro_QQQ:25eV
FILENAME=hmdb_intermediate.mgf
SEQ=*..*
IONMODE=Positive
ORGANISM=HMDB
NAME=HMDB:HMDB00925-1313 Trimethylamine N-oxide M+H
PI=HMDB
DATACOLLECTOR=HMDB
SMILES=C[N+](C)(C)[O-]
INCHI=InChI=1S/C3H9NO/c1-4(2,3)5/h1-3H3
INCHIAUX=N/A
PUBMED=N/A
SUBMITUSER=mwang87
TAGS=
LIBRARYQUALITY=3
SPECTRUMID=CCMSLIB00000427147
SCANS=2119
42.327 5.641 
43.381 5.641 
END IONS

BEGIN IONS
PEPMASS=73.0653
CHARGE=1+
MSLEVEL=2
SOURCE_INSTRUMENT=Positive-Quattro_QQQ:10eV
FILENAME=hmdb_intermediate.mgf
SEQ=*..*
IONMODE=Positive
ORGANISM=HMDB
NAME=HMDB:HMDB00246-418 Tetrahydrofuran M+H
PI=HMDB
DATACOLLECTOR=HMDB
SMILES=C1CCOC1
INCHI=InChI=1S/C4H8O/c1-2-4-5-3-1/h1-4H2
INCHIAUX=N/A
PUBMED=N/A
SUBMITUSER=mwang87
TAGS=
LIBRARYQUALITY=3
SPECTRUMID=CCMSLIB00000427152
SCANS=2124
45.0 17.244 
END IONS

BEGIN IONS
PEPMASS=162.077
CHARGE=1+
MSLEVEL=2
SOURCE_INSTRUMENT=Positive-Quattro_QQQ:40eV
FILENAME=hmdb_intermediate.mgf
SEQ=*..*
IONMODE=Positive
ORGANISM=HMDB
NAME=HMDB:HMDB00510-733 Aminoadipic acid M+H
PI=HMDB
DATACOLLECTOR=HMDB
SMILES=NC(CCCC(O)=O)C(O)=O
INCHI=InChI=1S/C6H11NO4/c7-4(6(10)11)2-1-3-5(8)9/h4H,1-3,7H2,(H,8,9)(H,10,11)
INCHIAUX=N/A
PUBMED=N/A
SUBMITUSER=mwang87
TAGS=
LIBRARYQUALITY=3
SPECTRUMID=CCMSLIB00000427153
SCANS=2125
43.252 5.699 
END IONS

BEGIN IONS
PEPMASS=74.0606
CHARGE=1+
MSLEVEL=2
SOURCE_INSTRUMENT=Positive-Quattro_QQQ:25eV
FILENAME=hmdb_intermediate.mgf
SEQ=*..*
IONMODE=Positive
ORGANISM=HMDB
NAME=HMDB:HMDB01888-1790 N,N-Dimethylformamide M+H
PI=HMDB
DATACOLLECTOR=HMDB
SMILES=CN(C)C=O
INCHI=InChI=1S/C3H7NO/c1-4(2)3-5/h3H,1-2H3
INCHIAUX=N/A
PUBMED=N/A
SUBMITUSER=mwang87
TAGS=
LIBRARYQUALITY=3
SPECTRUMID=CCMSLIB00000427154
SCANS=2126
30.33 52.706 
31.36 74.631 
42.1 100.0 
44.14 16.769 
46.13 42.724 
END IONS

BEGIN IONS
PEPMASS=122.097
CHARGE=1+
MSLEVEL=2
SOURCE_INSTRUMENT=Positive-Quattro_QQQ:40eV
FILENAME=hmdb_intermediate.mgf
SEQ=*..*
IONMODE=Positive
ORGANISM=HMDB
NAME=HMDB:HMDB01020-1392 N,N-Dimethylaniline M+H
PI=HMDB
DATACOLLECTOR=HMDB
SMILES=CN(C)C1=CC=CC=C1
INCHI=InChI=1S/C8H11N/c1-9(2)8-6-4-3-5-7-8/h3-7H,1-2H3
INCHIAUX=N/A
PUBMED=N/A
SUBMITUSER=mwang87
TAGS=
LIBRARYQUALITY=3
SPECTRUMID=CCMSLIB00000427157
SCANS=2129
51.0 12.838 
END IONS

BEGIN IONS
PEPMASS=159.139
CHARGE=1+
MSLEVEL=2
SOURCE_INSTRUMENT=Positive-Quattro_QQQ:40eV
FILENAME=hmdb_intermediate.mgf
SEQ=*..*
IONMODE=Positive
ORGANISM=HMDB
NAME=HMDB:HMDB00798-1137 Oenanthic ether M+H
PI=HMDB
DATACOLLECTOR=HMDB
SMILES=CCCCCCC(=O)OCC
INCHI=InChI=1S/C9H18O2/c1-3-5-6-7-8-9(10)11-4-2/h3-8H2,1-2H3
INCHIAUX=N/A
PUBMED=N/A
SUBMITUSER=mwang87
TAGS=
LIBRARYQUALITY=3
SPECTRUMID=CCMSLIB00000427169
SCANS=2141
48.0 34.725 
END IONS

BEGIN IONS
PEPMASS=168.066
CHARGE=1+
MSLEVEL=2
SOURCE_INSTRUMENT=Positive-Quattro_QQQ:25eV
FILENAME=hmdb_intermediate.mgf
SEQ=*..*
IONMODE=Positive
ORGANISM=HMDB
NAME=HMDB:HMDB01545-1644 Pyridoxal M+H
PI=HMDB
DATACOLLECTOR=HMDB
SMILES=CC1=C(O)C(C=O)=C(CO)C=N1
INCHI=InChI=1S/C8H9NO3/c1-5-8(12)7(4-11)6(3-10)2-9-5/h2,4,10,12H,3H2,1H3
INCHIAUX=N/A
PUBMED=N/A
SUBMITUSER=mwang87
TAGS=
LIBRARYQUALITY=3
SPECTRUMID=CCMSLIB00000427173
SCANS=2145
53.254 13.318 
END IONS

BEGIN IONS
PEPMASS=241.032
CHARGE=1+
MSLEVEL=2
SOURCE_INSTRUMENT=Positive-Quattro_QQQ:40eV
FILENAME=hmdb_intermediate.mgf
SEQ=*..*
IONMODE=Positive
ORGANISM=HMDB
NAME=HMDB:HMDB00192-309 L-Cystine M+H
PI=HMDB
DATACOLLECTOR=HMDB
SMILES=N[C@@H](CSSC[C@H](N)C(O)=O)C(O)=O
INCHI=InChI=1S/C6H12N2O4S2/c7-3(5(9)10)1-13-14-2-4(8)6(11)12/h3-4H,1-2,7-8H2,(H,9,10)(H,11,12)/t3-,4-/m0/s1
INCHIAUX=N/A
PUBMED=N/A
SUBMITUSER=mwang87
TAGS=
LIBRARYQUALITY=3
SPECTRUMID=CCMSLIB00000427175
SCANS=2147
46.256 5.702 
48.176 5.154 
END IONS

BEGIN IONS
PEPMASS=156.077
CHARGE=1+
MSLEVEL=2
SOURCE_INSTRUMENT=Positive-Quattro_QQQ:40eV
FILENAME=hmdb_intermediate.mgf
SEQ=*..*
IONMODE=Positive
ORGANISM=HMDB
NAME=HMDB:HMDB00177-285 L-Histidine M+H
PI=HMDB
DATACOLLECTOR=HMDB
SMILES=N[C@@H](CC1=CNC=N1)C(O)=O
INCHI=InChI=1S/C6H9N3O2/c7-5(6(10)11)1-4-2-8-3-9-4/h2-3,5H,1,7H2,(H,8,9)(H,10,11)/t5-/m0/s1
INCHIAUX=N/A
PUBMED=N/A
SUBMITUSER=mwang87
TAGS=
LIBRARYQUALITY=3
SPECTRUMID=CCMSLIB00000427178
SCANS=2150
41.32 13.043 
END IONS

BEGIN IONS
PEPMASS=164.094
CHARGE=1+
MSLEVEL=2
SOURCE_INSTRUMENT=Positive-Quattro_QQQ:40eV
FILENAME=hmdb_intermediate.mgf
SEQ=*..*
IONMODE=Positive
ORGANISM=HMDB
NAME=HMDB:HMDB00473-691 6-Dimethylaminopurine M+H
PI=HMDB
DATACOLLECTOR=HMDB
SMILES=CN(C)C1=NC=NC2=C1NC=N2
INCHI=InChI=1S/C7H9N5/c1-12(2)7-5-6(9-3-8-5)10-4-11-7/h3-4H,1-2H3,(H,8,9,10,11)
INCHIAUX=N/A
PUBMED=N/A
SUBMITUSER=mwang87
TAGS=
LIBRARYQUALITY=3
SPECTRUMID=CCMSLIB00000427180
SCANS=2152
42.31 7.216 
END IONS

BEGIN IONS
PEPMASS=148.061
CHARGE=1+
MSLEVEL=2
SOURCE_INSTRUMENT=Positive-Quattro_QQQ:25eV
FILENAME=hmdb_intermediate.mgf
SEQ=*..*
IONMODE=Positive
ORGANISM=HMDB
NAME=HMDB:HMDB02393-2099 N-Methyl-D-aspartic acid M+H
PI=HMDB
DATACOLLECTOR=HMDB
SMILES=CN[C@H](CC(O)=O)C(O)=O
INCHI=InChI=1S/C5H9NO4/c1-6-3(5(9)10)2-4(7)8/h3,6H,2H2,1H3,(H,7,8)(H,9,10)/t3-/m1/s1
INCHIAUX=N/A
PUBMED=N/A
SUBMITUSER=mwang87
TAGS=
LIBRARYQUALITY=3
SPECTRUMID=CCMSLIB00000427187
SCANS=2159
42.0 100.0 
END IONS

BEGIN IONS
PEPMASS=103.04
CHARGE=1+
MSLEVEL=2
SOURCE_INSTRUMENT=Negative-Quattro_QQQ:40eV
FILENAME=hmdb_intermediate.mgf
SEQ=*..*
IONMODE=Negative
ORGANISM=HMDB
NAME=HMDB:HMDB00729-1025 Alpha-Hydroxyisobutyric acid M-H
PI=HMDB
DATACOLLECTOR=HMDB
SMILES=CC(C)(O)C(O)=O
INCHI=InChI=1S/C4H8O3/c1-4(2,7)3(5)6/h7H,1-2H3,(H,5,6)
INCHIAUX=N/A
PUBMED=N/A
SUBMITUSER=mwang87
TAGS=
LIBRARYQUALITY=3
SPECTRUMID=CCMSLIB00000427190
SCANS=2162
41.609 52.941 
43.728 9.244 
45.442 100.0 
END IONS

BEGIN IONS
PEPMASS=126.022
CHARGE=1+
MSLEVEL=2
SOURCE_INSTRUMENT=Positive-Quattro_QQQ:10eV
FILENAME=hmdb_intermediate.mgf
SEQ=*..*
IONMODE=Positive
ORGANISM=HMDB
NAME=HMDB:HMDB00251-430 Taurine M+H
PI=HMDB
DATACOLLECTOR=HMDB
SMILES=NCCS(O)(=O)=O
INCHI=InChI=1S/C2H7NO3S/c3-1-2-7(4,5)6/h1-3H2,(H,4,5,6)
INCHIAUX=N/A
PUBMED=N/A
SUBMITUSER=mwang87
TAGS=
LIBRARYQUALITY=3
SPECTRUMID=CCMSLIB00000427191
SCANS=2163
44.313 11.574 
END IONS

BEGIN IONS
PEPMASS=165.076
CHARGE=1+
MSLEVEL=2
SOURCE_INSTRUMENT=Positive-Quattro_QQQ:25eV
FILENAME=hmdb_intermediate.mgf
SEQ=*..*
IONMODE=Positive
ORGANISM=HMDB
NAME=HMDB:HMDB00174-275 L-Fucose M+H
PI=HMDB
DATACOLLECTOR=HMDB
SMILES=C[C@@H]1OC(O)[C@@H](O)[C@H](O)[C@@H]1O
INCHI=InChI=1S/C6H12O5/c1-2-3(7)4(8)5(9)6(10)11-2/h2-10H,1H3/t2-,3+,4+,5-,6?/m0/s1
INCHIAUX=N/A
PUBMED=N/A
SUBMITUSER=mwang87
TAGS=
LIBRARYQUALITY=3
SPECTRUMID=CCMSLIB00000427192
SCANS=2164
43.0 30.119 
END IONS

BEGIN IONS
PEPMASS=377.146
CHARGE=1+
MSLEVEL=2
SOURCE_INSTRUMENT=Positive-Quattro_QQQ:25eV
FILENAME=hmdb_intermediate.mgf
SEQ=*..*
IONMODE=Positive
ORGANISM=HMDB
NAME=HMDB:HMDB00244-413 Riboflavin M+H
PI=HMDB
DATACOLLECTOR=HMDB
SMILES=CC1=C(C)C=C2N(C[C@H](O)[C@H](O)[C@H](O)CO)C3=NC(=O)NC(=O)C3=NC2=C1
INCHI=InChI=1S/C17H20N4O6/c1-7-3-9-10(4-8(7)2)21(5-11(23)14(25)12(24)6-22)15-13(18-9)16(26)20-17(27)19-15/h3-4,11-12,14,22-25H,5-6H2,1-2H3,(H,20,26,27)/t11-,12+,14-/m0/s1
INCHIAUX=N/A
PUBMED=N/A
SUBMITUSER=mwang87
TAGS=
LIBRARYQUALITY=3
SPECTRUMID=CCMSLIB00000427195
SCANS=2167
43.0 7.386 
END IONS

BEGIN IONS
PEPMASS=375.29
CHARGE=1+
MSLEVEL=2
SOURCE_INSTRUMENT=Positive-Quattro_QQQ:40eV
FILENAME=hmdb_intermediate.mgf
SEQ=*..*
IONMODE=Positive
ORGANISM=HMDB
NAME=HMDB:HMDB00308-527 3b-Hydroxy-5-cholenoic acid M+H
PI=HMDB
DATACOLLECTOR=HMDB
SMILES=[H][C@@]12CC[C@H]([C@H](C)CCC(O)=O)[C@@]1(C)CC[C@@]1([H])[C@@]2([H])CC=C2C[C@@H](O)CC[C@]12C
INCHI=InChI=1S/C24H38O3/c1-15(4-9-22(26)27)19-7-8-20-18-6-5-16-14-17(25)10-12-23(16,2)21(18)11-13-24(19,20)3/h5,15,17-21,25H,4,6-14H2,1-3H3,(H,26,27)/t15-,17+,18+,19-,20+,21+,23+,24-/m1/s1
INCHIAUX=N/A
PUBMED=N/A
SUBMITUSER=mwang87
TAGS=
LIBRARYQUALITY=3
SPECTRUMID=CCMSLIB00000427196
SCANS=2168
50.821 6.405 
52.713 6.405 
END IONS

BEGIN IONS
PEPMASS=121.051
CHARGE=1+
MSLEVEL=2
SOURCE_INSTRUMENT=Positive-Quattro_QQQ:25eV
FILENAME=hmdb_intermediate.mgf
SEQ=*..*
IONMODE=Positive
ORGANISM=HMDB
NAME=HMDB:HMDB01366-1532 Purine M+H
PI=HMDB
DATACOLLECTOR=HMDB
SMILES=N1C=NC2=C1C=NC=N2
INCHI=InChI=1S/C5H4N4/c1-4-5(8-2-6-1)9-3-7-4/h1-3H,(H,6,7,8,9)
INCHIAUX=N/A
PUBMED=N/A
SUBMITUSER=mwang87
TAGS=
LIBRARYQUALITY=3
SPECTRUMID=CCMSLIB00000427200
SCANS=2172
52.245 13.315 
END IONS

BEGIN IONS
PEPMASS=73.0653
CHARGE=1+
MSLEVEL=2
SOURCE_INSTRUMENT=Positive-Quattro_QQQ:10eV
FILENAME=hmdb_intermediate.mgf
SEQ=*..*
IONMODE=Positive
ORGANISM=HMDB
NAME=HMDB:HMDB00474-692 Butanone M+H
PI=HMDB
DATACOLLECTOR=HMDB
SMILES=CCC(C)=O
INCHI=InChI=1S/C4H8O/c1-3-4(2)5/h3H2,1-2H3
INCHIAUX=N/A
PUBMED=N/A
SUBMITUSER=mwang87
TAGS=
LIBRARYQUALITY=3
SPECTRUMID=CCMSLIB00000427205
SCANS=2177
31.0 5.302 
43.0 6.015 
45.0 7.878 
END IONS

BEGIN IONS
PEPMASS=391.285
CHARGE=1+
MSLEVEL=2
SOURCE_INSTRUMENT=Negative-Quattro_QQQ:40eV
FILENAME=hmdb_intermediate.mgf
SEQ=*..*
IONMODE=Negative
ORGANISM=HMDB
NAME=HMDB:HMDB00626-854 Deoxycholic acid M-H
PI=HMDB
DATACOLLECTOR=HMDB
SMILES=[H][C@@]12CC[C@H]([C@H](C)CCC(O)=O)[C@@]1(C)[C@@H](O)C[C@@]1([H])[C@@]2([H])CC[C@]2([H])C[C@H](O)CC[C@]12C
INCHI=InChI=1S/C24H40O4/c1-14(4-9-22(27)28)18-7-8-19-17-6-5-15-12-16(25)10-11-23(15,2)20(17)13-21(26)24(18,19)3/h14-21,25-26H,4-13H2,1-3H3,(H,27,28)/t14-,15-,16-,17+,18-,19+,20+,21+,23+,24-/m1/s1
INCHIAUX=N/A
PUBMED=N/A
SUBMITUSER=mwang87
TAGS=
LIBRARYQUALITY=3
SPECTRUMID=CCMSLIB00000427207
SCANS=2179
43.434 13.449 
END IONS

BEGIN IONS
PEPMASS=72.0449
CHARGE=1+
MSLEVEL=2
SOURCE_INSTRUMENT=Positive-Quattro_QQQ:25eV
FILENAME=hmdb_intermediate.mgf
SEQ=*..*
IONMODE=Positive
ORGANISM=HMDB
NAME=HMDB:HMDB04296-2380 Acrylamide M+H
PI=HMDB
DATACOLLECTOR=HMDB
SMILES=NC(=O)C=C
INCHI=InChI=1S/C3H5NO/c1-2-3(4)5/h2H,1H2,(H2,4,5)
INCHIAUX=N/A
PUBMED=N/A
SUBMITUSER=mwang87
TAGS=
LIBRARYQUALITY=3
SPECTRUMID=CCMSLIB00000427208
SCANS=2180
44.117 14.314 
END IONS

BEGIN IONS
PEPMASS=147.077
CHARGE=1+
MSLEVEL=2
SOURCE_INSTRUMENT=Positive-Quattro_QQQ:25eV
FILENAME=hmdb_intermediate.mgf
SEQ=*..*
IONMODE=Positive
ORGANISM=HMDB
NAME=HMDB:HMDB03423-2302 D-Glutamine M+H
PI=HMDB
DATACOLLECTOR=HMDB
SMILES=N[C@H](CCC(N)=O)C(O)=O
INCHI=InChI=1S/C5H10N2O3/c6-3(5(9)10)1-2-4(7)8/h3H,1-2,6H2,(H2,7,8)(H,9,10)/t3-/m1/s1
INCHIAUX=N/A
PUBMED=N/A
SUBMITUSER=mwang87
TAGS=
LIBRARYQUALITY=3
SPECTRUMID=CCMSLIB00000427209
SCANS=2181
41.207 17.01 
END IONS

BEGIN IONS
PEPMASS=131.034
CHARGE=1+
MSLEVEL=2
SOURCE_INSTRUMENT=Negative-Quattro_QQQ:25eV
FILENAME=hmdb_intermediate.mgf
SEQ=*..*
IONMODE=Negative
ORGANISM=HMDB
NAME=HMDB:HMDB00622-844 Ethylmalonic acid M-H
PI=HMDB
DATACOLLECTOR=HMDB
SMILES=CCC(C(O)=O)C(O)=O
INCHI=InChI=1S/C5H8O4/c1-2-3(4(6)7)5(8)9/h3H,2H2,1H3,(H,6,7)(H,8,9)
INCHIAUX=N/A
PUBMED=N/A
SUBMITUSER=mwang87
TAGS=
LIBRARYQUALITY=3
SPECTRUMID=CCMSLIB00000427210
SCANS=2182
41.657 100.0 
43.636 7.455 
45.646 20.181 
END IONS

BEGIN IONS
PEPMASS=143.009
CHARGE=1+
MSLEVEL=2
SOURCE_INSTRUMENT=Positive-Quattro_QQQ:25eV
FILENAME=hmdb_intermediate.mgf
SEQ=*..*
IONMODE=Positive
ORGANISM=HMDB
NAME=HMDB:HMDB02818-2138 Alloxan M+H
PI=HMDB
DATACOLLECTOR=HMDB
SMILES=O=C1NC(=O)C(=O)C(=O)N1
INCHI=InChI=1S/C4H2N2O4/c7-1-2(8)5-4(10)6-3(1)9/h(H2,5,6,8,9,10)
INCHIAUX=N/A
PUBMED=N/A
SUBMITUSER=mwang87
TAGS=
LIBRARYQUALITY=3
SPECTRUMID=CCMSLIB00000427211
SCANS=2183
41.0 19.377 
51.0 16.449 
52.0 13.348 
END IONS

BEGIN IONS
PEPMASS=132.066
CHARGE=1+
MSLEVEL=2
SOURCE_INSTRUMENT=Positive-Quattro_QQQ:25eV
FILENAME=hmdb_intermediate.mgf
SEQ=*..*
IONMODE=Positive
ORGANISM=HMDB
NAME=HMDB:HMDB00783-1117 Propionylglycine M+H
PI=HMDB
DATACOLLECTOR=HMDB
SMILES=CCC(=O)NCC(O)=O
INCHI=InChI=1S/C5H9NO3/c1-2-4(7)6-3-5(8)9/h2-3H2,1H3,(H,6,7)(H,8,9)
INCHIAUX=N/A
PUBMED=N/A
SUBMITUSER=mwang87
TAGS=
LIBRARYQUALITY=3
SPECTRUMID=CCMSLIB00000427212
SCANS=2184
48.598 2.019 
END IONS

BEGIN IONS
PEPMASS=184.097
CHARGE=1+
MSLEVEL=2
SOURCE_INSTRUMENT=Positive-Quattro_QQQ:40eV
FILENAME=hmdb_intermediate.mgf
SEQ=*..*
IONMODE=Positive
ORGANISM=HMDB
NAME=HMDB:HMDB00068-110 Epinephrine M+H
PI=HMDB
DATACOLLECTOR=HMDB
SMILES=CNC[C@H](O)C1=CC=C(O)C(O)=C1
INCHI=InChI=1S/C9H13NO3/c1-10-5-9(13)6-2-3-7(11)8(12)4-6/h2-4,9-13H,5H2,1H3/t9-/m0/s1
INCHIAUX=N/A
PUBMED=N/A
SUBMITUSER=mwang87
TAGS=
LIBRARYQUALITY=3
SPECTRUMID=CCMSLIB00000427213
SCANS=2185
42.303 23.695 
51.271 7.631 
END IONS

BEGIN IONS
PEPMASS=103.04
CHARGE=1+
MSLEVEL=2
SOURCE_INSTRUMENT=Negative-Quattro_QQQ:40eV
FILENAME=hmdb_intermediate.mgf
SEQ=*..*
IONMODE=Negative
ORGANISM=HMDB
NAME=HMDB:HMDB00011-18 (R)-3-Hydroxybutyric acid M-H
PI=HMDB
DATACOLLECTOR=HMDB
SMILES=C[C@@H](O)CC(O)=O
INCHI=InChI=1S/C4H8O3/c1-3(5)2-4(6)7/h3,5H,2H2,1H3,(H,6,7)/t3-/m1/s1
INCHIAUX=N/A
PUBMED=N/A
SUBMITUSER=mwang87
TAGS=
LIBRARYQUALITY=3
SPECTRUMID=CCMSLIB00000427214
SCANS=2186
41.316 76.042 
END IONS

BEGIN IONS
PEPMASS=34.0293
CHARGE=1+
MSLEVEL=2
SOURCE_INSTRUMENT=Positive-Quattro_QQQ:25eV
FILENAME=hmdb_intermediate.mgf
SEQ=*..*
IONMODE=Positive
ORGANISM=HMDB
NAME=HMDB:HMDB03338-2252 Hydroxylamine M+H
PI=HMDB
DATACOLLECTOR=HMDB
SMILES=NO
INCHI=InChI=1S/H3NO/c1-2/h2H,1H2
INCHIAUX=N/A
PUBMED=N/A
SUBMITUSER=mwang87
TAGS=
LIBRARYQUALITY=3
SPECTRUMID=CCMSLIB00000427215
SCANS=2187
34.0 100.0 
35.0 40.643 
END IONS

BEGIN IONS
PEPMASS=174.055
CHARGE=1+
MSLEVEL=2
SOURCE_INSTRUMENT=Positive-Quattro_QQQ:10eV
FILENAME=hmdb_intermediate.mgf
SEQ=*..*
IONMODE=Positive
ORGANISM=HMDB
NAME=HMDB:HMDB00842-1187 Quinaldic acid M+H
PI=HMDB
DATACOLLECTOR=HMDB
SMILES=OC(=O)C1=NC2=CC=CC=C2C=C1
INCHI=InChI=1S/C10H7NO2/c12-10(13)9-6-5-7-3-1-2-4-8(7)11-9/h1-6H,(H,12,13)
INCHIAUX=N/A
PUBMED=N/A
SUBMITUSER=mwang87
TAGS=
LIBRARYQUALITY=3
SPECTRUMID=CCMSLIB00000427216
SCANS=2188
41.332 7.91 
END IONS

BEGIN IONS
PEPMASS=117.055
CHARGE=1+
MSLEVEL=2
SOURCE_INSTRUMENT=Positive-Quattro_QQQ:25eV
FILENAME=hmdb_intermediate.mgf
SEQ=*..*
IONMODE=Positive
ORGANISM=HMDB
NAME=HMDB:HMDB00720-1012 Levulinic acid M+H
PI=HMDB
DATACOLLECTOR=HMDB
SMILES=CC(=O)CCC(O)=O
INCHI=InChI=1S/C5H8O3/c1-4(6)2-3-5(7)8/h2-3H2,1H3,(H,7,8)
INCHIAUX=N/A
PUBMED=N/A
SUBMITUSER=mwang87
TAGS=
LIBRARYQUALITY=3
SPECTRUMID=CCMSLIB00000427218
SCANS=2190
41.258 72.727 
43.248 37.603 
END IONS

BEGIN IONS
PEPMASS=119.082
CHARGE=1+
MSLEVEL=2
SOURCE_INSTRUMENT=Positive-Quattro_QQQ:40eV
FILENAME=hmdb_intermediate.mgf
SEQ=*..*
IONMODE=Positive
ORGANISM=HMDB
NAME=HMDB:HMDB02362-2085 2,4-Diaminobutyric acid M+H
PI=HMDB
DATACOLLECTOR=HMDB
SMILES=NCCC(N)C(O)=O
INCHI=InChI=1S/C4H10N2O2/c5-2-1-3(6)4(7)8/h3H,1-2,5-6H2,(H,7,8)
INCHIAUX=N/A
PUBMED=N/A
SUBMITUSER=mwang87
TAGS=
LIBRARYQUALITY=3
SPECTRUMID=CCMSLIB00000427220
SCANS=2192
39.0 4.456 
41.0 5.392 
44.0 55.291 
45.0 5.176 
46.0 10.356 
END IONS

BEGIN IONS
PEPMASS=227.103
CHARGE=1+
MSLEVEL=2
SOURCE_INSTRUMENT=Positive-Quattro_QQQ:40eV
FILENAME=hmdb_intermediate.mgf
SEQ=*..*
IONMODE=Positive
ORGANISM=HMDB
NAME=HMDB:HMDB00245-417 Porphobilinogen M+H
PI=HMDB
DATACOLLECTOR=HMDB
SMILES=NCC1=C(CC(O)=O)C(CCC(O)=O)=CN1
INCHI=InChI=1S/C10H14N2O4/c11-4-8-7(3-10(15)16)6(5-12-8)1-2-9(13)14/h5,12H,1-4,11H2,(H,13,14)(H,15,16)
INCHIAUX=N/A
PUBMED=N/A
SUBMITUSER=mwang87
TAGS=
LIBRARYQUALITY=3
SPECTRUMID=CCMSLIB00000427224
SCANS=2196
53.318 8.39 
END IONS

BEGIN IONS
PEPMASS=140.995
CHARGE=1+
MSLEVEL=2
SOURCE_INSTRUMENT=Positive-Quattro_QQQ:40eV
FILENAME=hmdb_intermediate.mgf
SEQ=*..*
IONMODE=Positive
ORGANISM=HMDB
NAME=HMDB:HMDB04110-2366 Phosphonoacetate M+H
PI=HMDB
DATACOLLECTOR=HMDB
SMILES=OC(=O)CP(O)(O)=O
INCHI=InChI=1S/C2H5O5P/c3-2(4)1-8(5,6)7/h1H2,(H,3,4)(H2,5,6,7)
INCHIAUX=N/A
PUBMED=N/A
SUBMITUSER=mwang87
TAGS=
LIBRARYQUALITY=3
SPECTRUMID=CCMSLIB00000427229
SCANS=2201
42.0 9.656 
43.0 13.962 
47.0 21.602 
49.0 5.147 
END IONS

BEGIN IONS
PEPMASS=132.077
CHARGE=1+
MSLEVEL=2
SOURCE_INSTRUMENT=Positive-Quattro_QQQ:40eV
FILENAME=hmdb_intermediate.mgf
SEQ=*..*
IONMODE=Positive
ORGANISM=HMDB
NAME=HMDB:HMDB00064-107 Creatine M+H
PI=HMDB
DATACOLLECTOR=HMDB
SMILES=CN(CC(O)=O)C(N)=N
INCHI=InChI=1S/C4H9N3O2/c1-7(4(5)6)2-3(8)9/h2H2,1H3,(H3,5,6)(H,8,9)
INCHIAUX=N/A
PUBMED=N/A
SUBMITUSER=mwang87
TAGS=
LIBRARYQUALITY=3
SPECTRUMID=CCMSLIB00000427232
SCANS=2204
43.156 2.65 
44.015 100.0 
END IONS

BEGIN IONS
PEPMASS=93.034
CHARGE=1+
MSLEVEL=2
SOURCE_INSTRUMENT=Negative-Quattro_QQQ:25eV
FILENAME=hmdb_intermediate.mgf
SEQ=*..*
IONMODE=Negative
ORGANISM=HMDB
NAME=HMDB:HMDB00228-380 Phenol M-H
PI=HMDB
DATACOLLECTOR=HMDB
SMILES=OC1=CC=CC=C1
INCHI=InChI=1S/C6H6O/c7-6-4-2-1-3-5-6/h1-5,7H
INCHIAUX=N/A
PUBMED=N/A
SUBMITUSER=mwang87
TAGS=
LIBRARYQUALITY=3
SPECTRUMID=CCMSLIB00000427233
SCANS=2205
39.0 26.021 
END IONS

BEGIN IONS
PEPMASS=134.045
CHARGE=1+
MSLEVEL=2
SOURCE_INSTRUMENT=Positive-Quattro_QQQ:10eV
FILENAME=hmdb_intermediate.mgf
SEQ=*..*
IONMODE=Positive
ORGANISM=HMDB
NAME=HMDB:HMDB00191-304 L-Aspartic acid M+H
PI=HMDB
DATACOLLECTOR=HMDB
SMILES=N[C@@H](CC(O)=O)C(O)=O
INCHI=InChI=1S/C4H7NO4/c5-2(4(8)9)1-3(6)7/h2H,1,5H2,(H,6,7)(H,8,9)/t2-/m0/s1
INCHIAUX=N/A
PUBMED=N/A
SUBMITUSER=mwang87
TAGS=
LIBRARYQUALITY=3
SPECTRUMID=CCMSLIB00000427235
SCANS=2207
46.252 6.095 
END IONS

BEGIN IONS
PEPMASS=181.073
CHARGE=1+
MSLEVEL=2
SOURCE_INSTRUMENT=Positive-Quattro_QQQ:40eV
FILENAME=hmdb_intermediate.mgf
SEQ=*..*
IONMODE=Positive
ORGANISM=HMDB
NAME=HMDB:HMDB01889-1794 Theophylline M+H
PI=HMDB
DATACOLLECTOR=HMDB
SMILES=CN1C2=C(NC=N2)C(=O)N(C)C1=O
INCHI=InChI=1S/C7H8N4O2/c1-10-5-4(8-3-9-5)6(12)11(2)7(10)13/h3H,1-2H3,(H,8,9)
INCHIAUX=N/A
PUBMED=N/A
SUBMITUSER=mwang87
TAGS=
LIBRARYQUALITY=3
SPECTRUMID=CCMSLIB00000427237
SCANS=2209
42.379 85.572 
42.504 100.0 
END IONS

BEGIN IONS
PEPMASS=130.05
CHARGE=1+
MSLEVEL=2
SOURCE_INSTRUMENT=Positive-Quattro_QQQ:25eV
FILENAME=hmdb_intermediate.mgf
SEQ=*..*
IONMODE=Positive
ORGANISM=HMDB
NAME=HMDB:HMDB01843-1694 N-Acryloylglycine M+H
PI=HMDB
DATACOLLECTOR=HMDB
SMILES=OC(=O)CNC(=O)C=C
INCHI=InChI=1S/C5H7NO3/c1-2-4(7)6-3-5(8)9/h2H,1,3H2,(H,6,7)(H,8,9)
INCHIAUX=N/A
PUBMED=N/A
SUBMITUSER=mwang87
TAGS=
LIBRARYQUALITY=3
SPECTRUMID=CCMSLIB00000427238
SCANS=2210
43.62 4.446 
45.638 3.074 
46.651 2.769 
END IONS

BEGIN IONS
PEPMASS=140.995
CHARGE=1+
MSLEVEL=2
SOURCE_INSTRUMENT=Positive-Quattro_QQQ:25eV
FILENAME=hmdb_intermediate.mgf
SEQ=*..*
IONMODE=Positive
ORGANISM=HMDB
NAME=HMDB:HMDB01494-1614 Acetylphosphate M+H
PI=HMDB
DATACOLLECTOR=HMDB
SMILES=CC(=O)OP(O)(O)=O
INCHI=InChI=1S/C2H5O5P/c1-2(3)7-8(4,5)6/h1H3,(H2,4,5,6)
INCHIAUX=N/A
PUBMED=N/A
SUBMITUSER=mwang87
TAGS=
LIBRARYQUALITY=3
SPECTRUMID=CCMSLIB00000427240
SCANS=2212
51.0 15.357 
END IONS

BEGIN IONS
PEPMASS=143.009
CHARGE=1+
MSLEVEL=2
SOURCE_INSTRUMENT=Positive-Quattro_QQQ:40eV
FILENAME=hmdb_intermediate.mgf
SEQ=*..*
IONMODE=Positive
ORGANISM=HMDB
NAME=HMDB:HMDB02818-2139 Alloxan M+H
PI=HMDB
DATACOLLECTOR=HMDB
SMILES=O=C1NC(=O)C(=O)C(=O)N1
INCHI=InChI=1S/C4H2N2O4/c7-1-2(8)5-4(10)6-3(1)9/h(H2,5,6,8,9,10)
INCHIAUX=N/A
PUBMED=N/A
SUBMITUSER=mwang87
TAGS=
LIBRARYQUALITY=3
SPECTRUMID=CCMSLIB00000427244
SCANS=2216
39.0 7.97 
40.0 100.0 
41.0 9.394 
END IONS

BEGIN IONS
PEPMASS=165.076
CHARGE=1+
MSLEVEL=2
SOURCE_INSTRUMENT=Positive-Quattro_QQQ:40eV
FILENAME=hmdb_intermediate.mgf
SEQ=*..*
IONMODE=Positive
ORGANISM=HMDB
NAME=HMDB:HMDB00174-276 L-Fucose M+H
PI=HMDB
DATACOLLECTOR=HMDB
SMILES=C[C@@H]1OC(O)[C@@H](O)[C@H](O)[C@@H]1O
INCHI=InChI=1S/C6H12O5/c1-2-3(7)4(8)5(9)6(10)11-2/h2-10H,1H3/t2-,3+,4+,5-,6?/m0/s1
INCHIAUX=N/A
PUBMED=N/A
SUBMITUSER=mwang87
TAGS=
LIBRARYQUALITY=3
SPECTRUMID=CCMSLIB00000427246
SCANS=2218
43.0 31.703 
END IONS

BEGIN IONS
PEPMASS=120.066
CHARGE=1+
MSLEVEL=2
SOURCE_INSTRUMENT=Positive-Quattro_QQQ:40eV
FILENAME=hmdb_intermediate.mgf
SEQ=*..*
IONMODE=Positive
ORGANISM=HMDB
NAME=HMDB:HMDB00167-265 L-Threonine M+H
PI=HMDB
DATACOLLECTOR=HMDB
SMILES=C[C@@H](O)[C@H](N)C(O)=O
INCHI=InChI=1S/C4H9NO3/c1-2(6)3(5)4(7)8/h2-3,6H,5H2,1H3,(H,7,8)/t2-,3+/m1/s1
INCHIAUX=N/A
PUBMED=N/A
SUBMITUSER=mwang87
TAGS=
LIBRARYQUALITY=3
SPECTRUMID=CCMSLIB00000427248
SCANS=2220
41.301 8.889 
42.401 5.139 
43.299 11.806 
45.265 23.194 
END IONS

BEGIN IONS
PEPMASS=103.04
CHARGE=1+
MSLEVEL=2
SOURCE_INSTRUMENT=Negative-Quattro_QQQ:25eV
FILENAME=hmdb_intermediate.mgf
SEQ=*..*
IONMODE=Negative
ORGANISM=HMDB
NAME=HMDB:HMDB00011-17 (R)-3-Hydroxybutyric acid M-H
PI=HMDB
DATACOLLECTOR=HMDB
SMILES=C[C@@H](O)CC(O)=O
INCHI=InChI=1S/C4H8O3/c1-3(5)2-4(6)7/h3,5H,2H2,1H3,(H,6,7)/t3-/m1/s1
INCHIAUX=N/A
PUBMED=N/A
SUBMITUSER=mwang87
TAGS=
LIBRARYQUALITY=3
SPECTRUMID=CCMSLIB00000427252
SCANS=2224
41.255 48.485 
END IONS

BEGIN IONS
PEPMASS=86.0606
CHARGE=1+
MSLEVEL=2
SOURCE_INSTRUMENT=Positive-Quattro_QQQ:40eV
FILENAME=hmdb_intermediate.mgf
SEQ=*..*
IONMODE=Positive
ORGANISM=HMDB
NAME=HMDB:HMDB02039-1961 2-Pyrrolidinone M+H
PI=HMDB
DATACOLLECTOR=HMDB
SMILES=O=C1CCCN1
INCHI=InChI=1S/C4H7NO/c6-4-2-1-3-5-4/h1-3H2,(H,5,6)
INCHIAUX=N/A
PUBMED=N/A
SUBMITUSER=mwang87
TAGS=
LIBRARYQUALITY=3
SPECTRUMID=CCMSLIB00000427253
SCANS=2225
39.0 12.613 
41.0 17.579 
44.0 100.0 
END IONS

BEGIN IONS
PEPMASS=181.071
CHARGE=1+
MSLEVEL=2
SOURCE_INSTRUMENT=Positive-Quattro_QQQ:25eV
FILENAME=hmdb_intermediate.mgf
SEQ=*..*
IONMODE=Positive
ORGANISM=HMDB
NAME=HMDB:HMDB03418-2299 D-Tagatose M+H
PI=HMDB
DATACOLLECTOR=HMDB
SMILES=OC[C@@H](O)[C@H](O)[C@H](O)C(=O)CO
INCHI=InChI=1S/C6H12O6/c7-1-3(9)5(11)6(12)4(10)2-8/h3,5-9,11-12H,1-2H2/t3-,5+,6-/m1/s1
INCHIAUX=N/A
PUBMED=N/A
SUBMITUSER=mwang87
TAGS=
LIBRARYQUALITY=3
SPECTRUMID=CCMSLIB00000427254
SCANS=2226
42.25 37.505 
END IONS

BEGIN IONS
PEPMASS=183.087
CHARGE=1+
MSLEVEL=2
SOURCE_INSTRUMENT=Positive-Quattro_QQQ:25eV
FILENAME=hmdb_intermediate.mgf
SEQ=*..*
IONMODE=Positive
ORGANISM=HMDB
NAME=HMDB:HMDB00765-1102 Mannitol M+H
PI=HMDB
DATACOLLECTOR=HMDB
SMILES=OC[C@@H](O)[C@@H](O)[C@H](O)[C@H](O)CO
INCHI=InChI=1S/C6H14O6/c7-1-3(9)5(11)6(12)4(10)2-8/h3-12H,1-2H2/t3-,4-,5-,6-/m1/s1
INCHIAUX=N/A
PUBMED=N/A
SUBMITUSER=mwang87
TAGS=
LIBRARYQUALITY=3
SPECTRUMID=CCMSLIB00000427256
SCANS=2228
41.379 9.738 
43.338 25.0 
45.329 13.517 
53.276 6.904 
END IONS

BEGIN IONS
PEPMASS=209.093
CHARGE=1+
MSLEVEL=2
SOURCE_INSTRUMENT=Positive-Quattro_QQQ:40eV
FILENAME=hmdb_intermediate.mgf
SEQ=*..*
IONMODE=Positive
ORGANISM=HMDB
NAME=HMDB:HMDB00684-950 L-Kynurenine M+H
PI=HMDB
DATACOLLECTOR=HMDB
SMILES=N[C@@H](CC(=O)C1=CC=CC=C1N)C(O)=O
INCHI=InChI=1S/C10H12N2O3/c11-7-4-2-1-3-6(7)9(13)5-8(12)10(14)15/h1-4,8H,5,11-12H2,(H,14,15)/t8-/m0/s1
INCHIAUX=N/A
PUBMED=N/A
SUBMITUSER=mwang87
TAGS=
LIBRARYQUALITY=3
SPECTRUMID=CCMSLIB00000427258
SCANS=2230
46.215 6.795 
END IONS

BEGIN IONS
PEPMASS=181.073
CHARGE=1+
MSLEVEL=2
SOURCE_INSTRUMENT=Positive-Quattro_QQQ:25eV
FILENAME=hmdb_intermediate.mgf
SEQ=*..*
IONMODE=Positive
ORGANISM=HMDB
NAME=HMDB:HMDB01889-1793 Theophylline M+H
PI=HMDB
DATACOLLECTOR=HMDB
SMILES=CN1C2=C(NC=N2)C(=O)N(C)C1=O
INCHI=InChI=1S/C7H8N4O2/c1-10-5-4(8-3-9-5)6(12)11(2)7(10)13/h3H,1-2H3,(H,8,9)
INCHIAUX=N/A
PUBMED=N/A
SUBMITUSER=mwang87
TAGS=
LIBRARYQUALITY=3
SPECTRUMID=CCMSLIB00000427261
SCANS=2233
42.254 10.311 
END IONS

BEGIN IONS
PEPMASS=222.098
CHARGE=1+
MSLEVEL=2
SOURCE_INSTRUMENT=Positive-Quattro_QQQ:40eV
FILENAME=hmdb_intermediate.mgf
SEQ=*..*
IONMODE=Positive
ORGANISM=HMDB
NAME=HMDB:HMDB00212-348 N-Acetylgalactosamine M+H
PI=HMDB
DATACOLLECTOR=HMDB
SMILES=CC(=O)N[C@H]1[C@@H](O)O[C@H](CO)[C@H](O)[C@@H]1O
INCHI=InChI=1S/C8H15NO6/c1-3(11)9-5-7(13)6(12)4(2-10)15-8(5)14/h4-8,10,12-14H,2H2,1H3,(H,9,11)/t4-,5-,6+,7-,8+/m1/s1
INCHIAUX=N/A
PUBMED=N/A
SUBMITUSER=mwang87
TAGS=
LIBRARYQUALITY=3
SPECTRUMID=CCMSLIB00000427262
SCANS=2234
41.693 17.259 
43.602 46.025 
44.801 10.146 
END IONS

