BEGIN IONS
PEPMASS=189.103
CHARGE=1+
MSLEVEL=2
SOURCE_INSTRUMENT=Negative-Quattro_QQQ:10eV
FILENAME=hmdb_intermediate.mgf
SEQ=*..*
IONMODE=Negative
ORGANISM=HMDB
NAME=HMDB:HMDB04095-2361 5-Methoxytryptamine M-H
PI=HMDB
DATACOLLECTOR=HMDB
SMILES=COC1=CC2=C(NC=C2CCN)C=C1
INCHI=InChI=1S/C11H14N2O/c1-14-9-2-3-11-10(6-9)8(4-5-12)7-13-11/h2-3,6-7,13H,4-5,12H2,1H3
INCHIAUX=N/A
PUBMED=N/A
SUBMITUSER=mwang87
TAGS=
LIBRARYQUALITY=3
SPECTRUMID=CCMSLIB00000425029
SCANS=1
173.0 100.0 
188.0 87.625 
END IONS

BEGIN IONS
PEPMASS=223.075
CHARGE=1+
MSLEVEL=2
SOURCE_INSTRUMENT=Positive-Quattro_QQQ:10eV
FILENAME=hmdb_intermediate.mgf
SEQ=*..*
IONMODE=Positive
ORGANISM=HMDB
NAME=HMDB:HMDB00099-156 L-Cystathionine M+H
PI=HMDB
DATACOLLECTOR=HMDB
SMILES=N[C@@H](CCSC[C@H](N)C(O)=O)C(O)=O
INCHI=InChI=1S/C7H14N2O4S/c8-4(6(10)11)1-2-14-3-5(9)7(12)13/h4-5H,1-3,8-9H2,(H,10,11)(H,12,13)/t4-,5-/m0/s1
INCHIAUX=N/A
PUBMED=N/A
SUBMITUSER=mwang87
TAGS=
LIBRARYQUALITY=3
SPECTRUMID=CCMSLIB00000425030
SCANS=2
133.997 100.0 
222.983 91.975 
END IONS

BEGIN IONS
PEPMASS=307.978
CHARGE=1+
MSLEVEL=2
SOURCE_INSTRUMENT=Positive-Quattro_QQQ:40eV
FILENAME=hmdb_intermediate.mgf
SEQ=*..*
IONMODE=Positive
ORGANISM=HMDB
NAME=HMDB:HMDB00021-38 Iodotyrosine M+H
PI=HMDB
DATACOLLECTOR=HMDB
SMILES=N[C@@H](CC1=CC=C(O)C(I)=C1)C(O)=O
INCHI=InChI=1S/C9H10INO3/c10-6-3-5(1-2-8(6)12)4-7(11)9(13)14/h1-3,7,12H,4,11H2,(H,13,14)/t7-/m0/s1
INCHIAUX=N/A
PUBMED=N/A
SUBMITUSER=mwang87
TAGS=
LIBRARYQUALITY=3
SPECTRUMID=CCMSLIB00000425031
SCANS=3
134.711 100.0 
END IONS

BEGIN IONS
PEPMASS=271.17
CHARGE=1+
MSLEVEL=2
SOURCE_INSTRUMENT=Positive-Quattro_QQQ:10eV
FILENAME=hmdb_intermediate.mgf
SEQ=*..*
IONMODE=Positive
ORGANISM=HMDB
NAME=HMDB:HMDB00145-218 Estrone M+H
PI=HMDB
DATACOLLECTOR=HMDB
SMILES=[H][C@@]12CCC(=O)[C@@]1(C)CC[C@]1([H])C3=C(CC[C@@]21[H])C=C(O)C=C3
INCHI=InChI=1S/C18H22O2/c1-18-9-8-14-13-5-3-12(19)10-11(13)2-4-15(14)16(18)6-7-17(18)20/h3,5,10,14-16,19H,2,4,6-9H2,1H3/t14-,15-,16+,18+/m1/s1
INCHIAUX=N/A
PUBMED=N/A
SUBMITUSER=mwang87
TAGS=
LIBRARYQUALITY=3
SPECTRUMID=CCMSLIB00000425032
SCANS=4
271.0 100.0 
END IONS

BEGIN IONS
PEPMASS=343.124
CHARGE=1+
MSLEVEL=2
SOURCE_INSTRUMENT=Positive-Quattro_QQQ:25eV
FILENAME=hmdb_intermediate.mgf
SEQ=*..*
IONMODE=Positive
ORGANISM=HMDB
NAME=HMDB:HMDB00258-449 Sucrose M+H
PI=HMDB
DATACOLLECTOR=HMDB
SMILES=OC[C@H]1O[C@@](CO)(O[C@H]2O[C@H](CO)[C@@H](O)[C@H](O)[C@H]2O)[C@@H](O)[C@@H]1O
INCHI=InChI=1S/C12H22O11/c13-1-4-6(16)8(18)9(19)11(21-4)23-12(3-15)10(20)7(17)5(2-14)22-12/h4-11,13-20H,1-3H2/t4-,5-,6-,7-,8+,9-,10+,11-,12+/m1/s1
INCHIAUX=N/A
PUBMED=N/A
SUBMITUSER=mwang87
TAGS=
LIBRARYQUALITY=3
SPECTRUMID=CCMSLIB00000425033
SCANS=5
85.059 100.0 
126.974 55.172 
END IONS

BEGIN IONS
PEPMASS=385.347
CHARGE=1+
MSLEVEL=2
SOURCE_INSTRUMENT=Positive-Quattro_QQQ:25eV
FILENAME=hmdb_intermediate.mgf
SEQ=*..*
IONMODE=Positive
ORGANISM=HMDB
NAME=HMDB:HMDB00032-52 7-Dehydrocholesterol M+H
PI=HMDB
DATACOLLECTOR=HMDB
SMILES=[H][C@@]12CC[C@H]([C@H](C)CCCC(C)C)[C@@]1(C)CC[C@@]1([H])C2=CC=C2C[C@@H](O)CC[C@]12C
INCHI=InChI=1S/C27H44O/c1-18(2)7-6-8-19(3)23-11-12-24-22-10-9-20-17-21(28)13-15-26(20,4)25(22)14-16-27(23,24)5/h9-10,18-19,21,23-25,28H,6-8,11-17H2,1-5H3/t19-,21+,23-,24+,25+,26+,27-/m1/s1
INCHIAUX=N/A
PUBMED=N/A
SUBMITUSER=mwang87
TAGS=
LIBRARYQUALITY=3
SPECTRUMID=CCMSLIB00000425034
SCANS=6
69.167 70.558 
71.228 62.437 
81.111 83.756 
83.101 63.959 
95.201 70.558 
109.136 56.853 
159.094 58.376 
161.179 54.315 
198.768 57.868 
212.855 56.853 
226.934 51.777 
367.233 62.944 
385.161 100.0 
END IONS

BEGIN IONS
PEPMASS=464.082
CHARGE=1+
MSLEVEL=2
SOURCE_INSTRUMENT=Positive-Quattro_QQQ:10eV
FILENAME=hmdb_intermediate.mgf
SEQ=*..*
IONMODE=Positive
ORGANISM=HMDB
NAME=HMDB:HMDB00536-758 Adenylsuccinic acid M+H
PI=HMDB
DATACOLLECTOR=HMDB
SMILES=O[C@@H]1[C@@H](COP(O)(O)=O)O[C@H]([C@@H]1O)N1C=NC2=C1N=CN=C2NC(CC(O)=O)C(O)=O
INCHI=InChI=1S/C14H18N5O11P/c20-7(21)1-5(14(24)25)18-11-8-12(16-3-15-11)19(4-17-8)13-10(23)9(22)6(30-13)2-29-31(26,27)28/h3-6,9-10,13,22-23H,1-2H2,(H,20,21)(H,24,25)(H,15,16,18)(H2,26,27,28)/t5?,6-,9-,10-,13-/m1/s1
INCHIAUX=N/A
PUBMED=N/A
SUBMITUSER=mwang87
TAGS=
LIBRARYQUALITY=3
SPECTRUMID=CCMSLIB00000425035
SCANS=7
251.0 65.439 
463.0 83.455 
464.0 100.0 
END IONS

BEGIN IONS
PEPMASS=129.019
CHARGE=1+
MSLEVEL=2
SOURCE_INSTRUMENT=Negative-Quattro_QQQ:10eV
FILENAME=hmdb_intermediate.mgf
SEQ=*..*
IONMODE=Negative
ORGANISM=HMDB
NAME=HMDB:HMDB00620-837 Glutaconic acid M-H
PI=HMDB
DATACOLLECTOR=HMDB
SMILES=OC(=O)C\C=C\C(O)=O
INCHI=InChI=1S/C5H6O4/c6-4(7)2-1-3-5(8)9/h1-2H,3H2,(H,6,7)(H,8,9)/b2-1+
INCHIAUX=N/A
PUBMED=N/A
SUBMITUSER=mwang87
TAGS=
LIBRARYQUALITY=3
SPECTRUMID=CCMSLIB00000425036
SCANS=8
85.036 100.0 
END IONS

BEGIN IONS
PEPMASS=91.0395
CHARGE=1+
MSLEVEL=2
SOURCE_INSTRUMENT=Positive-Quattro_QQQ:25eV
FILENAME=hmdb_intermediate.mgf
SEQ=*..*
IONMODE=Positive
ORGANISM=HMDB
NAME=HMDB:HMDB00700-976 Hydroxypropionic acid M+H
PI=HMDB
DATACOLLECTOR=HMDB
SMILES=OCCC(O)=O
INCHI=InChI=1S/C3H6O3/c4-2-1-3(5)6/h4H,1-2H2,(H,5,6)
INCHIAUX=N/A
PUBMED=N/A
SUBMITUSER=mwang87
TAGS=
LIBRARYQUALITY=3
SPECTRUMID=CCMSLIB00000425037
SCANS=9
73.322 100.0 
73.571 88.755 
91.496 52.287 
END IONS

BEGIN IONS
PEPMASS=260.186
CHARGE=1+
MSLEVEL=2
SOURCE_INSTRUMENT=Positive-Quattro_QQQ:10eV
FILENAME=hmdb_intermediate.mgf
SEQ=*..*
IONMODE=Positive
ORGANISM=HMDB
NAME=HMDB:HMDB00705-984 Hexanoylcarnitine M+H
PI=HMDB
DATACOLLECTOR=HMDB
SMILES=CCCCCC(=O)OC(CC([O-])=O)C[N+](C)(C)C
INCHI=InChI=1S/C13H25NO4/c1-5-6-7-8-13(17)18-11(9-12(15)16)10-14(2,3)4/h11H,5-10H2,1-4H3
INCHIAUX=N/A
PUBMED=N/A
SUBMITUSER=mwang87
TAGS=
LIBRARYQUALITY=3
SPECTRUMID=CCMSLIB00000425038
SCANS=10
85.247 74.118 
260.119 100.0 
END IONS

BEGIN IONS
PEPMASS=130.05
CHARGE=1+
MSLEVEL=2
SOURCE_INSTRUMENT=Positive-Quattro_QQQ:40eV
FILENAME=hmdb_intermediate.mgf
SEQ=*..*
IONMODE=Positive
ORGANISM=HMDB
NAME=HMDB:HMDB00805-1149 Pyrrolidonecarboxylic acid M+H
PI=HMDB
DATACOLLECTOR=HMDB
SMILES=OC(=O)C1CCC(=O)N1
INCHI=InChI=1S/C5H7NO3/c7-4-2-1-3(6-4)5(8)9/h3H,1-2H2,(H,6,7)(H,8,9)
INCHIAUX=N/A
PUBMED=N/A
SUBMITUSER=mwang87
TAGS=
LIBRARYQUALITY=3
SPECTRUMID=CCMSLIB00000425039
SCANS=11
56.451 100.0 
84.357 74.026 
END IONS

BEGIN IONS
PEPMASS=188.071
CHARGE=1+
MSLEVEL=2
SOURCE_INSTRUMENT=Positive-Quattro_QQQ:25eV
FILENAME=hmdb_intermediate.mgf
SEQ=*..*
IONMODE=Positive
ORGANISM=HMDB
NAME=HMDB:HMDB00734-1039 Indoleacrylic acid M+H
PI=HMDB
DATACOLLECTOR=HMDB
SMILES=OC(=O)\C=C\C1=CC2=C(N1)C=CC=C2
INCHI=InChI=1S/C11H9NO2/c13-11(14)6-5-9-7-8-3-1-2-4-10(8)12-9/h1-7,12H,(H,13,14)/b6-5+
INCHIAUX=N/A
PUBMED=N/A
SUBMITUSER=mwang87
TAGS=
LIBRARYQUALITY=3
SPECTRUMID=CCMSLIB00000425040
SCANS=12
114.425 63.408 
114.804 96.477 
115.562 68.972 
141.46 56.947 
141.839 99.705 
142.597 55.954 
169.381 63.12 
169.76 100.0 
170.518 72.745 
END IONS

BEGIN IONS
PEPMASS=173.093
CHARGE=1+
MSLEVEL=2
SOURCE_INSTRUMENT=Positive-Quattro_QQQ:25eV
FILENAME=hmdb_intermediate.mgf
SEQ=*..*
IONMODE=Positive
ORGANISM=HMDB
NAME=HMDB:HMDB00721-1015 Glycylproline M+H
PI=HMDB
DATACOLLECTOR=HMDB
SMILES=NCC(=O)N1CCCC1C(O)=O
INCHI=InChI=1S/C7H12N2O3/c8-4-6(10)9-3-1-2-5(9)7(11)12/h5H,1-4,8H2,(H,11,12)
INCHIAUX=N/A
PUBMED=N/A
SUBMITUSER=mwang87
TAGS=
LIBRARYQUALITY=3
SPECTRUMID=CCMSLIB00000425041
SCANS=13
70.442 80.956 
70.567 53.776 
115.99 100.0 
116.618 86.75 
END IONS

BEGIN IONS
PEPMASS=384.151
CHARGE=1+
MSLEVEL=2
SOURCE_INSTRUMENT=Positive-Quattro_QQQ:10eV
FILENAME=hmdb_intermediate.mgf
SEQ=*..*
IONMODE=Positive
ORGANISM=HMDB
NAME=HMDB:HMDB01542-1637 N-Acetyllactosamine M+H
PI=HMDB
DATACOLLECTOR=HMDB
SMILES=CC(=O)N[C@H]1[C@H](O)O[C@H](CO)[C@@H](O[C@@H]2O[C@H](CO)[C@H](O)[C@H](O)[C@H]2O)[C@@H]1O
INCHI=InChI=1S/C14H25NO11/c1-4(18)15-7-9(20)12(6(3-17)24-13(7)23)26-14-11(22)10(21)8(19)5(2-16)25-14/h5-14,16-17,19-23H,2-3H2,1H3,(H,15,18)/t5-,6-,7-,8+,9-,10+,11-,12-,13-,14+/m1/s1
INCHIAUX=N/A
PUBMED=N/A
SUBMITUSER=mwang87
TAGS=
LIBRARYQUALITY=3
SPECTRUMID=CCMSLIB00000425042
SCANS=14
204.0 99.859 
222.0 100.0 
END IONS

BEGIN IONS
PEPMASS=231.027
CHARGE=1+
MSLEVEL=2
SOURCE_INSTRUMENT=Positive-Quattro_QQQ:10eV
FILENAME=hmdb_intermediate.mgf
SEQ=*..*
IONMODE=Positive
ORGANISM=HMDB
NAME=HMDB:HMDB01548-1649 D-Ribose 5-phosphate M+H
PI=HMDB
DATACOLLECTOR=HMDB
SMILES=OC1O[C@H](COP(O)(O)=O)[C@@H](O)[C@H]1O
INCHI=InChI=1S/C5H11O8P/c6-3-2(1-12-14(9,10)11)13-5(8)4(3)7/h2-8H,1H2,(H2,9,10,11)/t2-,3-,4-,5?/m1/s1
INCHIAUX=N/A
PUBMED=N/A
SUBMITUSER=mwang87
TAGS=
LIBRARYQUALITY=3
SPECTRUMID=CCMSLIB00000425043
SCANS=15
97.0 100.0 
END IONS

BEGIN IONS
PEPMASS=138.079
CHARGE=1+
MSLEVEL=2
SOURCE_INSTRUMENT=Positive-Quattro_QQQ:10eV
FILENAME=hmdb_intermediate.mgf
SEQ=*..*
IONMODE=Positive
ORGANISM=HMDB
NAME=HMDB:HMDB00699-972 1-Methylnicotinamide M+H
PI=HMDB
DATACOLLECTOR=HMDB
SMILES=C[N+]1=CC=CC(=C1)C(N)=O
INCHI=InChI=1S/C7H8N2O/c1-9-4-2-3-6(5-9)7(8)10/h2-5H,1H3,(H-,8,10)/p+1
INCHIAUX=N/A
PUBMED=N/A
SUBMITUSER=mwang87
TAGS=
LIBRARYQUALITY=3
SPECTRUMID=CCMSLIB00000425044
SCANS=16
137.0 100.0 
END IONS

BEGIN IONS
PEPMASS=282.12
CHARGE=1+
MSLEVEL=2
SOURCE_INSTRUMENT=Positive-Quattro_QQQ:10eV
FILENAME=hmdb_intermediate.mgf
SEQ=*..*
IONMODE=Positive
ORGANISM=HMDB
NAME=HMDB:HMDB03331-2245 1-Methyladenosine M+H
PI=HMDB
DATACOLLECTOR=HMDB
SMILES=CN1C=NC2=C(N=CN2[C@@H]2O[C@H](CO)[C@@H](O)[C@H]2O)C1=N
INCHI=InChI=1S/C11H15N5O4/c1-15-3-14-10-6(9(15)12)13-4-16(10)11-8(19)7(18)5(2-17)20-11/h3-5,7-8,11-12,17-19H,2H2,1H3/t5-,7-,8-,11-/m1/s1
INCHIAUX=N/A
PUBMED=N/A
SUBMITUSER=mwang87
TAGS=
LIBRARYQUALITY=3
SPECTRUMID=CCMSLIB00000425045
SCANS=17
150.0 100.0 
282.0 100.0 
END IONS

BEGIN IONS
PEPMASS=411.399
CHARGE=1+
MSLEVEL=2
SOURCE_INSTRUMENT=Positive-Quattro_QQQ:25eV
FILENAME=hmdb_intermediate.mgf
SEQ=*..*
IONMODE=Positive
ORGANISM=HMDB
NAME=HMDB:HMDB00256-443 Squalene M+H
PI=HMDB
DATACOLLECTOR=HMDB
SMILES=CC(C)=CCC\C(C)=C/CC\C(C)=C\CC\C=C(/C)CC\C=C(/C)CCC=C(C)C
INCHI=InChI=1S/C30H50/c1-25(2)15-11-19-29(7)23-13-21-27(5)17-9-10-18-28(6)22-14-24-30(8)20-12-16-26(3)4/h15-18,23-24H,9-14,19-22H2,1-8H3/b27-17+,28-18+,29-23-,30-24+
INCHIAUX=N/A
PUBMED=N/A
SUBMITUSER=mwang87
TAGS=
LIBRARYQUALITY=3
SPECTRUMID=CCMSLIB00000425046
SCANS=18
489.105 100.0 
END IONS

BEGIN IONS
PEPMASS=105.019
CHARGE=1+
MSLEVEL=2
SOURCE_INSTRUMENT=Negative-Quattro_QQQ:25eV
FILENAME=hmdb_intermediate.mgf
SEQ=*..*
IONMODE=Negative
ORGANISM=HMDB
NAME=HMDB:HMDB00139-213 Glyceric acid M-H
PI=HMDB
DATACOLLECTOR=HMDB
SMILES=OC[C@@H](O)C(O)=O
INCHI=InChI=1S/C3H6O4/c4-1-2(5)3(6)7/h2,4-5H,1H2,(H,6,7)/t2-/m1/s1
INCHIAUX=N/A
PUBMED=N/A
SUBMITUSER=mwang87
TAGS=
LIBRARYQUALITY=3
SPECTRUMID=CCMSLIB00000425047
SCANS=19
57.119 72.727 
104.758 100.0 
END IONS

BEGIN IONS
PEPMASS=174.113
CHARGE=1+
MSLEVEL=2
SOURCE_INSTRUMENT=Positive-Quattro_QQQ:25eV
FILENAME=hmdb_intermediate.mgf
SEQ=*..*
IONMODE=Positive
ORGANISM=HMDB
NAME=HMDB:HMDB00701-979 Hexanoylglycine M+H
PI=HMDB
DATACOLLECTOR=HMDB
SMILES=CCCCCC(=O)NCC(O)=O
INCHI=InChI=1S/C8H15NO3/c1-2-3-4-5-7(10)9-6-8(11)12/h2-6H2,1H3,(H,9,10)(H,11,12)
INCHIAUX=N/A
PUBMED=N/A
SUBMITUSER=mwang87
TAGS=
LIBRARYQUALITY=3
SPECTRUMID=CCMSLIB00000425048
SCANS=20
43.656 100.0 
END IONS

BEGIN IONS
PEPMASS=112.051
CHARGE=1+
MSLEVEL=2
SOURCE_INSTRUMENT=Positive-Quattro_QQQ:40eV
FILENAME=hmdb_intermediate.mgf
SEQ=*..*
IONMODE=Positive
ORGANISM=HMDB
NAME=HMDB:HMDB00630-860 Cytosine M+H
PI=HMDB
DATACOLLECTOR=HMDB
SMILES=NC1=CC=NC(=O)N1
INCHI=InChI=1S/C4H5N3O/c5-3-1-2-6-4(8)7-3/h1-2H,(H3,5,6,7,8)
INCHIAUX=N/A
PUBMED=N/A
SUBMITUSER=mwang87
TAGS=
LIBRARYQUALITY=3
SPECTRUMID=CCMSLIB00000425049
SCANS=21
40.306 100.0 
52.191 71.875 
94.718 57.639 
END IONS

BEGIN IONS
PEPMASS=287.201
CHARGE=1+
MSLEVEL=2
SOURCE_INSTRUMENT=Positive-Quattro_QQQ:10eV
FILENAME=hmdb_intermediate.mgf
SEQ=*..*
IONMODE=Positive
ORGANISM=HMDB
NAME=HMDB:HMDB00053-84 Androstenedione M+H
PI=HMDB
DATACOLLECTOR=HMDB
SMILES=[H][C@@]12CCC(=O)[C@@]1(C)CC[C@@]1([H])[C@@]2([H])CCC2=CC(=O)CC[C@]12C
INCHI=InChI=1S/C19H26O2/c1-18-9-7-13(20)11-12(18)3-4-14-15-5-6-17(21)19(15,2)10-8-16(14)18/h11,14-16H,3-10H2,1-2H3/t14-,15-,16-,18-,19-/m0/s1
INCHIAUX=N/A
PUBMED=N/A
SUBMITUSER=mwang87
TAGS=
LIBRARYQUALITY=3
SPECTRUMID=CCMSLIB00000425050
SCANS=22
286.0 100.0 
END IONS

BEGIN IONS
PEPMASS=500.305
CHARGE=1+
MSLEVEL=2
SOURCE_INSTRUMENT=Positive-Quattro_QQQ:40eV
FILENAME=hmdb_intermediate.mgf
SEQ=*..*
IONMODE=Positive
ORGANISM=HMDB
NAME=HMDB:HMDB00896-1267 Taurodeoxycholic acid M+H
PI=HMDB
DATACOLLECTOR=HMDB
SMILES=[H][C@@]1(CC[C@@]2([H])[C@]3([H])CC[C@]4([H])C[C@H](O)CC[C@]4(C)[C@@]3([H])C[C@H](O)[C@]12C)[C@H](C)CCC(=O)NCCS(O)(=O)=O
INCHI=InChI=1S/C26H45NO6S/c1-16(4-9-24(30)27-12-13-34(31,32)33)20-7-8-21-19-6-5-17-14-18(28)10-11-25(17,2)22(19)15-23(29)26(20,21)3/h16-23,28-29H,4-15H2,1-3H3,(H,27,30)(H,31,32,33)/t16-,17-,18-,19+,20-,21+,22+,23+,25+,26-/m1/s1
INCHIAUX=N/A
PUBMED=N/A
SUBMITUSER=mwang87
TAGS=
LIBRARYQUALITY=3
SPECTRUMID=CCMSLIB00000425051
SCANS=23
84.533 100.0 
END IONS

BEGIN IONS
PEPMASS=151.061
CHARGE=1+
MSLEVEL=2
SOURCE_INSTRUMENT=Positive-Quattro_QQQ:40eV
FILENAME=hmdb_intermediate.mgf
SEQ=*..*
IONMODE=Positive
ORGANISM=HMDB
NAME=HMDB:HMDB01644-1668 D-Xylulose M+H
PI=HMDB
DATACOLLECTOR=HMDB
SMILES=OC[C@@H](O)[C@H](O)C(=O)CO
INCHI=InChI=1S/C5H10O5/c6-1-3(8)5(10)4(9)2-7/h3,5-8,10H,1-2H2/t3-,5+/m1/s1
INCHIAUX=N/A
PUBMED=N/A
SUBMITUSER=mwang87
TAGS=
LIBRARYQUALITY=3
SPECTRUMID=CCMSLIB00000425052
SCANS=24
68.0 100.0 
69.0 92.13 
END IONS

BEGIN IONS
PEPMASS=181.05
CHARGE=1+
MSLEVEL=2
SOURCE_INSTRUMENT=Negative-Quattro_QQQ:40eV
FILENAME=hmdb_intermediate.mgf
SEQ=*..*
IONMODE=Negative
ORGANISM=HMDB
NAME=HMDB:HMDB00118-170 Homovanillic acid M-H
PI=HMDB
DATACOLLECTOR=HMDB
SMILES=COC1=CC(CC(O)=O)=CC=C1O
INCHI=InChI=1S/C9H10O4/c1-13-8-4-6(5-9(11)12)2-3-7(8)10/h2-4,10H,5H2,1H3,(H,11,12)
INCHIAUX=N/A
PUBMED=N/A
SUBMITUSER=mwang87
TAGS=
LIBRARYQUALITY=3
SPECTRUMID=CCMSLIB00000425053
SCANS=25
93.32 100.0 
120.969 51.546 
121.639 69.072 
END IONS

BEGIN IONS
PEPMASS=238.094
CHARGE=1+
MSLEVEL=2
SOURCE_INSTRUMENT=Positive-Quattro_QQQ:40eV
FILENAME=hmdb_intermediate.mgf
SEQ=*..*
IONMODE=Positive
ORGANISM=HMDB
NAME=HMDB:HMDB00238-402 Sepiapterin M+H
PI=HMDB
DATACOLLECTOR=HMDB
SMILES=C[C@H](O)C(=O)C1=NC2=C(NC1)NC(N)=NC2=O
INCHI=InChI=1S/C9H11N5O3/c1-3(15)6(16)4-2-11-7-5(12-4)8(17)14-9(10)13-7/h3,15H,2H2,1H3,(H4,10,11,13,14,17)/t3-/m0/s1
INCHIAUX=N/A
PUBMED=N/A
SUBMITUSER=mwang87
TAGS=
LIBRARYQUALITY=3
SPECTRUMID=CCMSLIB00000425054
SCANS=26
124.398 100.0 
166.299 51.134 
END IONS

BEGIN IONS
PEPMASS=74.0606
CHARGE=1+
MSLEVEL=2
SOURCE_INSTRUMENT=Positive-Quattro_QQQ:10eV
FILENAME=hmdb_intermediate.mgf
SEQ=*..*
IONMODE=Positive
ORGANISM=HMDB
NAME=HMDB:HMDB01888-1789 N,N-Dimethylformamide M+H
PI=HMDB
DATACOLLECTOR=HMDB
SMILES=CN(C)C=O
INCHI=InChI=1S/C3H7NO/c1-4(2)3-5/h3H,1-2H3
INCHIAUX=N/A
PUBMED=N/A
SUBMITUSER=mwang87
TAGS=
LIBRARYQUALITY=3
SPECTRUMID=CCMSLIB00000425055
SCANS=27
73.95 100.0 
END IONS

BEGIN IONS
PEPMASS=159.066
CHARGE=1+
MSLEVEL=2
SOURCE_INSTRUMENT=Negative-Quattro_QQQ:40eV
FILENAME=hmdb_intermediate.mgf
SEQ=*..*
IONMODE=Negative
ORGANISM=HMDB
NAME=HMDB:HMDB00857-1207 Pimelic acid M-H
PI=HMDB
DATACOLLECTOR=HMDB
SMILES=OC(=O)CCCCCC(O)=O
INCHI=InChI=1S/C7H12O4/c8-6(9)4-2-1-3-5-7(10)11/h1-5H2,(H,8,9)(H,10,11)
INCHIAUX=N/A
PUBMED=N/A
SUBMITUSER=mwang87
TAGS=
LIBRARYQUALITY=3
SPECTRUMID=CCMSLIB00000425056
SCANS=28
41.351 58.261 
54.251 52.174 
69.149 58.261 
95.05 100.0 
158.91 54.13 
END IONS

BEGIN IONS
PEPMASS=183.066
CHARGE=1+
MSLEVEL=2
SOURCE_INSTRUMENT=Positive-Quattro_QQQ:40eV
FILENAME=hmdb_intermediate.mgf
SEQ=*..*
IONMODE=Positive
ORGANISM=HMDB
NAME=HMDB:HMDB00755-1085 Hydroxyphenyllactic acid M+H
PI=HMDB
DATACOLLECTOR=HMDB
SMILES=OC(CC1=CC=C(O)C=C1)C(O)=O
INCHI=InChI=1S/C9H10O4/c10-7-3-1-6(2-4-7)5-8(11)9(12)13/h1-4,8,10-11H,5H2,(H,12,13)
INCHIAUX=N/A
PUBMED=N/A
SUBMITUSER=mwang87
TAGS=
LIBRARYQUALITY=3
SPECTRUMID=CCMSLIB00000425057
SCANS=29
51.007 70.558 
54.791 57.859 
56.431 78.832 
56.81 50.739 
57.693 66.324 
70.181 100.0 
81.787 51.893 
97.43 52.661 
97.556 90.186 
98.691 62.284 
128.59 58.627 
168.585 54.01 
END IONS

BEGIN IONS
PEPMASS=190.119
CHARGE=1+
MSLEVEL=2
SOURCE_INSTRUMENT=Positive-Quattro_QQQ:25eV
FILENAME=hmdb_intermediate.mgf
SEQ=*..*
IONMODE=Positive
ORGANISM=HMDB
NAME=HMDB:HMDB00679-943 Homocitrulline M+H
PI=HMDB
DATACOLLECTOR=HMDB
SMILES=N[C@@H](CCCCNC(N)=O)C(O)=O
INCHI=InChI=1S/C7H15N3O3/c8-5(6(11)12)3-1-2-4-10-7(9)13/h5H,1-4,8H2,(H,11,12)(H3,9,10,13)/t5-/m0/s1
INCHIAUX=N/A
PUBMED=N/A
SUBMITUSER=mwang87
TAGS=
LIBRARYQUALITY=3
SPECTRUMID=CCMSLIB00000425058
SCANS=30
84.144 100.0 
END IONS

BEGIN IONS
PEPMASS=136.043
CHARGE=1+
MSLEVEL=2
SOURCE_INSTRUMENT=Positive-Quattro_QQQ:25eV
FILENAME=hmdb_intermediate.mgf
SEQ=*..*
IONMODE=Positive
ORGANISM=HMDB
NAME=HMDB:HMDB02108-2008 Methylcysteine M+H
PI=HMDB
DATACOLLECTOR=HMDB
SMILES=CSC[C@H](N)C(O)=O
INCHI=InChI=1S/C4H9NO2S/c1-8-2-3(5)4(6)7/h3H,2,5H2,1H3,(H,6,7)/t3-/m0/s1
INCHIAUX=N/A
PUBMED=N/A
SUBMITUSER=mwang87
TAGS=
LIBRARYQUALITY=3
SPECTRUMID=CCMSLIB00000425059
SCANS=31
73.0 95.932 
75.0 60.198 
77.0 100.0 
END IONS

BEGIN IONS
PEPMASS=634.219
CHARGE=1+
MSLEVEL=2
SOURCE_INSTRUMENT=Positive-Quattro_QQQ:25eV
FILENAME=hmdb_intermediate.mgf
SEQ=*..*
IONMODE=Positive
ORGANISM=HMDB
NAME=HMDB:HMDB00825-1174 3'-Sialyllactose M+H
PI=HMDB
DATACOLLECTOR=HMDB
SMILES=[H][C@]1(O[C@@](C[C@H](O)[C@H]1NC(C)=O)(O[C@H]1[C@@H](O)[C@@H](CO)O[C@@H](O[C@H]([C@H](O)CO)[C@H](O)[C@@H](O)C=O)[C@@H]1O)C(O)=O)[C@H](O)[C@H](O)CO
INCHI=InChI=1S/C23H39NO19/c1-7(29)24-13-8(30)2-23(22(38)39,42-19(13)15(35)10(32)4-26)43-20-16(36)12(6-28)40-21(17(20)37)41-18(11(33)5-27)14(34)9(31)3-25/h3,8-21,26-28,30-37H,2,4-6H2,1H3,(H,24,29)(H,38,39)/t8-,9-,10+,11+,12+,13+,14+,15+,16-,17+,18+,19+,20-,21-,23-/m0/s1
INCHIAUX=N/A
PUBMED=N/A
SUBMITUSER=mwang87
TAGS=
LIBRARYQUALITY=3
SPECTRUMID=CCMSLIB00000425060
SCANS=32
163.0 50.33 
274.0 100.0 
END IONS

BEGIN IONS
PEPMASS=173.093
CHARGE=1+
MSLEVEL=2
SOURCE_INSTRUMENT=Positive-Quattro_QQQ:40eV
FILENAME=hmdb_intermediate.mgf
SEQ=*..*
IONMODE=Positive
ORGANISM=HMDB
NAME=HMDB:HMDB00721-1016 Glycylproline M+H
PI=HMDB
DATACOLLECTOR=HMDB
SMILES=NCC(=O)N1CCCC1C(O)=O
INCHI=InChI=1S/C7H12N2O3/c8-4-6(10)9-3-1-2-5(9)7(11)12/h5H,1-4,8H2,(H,11,12)
INCHIAUX=N/A
PUBMED=N/A
SUBMITUSER=mwang87
TAGS=
LIBRARYQUALITY=3
SPECTRUMID=CCMSLIB00000425061
SCANS=33
70.191 91.237 
70.567 100.0 
END IONS

BEGIN IONS
PEPMASS=213.076
CHARGE=1+
MSLEVEL=2
SOURCE_INSTRUMENT=Positive-Quattro_QQQ:25eV
FILENAME=hmdb_intermediate.mgf
SEQ=*..*
IONMODE=Positive
ORGANISM=HMDB
NAME=HMDB:HMDB00913-1301 Vanillactic acid M+H
PI=HMDB
DATACOLLECTOR=HMDB
SMILES=COC1=CC(CC(O)C(O)=O)=CC=C1O
INCHI=InChI=1S/C10H12O5/c1-15-9-5-6(2-3-7(9)11)4-8(12)10(13)14/h2-3,5,8,11-12H,4H2,1H3,(H,13,14)
INCHIAUX=N/A
PUBMED=N/A
SUBMITUSER=mwang87
TAGS=
LIBRARYQUALITY=3
SPECTRUMID=CCMSLIB00000425062
SCANS=34
79.0 90.335 
93.0 100.0 
107.0 57.036 
END IONS

BEGIN IONS
PEPMASS=111.045
CHARGE=1+
MSLEVEL=2
SOURCE_INSTRUMENT=Positive-Quattro_QQQ:25eV
FILENAME=hmdb_intermediate.mgf
SEQ=*..*
IONMODE=Positive
ORGANISM=HMDB
NAME=HMDB:HMDB02434-2108 Hydroquinone M+H
PI=HMDB
DATACOLLECTOR=HMDB
SMILES=OC1=CC=C(O)C=C1
INCHI=InChI=1S/C6H6O2/c7-5-1-2-6(8)4-3-5/h1-4,7-8H
INCHIAUX=N/A
PUBMED=N/A
SUBMITUSER=mwang87
TAGS=
LIBRARYQUALITY=3
SPECTRUMID=CCMSLIB00000425063
SCANS=35
64.0 100.0 
END IONS

BEGIN IONS
PEPMASS=175.024
CHARGE=1+
MSLEVEL=2
SOURCE_INSTRUMENT=Positive-Quattro_QQQ:40eV
FILENAME=hmdb_intermediate.mgf
SEQ=*..*
IONMODE=Positive
ORGANISM=HMDB
NAME=HMDB:HMDB00958-1362 trans-Aconitic acid M+H
PI=HMDB
DATACOLLECTOR=HMDB
SMILES=OC(=O)C\C(=C/C(O)=O)C(O)=O
INCHI=InChI=1S/C6H6O6/c7-4(8)1-3(6(11)12)2-5(9)10/h1H,2H2,(H,7,8)(H,9,10)(H,11,12)/b3-1+
INCHIAUX=N/A
PUBMED=N/A
SUBMITUSER=mwang87
TAGS=
LIBRARYQUALITY=3
SPECTRUMID=CCMSLIB00000425064
SCANS=36
41.339 100.0 
85.05 60.87 
END IONS

BEGIN IONS
PEPMASS=151.04
CHARGE=1+
MSLEVEL=2
SOURCE_INSTRUMENT=Positive-Quattro_QQQ:40eV
FILENAME=hmdb_intermediate.mgf
SEQ=*..*
IONMODE=Positive
ORGANISM=HMDB
NAME=HMDB:HMDB01587-1662 Phenylglyoxylic acid M+H
PI=HMDB
DATACOLLECTOR=HMDB
SMILES=OC(=O)C(=O)C1=CC=CC=C1
INCHI=InChI=1S/C8H6O3/c9-7(8(10)11)6-4-2-1-3-5-6/h1-5H,(H,10,11)
INCHIAUX=N/A
PUBMED=N/A
SUBMITUSER=mwang87
TAGS=
LIBRARYQUALITY=3
SPECTRUMID=CCMSLIB00000425065
SCANS=37
77.0 100.0 
END IONS

BEGIN IONS
PEPMASS=289.217
CHARGE=1+
MSLEVEL=2
SOURCE_INSTRUMENT=Positive-Quattro_QQQ:10eV
FILENAME=hmdb_intermediate.mgf
SEQ=*..*
IONMODE=Positive
ORGANISM=HMDB
NAME=HMDB:HMDB00899-1274 Androstanedione M+H
PI=HMDB
DATACOLLECTOR=HMDB
SMILES=[H][C@@]12CCC(=O)[C@@]1(C)CC[C@@]1([H])[C@@]2([H])CC[C@@]2([H])CC(=O)CC[C@]12C
INCHI=InChI=1S/C19H28O2/c1-18-9-7-13(20)11-12(18)3-4-14-15-5-6-17(21)19(15,2)10-8-16(14)18/h12,14-16H,3-11H2,1-2H3/t12-,14-,15-,16-,18-,19-/m0/s1
INCHIAUX=N/A
PUBMED=N/A
SUBMITUSER=mwang87
TAGS=
LIBRARYQUALITY=3
SPECTRUMID=CCMSLIB00000425066
SCANS=38
289.19 100.0 
END IONS

BEGIN IONS
PEPMASS=391.285
CHARGE=1+
MSLEVEL=2
SOURCE_INSTRUMENT=Negative-Quattro_QQQ:40eV
FILENAME=hmdb_intermediate.mgf
SEQ=*..*
IONMODE=Negative
ORGANISM=HMDB
NAME=HMDB:HMDB00733-1037 Hyodeoxycholic acid M-H
PI=HMDB
DATACOLLECTOR=HMDB
SMILES=[H][C@@]12CC[C@H]([C@H](C)CCC(O)=O)[C@@]1(C)CC[C@@]1([H])[C@@]2([H])C[C@H](O)C2C[C@H](O)CC[C@]12C
INCHI=InChI=1S/C24H40O4/c1-14(4-7-22(27)28)17-5-6-18-16-13-21(26)20-12-15(25)8-10-24(20,3)19(16)9-11-23(17,18)2/h14-21,25-26H,4-13H2,1-3H3,(H,27,28)/t14-,15-,16+,17-,18+,19+,20?,21+,23-,24-/m1/s1
INCHIAUX=N/A
PUBMED=N/A
SUBMITUSER=mwang87
TAGS=
LIBRARYQUALITY=3
SPECTRUMID=CCMSLIB00000425067
SCANS=39
391.0 100.0 
END IONS

BEGIN IONS
PEPMASS=147.045
CHARGE=1+
MSLEVEL=2
SOURCE_INSTRUMENT=Positive-Quattro_QQQ:40eV
FILENAME=hmdb_intermediate.mgf
SEQ=*..*
IONMODE=Positive
ORGANISM=HMDB
NAME=HMDB:HMDB01218-1471 Coumarin M+H
PI=HMDB
DATACOLLECTOR=HMDB
SMILES=O=C1OC2=CC=CC=C2C=C1
INCHI=InChI=1S/C9H6O2/c10-9-6-5-7-3-1-2-4-8(7)11-9/h1-6H
INCHIAUX=N/A
PUBMED=N/A
SUBMITUSER=mwang87
TAGS=
LIBRARYQUALITY=3
SPECTRUMID=CCMSLIB00000425068
SCANS=40
65.0 100.0 
END IONS

BEGIN IONS
PEPMASS=303.014
CHARGE=1+
MSLEVEL=2
SOURCE_INSTRUMENT=Positive-Quattro_QQQ:10eV
FILENAME=hmdb_intermediate.mgf
SEQ=*..*
IONMODE=Positive
ORGANISM=HMDB
NAME=HMDB:HMDB02899-2155 Ellagic acid M+H
PI=HMDB
DATACOLLECTOR=HMDB
SMILES=OC1=C(O)C2=C3C(=C1)C(=O)OC1=C3C(=CC(O)=C1O)C(=O)O2
INCHI=InChI=1S/C14H6O8/c15-5-1-3-7-8-4(14(20)22-11(7)9(5)17)2-6(16)10(18)12(8)21-13(3)19/h1-2,15-18H
INCHIAUX=N/A
PUBMED=N/A
SUBMITUSER=mwang87
TAGS=
LIBRARYQUALITY=3
SPECTRUMID=CCMSLIB00000425069
SCANS=41
302.0 100.0 
303.0 70.437 
END IONS

BEGIN IONS
PEPMASS=78.0377
CHARGE=1+
MSLEVEL=2
SOURCE_INSTRUMENT=Positive-Quattro_QQQ:40eV
FILENAME=hmdb_intermediate.mgf
SEQ=*..*
IONMODE=Positive
ORGANISM=HMDB
NAME=HMDB:HMDB02991-2178 Cysteamine M+H
PI=HMDB
DATACOLLECTOR=HMDB
SMILES=NCCS
INCHI=InChI=1S/C2H7NS/c3-1-2-4/h4H,1-3H2
INCHIAUX=N/A
PUBMED=N/A
SUBMITUSER=mwang87
TAGS=
LIBRARYQUALITY=3
SPECTRUMID=CCMSLIB00000425070
SCANS=42
27.0 100.0 
35.0 54.918 
61.0 71.955 
END IONS

BEGIN IONS
PEPMASS=103.124
CHARGE=1+
MSLEVEL=2
SOURCE_INSTRUMENT=Positive-Quattro_QQQ:25eV
FILENAME=hmdb_intermediate.mgf
SEQ=*..*
IONMODE=Positive
ORGANISM=HMDB
NAME=HMDB:HMDB02322-2056 Cadaverine M+H
PI=HMDB
DATACOLLECTOR=HMDB
SMILES=NCCCCCN
INCHI=InChI=1S/C5H14N2/c6-4-2-1-3-5-7/h1-7H2
INCHIAUX=N/A
PUBMED=N/A
SUBMITUSER=mwang87
TAGS=
LIBRARYQUALITY=3
SPECTRUMID=CCMSLIB00000425071
SCANS=43
41.0 100.0 
END IONS

BEGIN IONS
PEPMASS=749.516
CHARGE=1+
MSLEVEL=2
SOURCE_INSTRUMENT=Positive-Quattro_QQQ:40eV
FILENAME=hmdb_intermediate.mgf
SEQ=*..*
IONMODE=Positive
ORGANISM=HMDB
NAME=HMDB:HMDB01916-1833 Azythromycin M+H
PI=HMDB
DATACOLLECTOR=HMDB
SMILES=CC[C@@H]1OC(=O)[C@H](C)[C@@H](O[C@@H]2C[C@](C)(OC)[C@H](O)[C@@H](C)O2)[C@@H](C)[C@H](O[C@H]2O[C@@H](C)C[C@H]([C@@H]2O)N(C)C)[C@@](C)(O)C[C@H](C)CN(C)[C@@H](C)[C@@H](O)[C@]1(C)O
INCHI=InChI=1S/C38H72N2O12/c1-15-27-38(10,46)31(42)24(6)40(13)19-20(2)17-36(8,45)33(52-35-29(41)26(39(11)12)16-21(3)48-35)22(4)30(23(5)34(44)50-27)51-28-18-37(9,47-14)32(43)25(7)49-28/h20-33,35,41-43,45-46H,15-19H2,1-14H3/t20-,21-,22+,23+,24-,25+,26+,27-,28+,29-,30-,31+,32+,33-,35+,36-,37-,38+/m0/s1
INCHIAUX=N/A
PUBMED=N/A
SUBMITUSER=mwang87
TAGS=
LIBRARYQUALITY=3
SPECTRUMID=CCMSLIB00000425072
SCANS=44
83.171 84.871 
113.162 63.324 
115.402 79.359 
116.148 100.0 
127.598 56.418 
158.213 88.404 
END IONS

BEGIN IONS
PEPMASS=159.175
CHARGE=1+
MSLEVEL=2
SOURCE_INSTRUMENT=Positive-Quattro_QQQ:10eV
FILENAME=hmdb_intermediate.mgf
SEQ=*..*
IONMODE=Positive
ORGANISM=HMDB
NAME=HMDB:HMDB11624-2490 Decyl alcohol  M+H
PI=HMDB
DATACOLLECTOR=HMDB
SMILES=CCCCCCCCCCO
INCHI=InChI=1S/C10H22O/c1-2-3-4-5-6-7-8-9-10-11/h11H,2-10H2,1H3
INCHIAUX=N/A
PUBMED=N/A
SUBMITUSER=mwang87
TAGS=
LIBRARYQUALITY=3
SPECTRUMID=CCMSLIB00000425073
SCANS=45
118.29 100.0 
END IONS

BEGIN IONS
PEPMASS=90.0555
CHARGE=1+
MSLEVEL=2
SOURCE_INSTRUMENT=Positive-Quattro_QQQ:10eV
FILENAME=hmdb_intermediate.mgf
SEQ=*..*
IONMODE=Positive
ORGANISM=HMDB
NAME=HMDB:HMDB01310-1510 D-Alanine M+H
PI=HMDB
DATACOLLECTOR=HMDB
SMILES=C[C@@H](N)C(O)=O
INCHI=InChI=1S/C3H7NO2/c1-2(4)3(5)6/h2H,4H2,1H3,(H,5,6)/t2-/m1/s1
INCHIAUX=N/A
PUBMED=N/A
SUBMITUSER=mwang87
TAGS=
LIBRARYQUALITY=3
SPECTRUMID=CCMSLIB00000425074
SCANS=46
44.0 100.0 
END IONS

BEGIN IONS
PEPMASS=211.082
CHARGE=1+
MSLEVEL=2
SOURCE_INSTRUMENT=Positive-Quattro_QQQ:25eV
FILENAME=hmdb_intermediate.mgf
SEQ=*..*
IONMODE=Positive
ORGANISM=HMDB
NAME=HMDB:HMDB03219-2213 Sedoheptulose M+H
PI=HMDB
DATACOLLECTOR=HMDB
SMILES=OCC(O)C(O)C(O)C(O)C(=O)CO
INCHI=InChI=1S/C7H14O7/c8-1-3(10)5(12)7(14)6(13)4(11)2-9/h3,5-10,12-14H,1-2H2
INCHIAUX=N/A
PUBMED=N/A
SUBMITUSER=mwang87
TAGS=
LIBRARYQUALITY=3
SPECTRUMID=CCMSLIB00000425075
SCANS=47
76.0 100.0 
77.0 65.846 
END IONS

BEGIN IONS
PEPMASS=81.9725
CHARGE=1+
MSLEVEL=2
SOURCE_INSTRUMENT=Positive-Quattro_QQQ:25eV
FILENAME=hmdb_intermediate.mgf
SEQ=*..*
IONMODE=Positive
ORGANISM=HMDB
NAME=HMDB:HMDB01033-1394 Hydrogen sulfite M+H
PI=HMDB
DATACOLLECTOR=HMDB
SMILES=OS([O-])=O
INCHI=InChI=1S/H2O3S/c1-4(2)3/h(H2,1,2,3)/p-1
INCHIAUX=N/A
PUBMED=N/A
SUBMITUSER=mwang87
TAGS=
LIBRARYQUALITY=3
SPECTRUMID=CCMSLIB00000425076
SCANS=48
41.0 77.626 
42.0 61.127 
66.0 100.0 
END IONS

BEGIN IONS
PEPMASS=175.061
CHARGE=1+
MSLEVEL=2
SOURCE_INSTRUMENT=Negative-Quattro_QQQ:10eV
FILENAME=hmdb_intermediate.mgf
SEQ=*..*
IONMODE=Negative
ORGANISM=HMDB
NAME=HMDB:HMDB00402-609 2-Isopropylmalic acid M-H
PI=HMDB
DATACOLLECTOR=HMDB
SMILES=CC(C)[C@@](O)(CC(O)=O)C(O)=O
INCHI=InChI=1S/C7H12O5/c1-4(2)7(12,6(10)11)3-5(8)9/h4,12H,3H2,1-2H3,(H,8,9)(H,10,11)/t7-/m0/s1
INCHIAUX=N/A
PUBMED=N/A
SUBMITUSER=mwang87
TAGS=
LIBRARYQUALITY=3
SPECTRUMID=CCMSLIB00000425077
SCANS=49
175.124 100.0 
END IONS

BEGIN IONS
PEPMASS=61.0653
CHARGE=1+
MSLEVEL=2
SOURCE_INSTRUMENT=Positive-Quattro_QQQ:10eV
FILENAME=hmdb_intermediate.mgf
SEQ=*..*
IONMODE=Positive
ORGANISM=HMDB
NAME=HMDB:HMDB00863-1217 Isopropyl alcohol M+H
PI=HMDB
DATACOLLECTOR=HMDB
SMILES=CC(C)O
INCHI=InChI=1S/C3H8O/c1-3(2)4/h3-4H,1-2H3
INCHIAUX=N/A
PUBMED=N/A
SUBMITUSER=mwang87
TAGS=
LIBRARYQUALITY=3
SPECTRUMID=CCMSLIB00000425078
SCANS=50
60.0 100.0 
END IONS

BEGIN IONS
PEPMASS=155.144
CHARGE=1+
MSLEVEL=2
SOURCE_INSTRUMENT=Positive-Quattro_QQQ:40eV
FILENAME=hmdb_intermediate.mgf
SEQ=*..*
IONMODE=Positive
ORGANISM=HMDB
NAME=HMDB:HMDB04472-2393 Eucalyptol M+H
PI=HMDB
DATACOLLECTOR=HMDB
SMILES=CC12CCC(CC1)C(C)(C)O2
INCHI=InChI=1S/C10H18O/c1-9(2)8-4-6-10(3,11-9)7-5-8/h8H,4-7H2,1-3H3
INCHIAUX=N/A
PUBMED=N/A
SUBMITUSER=mwang87
TAGS=
LIBRARYQUALITY=3
SPECTRUMID=CCMSLIB00000425079
SCANS=51
41.0 74.282 
79.0 65.051 
81.0 100.0 
END IONS

BEGIN IONS
PEPMASS=81.0453
CHARGE=1+
MSLEVEL=2
SOURCE_INSTRUMENT=Positive-Quattro_QQQ:40eV
FILENAME=hmdb_intermediate.mgf
SEQ=*..*
IONMODE=Positive
ORGANISM=HMDB
NAME=HMDB:HMDB03361-2267 Pyrimidine M+H
PI=HMDB
DATACOLLECTOR=HMDB
SMILES=C1=CN=CN=C1
INCHI=InChI=1S/C4H4N2/c1-2-5-4-6-3-1/h1-4H
INCHIAUX=N/A
PUBMED=N/A
SUBMITUSER=mwang87
TAGS=
LIBRARYQUALITY=3
SPECTRUMID=CCMSLIB00000425080
SCANS=52
28.12 100.0 
END IONS

BEGIN IONS
PEPMASS=307.264
CHARGE=1+
MSLEVEL=2
SOURCE_INSTRUMENT=Positive-Quattro_QQQ:25eV
FILENAME=hmdb_intermediate.mgf
SEQ=*..*
IONMODE=Positive
ORGANISM=HMDB
NAME=HMDB:HMDB02925-2167 8,11,14-Eicosatrienoic acid M+H
PI=HMDB
DATACOLLECTOR=HMDB
SMILES=CCCCC\C=C/C\C=C/C\C=C/CCCCCCC(O)=O
INCHI=InChI=1S/C20H34O2/c1-2-3-4-5-6-7-8-9-10-11-12-13-14-15-16-17-18-19-20(21)22/h6-7,9-10,12-13H,2-5,8,11,14-19H2,1H3,(H,21,22)/b7-6-,10-9-,13-12-
INCHIAUX=N/A
PUBMED=N/A
SUBMITUSER=mwang87
TAGS=
LIBRARYQUALITY=3
SPECTRUMID=CCMSLIB00000425081
SCANS=53
66.0 59.112 
68.0 57.075 
71.0 51.462 
78.0 55.735 
81.0 59.184 
93.0 68.185 
94.0 72.831 
95.0 100.0 
105.0 65.336 
108.0 76.55 
162.0 67.666 
165.0 77.84 
END IONS

BEGIN IONS
PEPMASS=142.027
CHARGE=1+
MSLEVEL=2
SOURCE_INSTRUMENT=Positive-Quattro_QQQ:40eV
FILENAME=hmdb_intermediate.mgf
SEQ=*..*
IONMODE=Positive
ORGANISM=HMDB
NAME=HMDB:HMDB60152-372 O-Phosphoethanolamine M+H
PI=HMDB
DATACOLLECTOR=HMDB
SMILES=NCCOP(O)(O)=O
INCHI=InChI=1S/C2H8NO4P/c3-1-2-7-8(4,5)6/h1-3H2,(H2,4,5,6)
INCHIAUX=N/A
PUBMED=N/A
SUBMITUSER=mwang87
TAGS=
LIBRARYQUALITY=3
SPECTRUMID=CCMSLIB00000425082
SCANS=54
44.628 100.0 
END IONS

BEGIN IONS
PEPMASS=233.129
CHARGE=1+
MSLEVEL=2
SOURCE_INSTRUMENT=Positive-Quattro_QQQ:10eV
FILENAME=hmdb_intermediate.mgf
SEQ=*..*
IONMODE=Positive
ORGANISM=HMDB
NAME=HMDB:HMDB01389-1547 Melatonin M+H
PI=HMDB
DATACOLLECTOR=HMDB
SMILES=COC1=CC2=C(NC=C2CCNC(C)=O)C=C1
INCHI=InChI=1S/C13H16N2O2/c1-9(16)14-6-5-10-8-15-13-4-3-11(17-2)7-12(10)13/h3-4,7-8,15H,5-6H2,1-2H3,(H,14,16)
INCHIAUX=N/A
PUBMED=N/A
SUBMITUSER=mwang87
TAGS=
LIBRARYQUALITY=3
SPECTRUMID=CCMSLIB00000425083
SCANS=55
173.0 100.0 
END IONS

BEGIN IONS
PEPMASS=146.082
CHARGE=1+
MSLEVEL=2
SOURCE_INSTRUMENT=Positive-Quattro_QQQ:10eV
FILENAME=hmdb_intermediate.mgf
SEQ=*..*
IONMODE=Positive
ORGANISM=HMDB
NAME=HMDB:HMDB00730-1026 Isobutyrylglycine M+H
PI=HMDB
DATACOLLECTOR=HMDB
SMILES=CC(C)C(=O)NCC(O)=O
INCHI=InChI=1S/C6H11NO3/c1-4(2)6(10)7-3-5(8)9/h4H,3H2,1-2H3,(H,7,10)(H,8,9)
INCHIAUX=N/A
PUBMED=N/A
SUBMITUSER=mwang87
TAGS=
LIBRARYQUALITY=3
SPECTRUMID=CCMSLIB00000425084
SCANS=56
71.384 100.0 
76.325 71.806 
END IONS

BEGIN IONS
PEPMASS=103.04
CHARGE=1+
MSLEVEL=2
SOURCE_INSTRUMENT=Negative-Quattro_QQQ:10eV
FILENAME=hmdb_intermediate.mgf
SEQ=*..*
IONMODE=Negative
ORGANISM=HMDB
NAME=HMDB:HMDB00011-16 (R)-3-Hydroxybutyric acid M-H
PI=HMDB
DATACOLLECTOR=HMDB
SMILES=C[C@@H](O)CC(O)=O
INCHI=InChI=1S/C4H8O3/c1-3(5)2-4(6)7/h3,5H,2H2,1H3,(H,6,7)/t3-/m1/s1
INCHIAUX=N/A
PUBMED=N/A
SUBMITUSER=mwang87
TAGS=
LIBRARYQUALITY=3
SPECTRUMID=CCMSLIB00000425085
SCANS=57
59.185 100.0 
END IONS

BEGIN IONS
PEPMASS=129.019
CHARGE=1+
MSLEVEL=2
SOURCE_INSTRUMENT=Negative-Quattro_QQQ:25eV
FILENAME=hmdb_intermediate.mgf
SEQ=*..*
IONMODE=Negative
ORGANISM=HMDB
NAME=HMDB:HMDB61185-838 2-Pentendioate M-H
PI=HMDB
DATACOLLECTOR=HMDB
SMILES=OC(=O)CC=CC(O)=O
INCHI=InChI=1S/C5H6O4/c6-4(7)2-1-3-5(8)9/h1-2H,3H2,(H,6,7)(H,8,9)/b2-1+
INCHIAUX=N/A
PUBMED=N/A
SUBMITUSER=mwang87
TAGS=
LIBRARYQUALITY=3
SPECTRUMID=CCMSLIB00000425086
SCANS=58
41.301 100.0 
85.005 51.445 
END IONS

BEGIN IONS
PEPMASS=195.066
CHARGE=1+
MSLEVEL=2
SOURCE_INSTRUMENT=Positive-Quattro_QQQ:40eV
FILENAME=hmdb_intermediate.mgf
SEQ=*..*
IONMODE=Positive
ORGANISM=HMDB
NAME=HMDB:HMDB00954-1350 trans-Ferulic acid M+H
PI=HMDB
DATACOLLECTOR=HMDB
SMILES=COC1=C(O)C=CC(\C=C\C(O)=O)=C1
INCHI=InChI=1S/C10H10O4/c1-14-9-6-7(2-4-8(9)11)3-5-10(12)13/h2-6,11H,1H3,(H,12,13)/b5-3+
INCHIAUX=N/A
PUBMED=N/A
SUBMITUSER=mwang87
TAGS=
LIBRARYQUALITY=3
SPECTRUMID=CCMSLIB00000425087
SCANS=59
88.0 100.0 
END IONS

BEGIN IONS
PEPMASS=183.052
CHARGE=1+
MSLEVEL=2
SOURCE_INSTRUMENT=Positive-Quattro_QQQ:40eV
FILENAME=hmdb_intermediate.mgf
SEQ=*..*
IONMODE=Positive
ORGANISM=HMDB
NAME=HMDB:HMDB03099-2196 1-Methyluric acid M+H
PI=HMDB
DATACOLLECTOR=HMDB
SMILES=CN1C(=O)NC2=C(NC(=O)N2)C1=O
INCHI=InChI=1S/C6H6N4O3/c1-10-4(11)2-3(9-6(10)13)8-5(12)7-2/h1H3,(H,9,13)(H2,7,8,12)
INCHIAUX=N/A
PUBMED=N/A
SUBMITUSER=mwang87
TAGS=
LIBRARYQUALITY=3
SPECTRUMID=CCMSLIB00000425088
SCANS=60
55.0 100.0 
END IONS

BEGIN IONS
PEPMASS=289.071
CHARGE=1+
MSLEVEL=2
SOURCE_INSTRUMENT=Negative-Quattro_QQQ:25eV
FILENAME=hmdb_intermediate.mgf
SEQ=*..*
IONMODE=Negative
ORGANISM=HMDB
NAME=HMDB:HMDB02780-2129 Catechin M-H
PI=HMDB
DATACOLLECTOR=HMDB
SMILES=O[C@H]1CC2=C(O)C=C(O)C=C2O[C@@H]1C1=CC(O)=C(O)C=C1
INCHI=InChI=1S/C15H14O6/c16-8-4-11(18)9-6-13(20)15(21-14(9)5-8)7-1-2-10(17)12(19)3-7/h1-5,13,15-20H,6H2/t13-,15+/m0/s1
INCHIAUX=N/A
PUBMED=N/A
SUBMITUSER=mwang87
TAGS=
LIBRARYQUALITY=3
SPECTRUMID=CCMSLIB00000425089
SCANS=61
108.0 50.632 
109.0 100.0 
END IONS

BEGIN IONS
PEPMASS=276.11
CHARGE=1+
MSLEVEL=2
SOURCE_INSTRUMENT=Positive-Quattro_QQQ:10eV
FILENAME=hmdb_intermediate.mgf
SEQ=*..*
IONMODE=Positive
ORGANISM=HMDB
NAME=HMDB:HMDB01786-1681 Ethenodeoxyadenosine M+H
PI=HMDB
DATACOLLECTOR=HMDB
SMILES=OC[C@H]1O[C@H](C[C@@H]1O)N1C=NC2=C1N=CN1C=CN=C21
INCHI=InChI=1S/C12H13N5O3/c18-4-8-7(19)3-9(20-8)17-6-14-10-11-13-1-2-16(11)5-15-12(10)17/h1-2,5-9,18-19H,3-4H2/t7-,8+,9+/m0/s1
INCHIAUX=N/A
PUBMED=N/A
SUBMITUSER=mwang87
TAGS=
LIBRARYQUALITY=3
SPECTRUMID=CCMSLIB00000425090
SCANS=62
276.014 100.0 
END IONS

BEGIN IONS
PEPMASS=287.165
CHARGE=1+
MSLEVEL=2
SOURCE_INSTRUMENT=Positive-Quattro_QQQ:10eV
FILENAME=hmdb_intermediate.mgf
SEQ=*..*
IONMODE=Positive
ORGANISM=HMDB
NAME=HMDB:HMDB00343-552 2-Hydroxyestrone M+H
PI=HMDB
DATACOLLECTOR=HMDB
SMILES=[H][C@@]12CCC(=O)[C@@]1(C)CC[C@]1([H])C3=C(CC[C@@]21[H])C=C(O)C(O)=C3
INCHI=InChI=1S/C18H22O3/c1-18-7-6-11-12(14(18)4-5-17(18)21)3-2-10-8-15(19)16(20)9-13(10)11/h8-9,11-12,14,19-20H,2-7H2,1H3/t11-,12+,14-,18-/m0/s1
INCHIAUX=N/A
PUBMED=N/A
SUBMITUSER=mwang87
TAGS=
LIBRARYQUALITY=3
SPECTRUMID=CCMSLIB00000425091
SCANS=63
189.244 50.0 
260.246 76.582 
301.569 100.0 
END IONS

BEGIN IONS
PEPMASS=295.129
CHARGE=1+
MSLEVEL=2
SOURCE_INSTRUMENT=Positive-Quattro_QQQ:40eV
FILENAME=hmdb_intermediate.mgf
SEQ=*..*
IONMODE=Positive
ORGANISM=HMDB
NAME=HMDB:HMDB01894-1809 Aspartame M+H
PI=HMDB
DATACOLLECTOR=HMDB
SMILES=COC(=O)[C@H](CC1=CC=CC=C1)NC(=O)[C@@H](N)CC(O)=O
INCHI=InChI=1S/C14H18N2O5/c1-21-14(20)11(7-9-5-3-2-4-6-9)16-13(19)10(15)8-12(17)18/h2-6,10-11H,7-8,15H2,1H3,(H,16,19)(H,17,18)/t10-,11-/m0/s1
INCHIAUX=N/A
PUBMED=N/A
SUBMITUSER=mwang87
TAGS=
LIBRARYQUALITY=3
SPECTRUMID=CCMSLIB00000425092
SCANS=64
119.486 55.699 
119.983 100.0 
120.603 78.182 
END IONS

BEGIN IONS
PEPMASS=441.163
CHARGE=1+
MSLEVEL=2
SOURCE_INSTRUMENT=Positive-Quattro_QQQ:40eV
FILENAME=hmdb_intermediate.mgf
SEQ=*..*
IONMODE=Positive
ORGANISM=HMDB
NAME=HMDB:HMDB01833-1689 Aminopterin M+H
PI=HMDB
DATACOLLECTOR=HMDB
SMILES=NC1=NC2=C(N=C(CNC3=CC=C(C=C3)C(=O)NC(CCC(O)=O)C(O)=O)C=N2)C(N)=N1
INCHI=InChI=1S/C19H20N8O5/c20-15-14-16(27-19(21)26-15)23-8-11(24-14)7-22-10-3-1-9(2-4-10)17(30)25-12(18(31)32)5-6-13(28)29/h1-4,8,12,22H,5-7H2,(H,25,30)(H,28,29)(H,31,32)(H4,20,21,23,26,27)
INCHIAUX=N/A
PUBMED=N/A
SUBMITUSER=mwang87
TAGS=
LIBRARYQUALITY=3
SPECTRUMID=CCMSLIB00000425093
SCANS=65
174.0 100.0 
175.0 80.197 
END IONS

BEGIN IONS
PEPMASS=428.374
CHARGE=1+
MSLEVEL=2
SOURCE_INSTRUMENT=Positive-Quattro_QQQ:10eV
FILENAME=hmdb_intermediate.mgf
SEQ=*..*
IONMODE=Positive
ORGANISM=HMDB
NAME=HMDB:HMDB00848-1196 Stearoylcarnitine M+H
PI=HMDB
DATACOLLECTOR=HMDB
SMILES=CCCCCCCCCCCCCCCCCC(=O)OC(CC([O-])=O)C[N+](C)(C)C
INCHI=InChI=1S/C25H49NO4/c1-5-6-7-8-9-10-11-12-13-14-15-16-17-18-19-20-25(29)30-23(21-24(27)28)22-26(2,3)4/h23H,5-22H2,1-4H3
INCHIAUX=N/A
PUBMED=N/A
SUBMITUSER=mwang87
TAGS=
LIBRARYQUALITY=3
SPECTRUMID=CCMSLIB00000425094
SCANS=66
427.0 100.0 
428.0 60.774 
END IONS

BEGIN IONS
PEPMASS=482.997
CHARGE=1+
MSLEVEL=2
SOURCE_INSTRUMENT=Positive-Quattro_QQQ:10eV
FILENAME=hmdb_intermediate.mgf
SEQ=*..*
IONMODE=Positive
ORGANISM=HMDB
NAME=HMDB:HMDB01342-1525 Thymidine 5'-triphosphate M+H
PI=HMDB
DATACOLLECTOR=HMDB
SMILES=CC1=CN([C@H]2C[C@H](O)[C@@H](COP(O)(=O)OP(O)(=O)OP(O)(O)=O)O2)C(=O)NC1=O
INCHI=InChI=1S/C10H17N2O14P3/c1-5-3-12(10(15)11-9(5)14)8-2-6(13)7(24-8)4-23-28(19,20)26-29(21,22)25-27(16,17)18/h3,6-8,13H,2,4H2,1H3,(H,19,20)(H,21,22)(H,11,14,15)(H2,16,17,18)/t6-,7+,8+/m0/s1
INCHIAUX=N/A
PUBMED=N/A
SUBMITUSER=mwang87
TAGS=
LIBRARYQUALITY=3
SPECTRUMID=CCMSLIB00000425095
SCANS=67
482.0 100.0 
END IONS

BEGIN IONS
PEPMASS=181.061
CHARGE=1+
MSLEVEL=2
SOURCE_INSTRUMENT=Positive-Quattro_QQQ:10eV
FILENAME=hmdb_intermediate.mgf
SEQ=*..*
IONMODE=Positive
ORGANISM=HMDB
NAME=HMDB:HMDB03269-2224 Nicotinuric acid M+H
PI=HMDB
DATACOLLECTOR=HMDB
SMILES=OC(=O)CNC(=O)C1=CN=CC=C1
INCHI=InChI=1S/C8H8N2O3/c11-7(12)5-10-8(13)6-2-1-3-9-4-6/h1-4H,5H2,(H,10,13)(H,11,12)
INCHIAUX=N/A
PUBMED=N/A
SUBMITUSER=mwang87
TAGS=
LIBRARYQUALITY=3
SPECTRUMID=CCMSLIB00000425096
SCANS=68
135.0 70.68 
181.0 100.0 
END IONS

BEGIN IONS
PEPMASS=74.0606
CHARGE=1+
MSLEVEL=2
SOURCE_INSTRUMENT=Positive-Quattro_QQQ:40eV
FILENAME=hmdb_intermediate.mgf
SEQ=*..*
IONMODE=Positive
ORGANISM=HMDB
NAME=HMDB:HMDB01888-1791 N,N-Dimethylformamide M+H
PI=HMDB
DATACOLLECTOR=HMDB
SMILES=CN(C)C=O
INCHI=InChI=1S/C3H7NO/c1-4(2)3-5/h3H,1-2H3
INCHIAUX=N/A
PUBMED=N/A
SUBMITUSER=mwang87
TAGS=
LIBRARYQUALITY=3
SPECTRUMID=CCMSLIB00000425097
SCANS=69
30.25 55.686 
42.1 100.0 
END IONS

BEGIN IONS
PEPMASS=746.099
CHARGE=1+
MSLEVEL=2
SOURCE_INSTRUMENT=Positive-Quattro_QQQ:40eV
FILENAME=hmdb_intermediate.mgf
SEQ=*..*
IONMODE=Positive
ORGANISM=HMDB
NAME=HMDB:HMDB00221-363 NADPH M+H
PI=HMDB
DATACOLLECTOR=HMDB
SMILES=NC(=O)C1=CN(C=CC1)[C@H]1O[C@@H](COP(O)(=O)OP(O)(=O)OC[C@@H]2O[C@@H]([C@@H](OP(O)(O)=O)[C@H]2O)N2C=NC3=C(N)N=CN=C23)[C@H](O)[C@@H]1O
INCHI=InChI=1S/C21H30N7O17P3/c22-17-12-19(25-7-24-17)28(8-26-12)21-16(44-46(33,34)35)14(30)11(43-21)6-41-48(38,39)45-47(36,37)40-5-10-13(29)15(31)20(42-10)27-3-1-2-9(4-27)18(23)32/h1,3-4,7-8,10-11,13-16,20-21,29-31H,2,5-6H2,(H2,23,32)(H,36,37)(H,38,39)(H2,22,24,25)(H2,33,34,35)/t10-,11-,13-,14-,15-,16-,20-,21-/m0/s1
INCHIAUX=N/A
PUBMED=N/A
SUBMITUSER=mwang87
TAGS=
LIBRARYQUALITY=3
SPECTRUMID=CCMSLIB00000425098
SCANS=70
435.28 100.0 
END IONS

BEGIN IONS
PEPMASS=146.082
CHARGE=1+
MSLEVEL=2
SOURCE_INSTRUMENT=Positive-Quattro_QQQ:40eV
FILENAME=hmdb_intermediate.mgf
SEQ=*..*
IONMODE=Positive
ORGANISM=HMDB
NAME=HMDB:HMDB00808-1157 N-Butyrylglycine M+H
PI=HMDB
DATACOLLECTOR=HMDB
SMILES=CCCC(=O)NCC(O)=O
INCHI=InChI=1S/C6H11NO3/c1-2-3-5(8)7-4-6(9)10/h2-4H2,1H3,(H,7,8)(H,9,10)
INCHIAUX=N/A
PUBMED=N/A
SUBMITUSER=mwang87
TAGS=
LIBRARYQUALITY=3
SPECTRUMID=CCMSLIB00000425099
SCANS=71
41.676 53.309 
43.655 100.0 
END IONS

BEGIN IONS
PEPMASS=175.024
CHARGE=1+
MSLEVEL=2
SOURCE_INSTRUMENT=Positive-Quattro_QQQ:40eV
FILENAME=hmdb_intermediate.mgf
SEQ=*..*
IONMODE=Positive
ORGANISM=HMDB
NAME=HMDB:HMDB00072-119 cis-Aconitic acid M+H
PI=HMDB
DATACOLLECTOR=HMDB
SMILES=OC(=O)C\C(=C\C(O)=O)C(O)=O
INCHI=InChI=1S/C6H6O6/c7-4(8)1-3(6(11)12)2-5(9)10/h1H,2H2,(H,7,8)(H,9,10)(H,11,12)/b3-1-
INCHIAUX=N/A
PUBMED=N/A
SUBMITUSER=mwang87
TAGS=
LIBRARYQUALITY=3
SPECTRUMID=CCMSLIB00000425100
SCANS=72
41.339 100.0 
85.05 60.87 
END IONS

BEGIN IONS
PEPMASS=169.098
CHARGE=1+
MSLEVEL=2
SOURCE_INSTRUMENT=Positive-Quattro_QQQ:10eV
FILENAME=hmdb_intermediate.mgf
SEQ=*..*
IONMODE=Positive
ORGANISM=HMDB
NAME=HMDB:HMDB01431-1574 Pyridoxamine M+H
PI=HMDB
DATACOLLECTOR=HMDB
SMILES=CC1=C(O)C(CN)=C(CO)C=N1
INCHI=InChI=1S/C8H12N2O2/c1-5-8(12)7(2-9)6(4-11)3-10-5/h3,11-12H,2,4,9H2,1H3
INCHIAUX=N/A
PUBMED=N/A
SUBMITUSER=mwang87
TAGS=
LIBRARYQUALITY=3
SPECTRUMID=CCMSLIB00000425101
SCANS=73
169.018 100.0 
END IONS

BEGIN IONS
PEPMASS=141.092
CHARGE=1+
MSLEVEL=2
SOURCE_INSTRUMENT=Negative-Quattro_QQQ:10eV
FILENAME=hmdb_intermediate.mgf
SEQ=*..*
IONMODE=Negative
ORGANISM=HMDB
NAME=HMDB:HMDB01568-1654 trans-2-Octenoic acid M-H
PI=HMDB
DATACOLLECTOR=HMDB
SMILES=CCCCC\C=C\C(O)=O
INCHI=InChI=1S/C8H14O2/c1-2-3-4-5-6-7-8(9)10/h6-7H,2-5H2,1H3,(H,9,10)/b7-6+
INCHIAUX=N/A
PUBMED=N/A
SUBMITUSER=mwang87
TAGS=
LIBRARYQUALITY=3
SPECTRUMID=CCMSLIB00000425102
SCANS=74
141.032 100.0 
END IONS

BEGIN IONS
PEPMASS=283.264
CHARGE=1+
MSLEVEL=2
SOURCE_INSTRUMENT=Positive-Quattro_QQQ:40eV
FILENAME=hmdb_intermediate.mgf
SEQ=*..*
IONMODE=Positive
ORGANISM=HMDB
NAME=HMDB:HMDB03231-2217 Vaccenic acid M+H
PI=HMDB
DATACOLLECTOR=HMDB
SMILES=CCCCCC\C=C/CCCCCCCCCC(O)=O
INCHI=InChI=1S/C18H34O2/c1-2-3-4-5-6-7-8-9-10-11-12-13-14-15-16-17-18(19)20/h7-8H,2-6,9-17H2,1H3,(H,19,20)/b8-7-
INCHIAUX=N/A
PUBMED=N/A
SUBMITUSER=mwang87
TAGS=
LIBRARYQUALITY=3
SPECTRUMID=CCMSLIB00000425103
SCANS=75
54.0 59.574 
55.0 100.0 
56.0 74.876 
69.0 69.964 
END IONS

BEGIN IONS
PEPMASS=174.92
CHARGE=1+
MSLEVEL=2
SOURCE_INSTRUMENT=Positive-Quattro_QQQ:40eV
FILENAME=hmdb_intermediate.mgf
SEQ=*..*
IONMODE=Positive
ORGANISM=HMDB
NAME=HMDB:HMDB00250-429 Pyrophosphate M+H
PI=HMDB
DATACOLLECTOR=HMDB
SMILES=[O-]P([O-])(=O)OP([O-])([O-])=O
INCHI=InChI=1S/H4O7P2/c1-8(2,3)7-9(4,5)6/h(H2,1,2,3)(H2,4,5,6)/p-4
INCHIAUX=N/A
PUBMED=N/A
SUBMITUSER=mwang87
TAGS=
LIBRARYQUALITY=3
SPECTRUMID=CCMSLIB00000425104
SCANS=76
81.0 100.0 
END IONS

BEGIN IONS
PEPMASS=186.017
CHARGE=1+
MSLEVEL=2
SOURCE_INSTRUMENT=Positive-Quattro_QQQ:10eV
FILENAME=hmdb_intermediate.mgf
SEQ=*..*
IONMODE=Positive
ORGANISM=HMDB
NAME=HMDB:HMDB00272-475 Phosphoserine M+H
PI=HMDB
DATACOLLECTOR=HMDB
SMILES=N[C@@H](COP(O)(O)=O)C(O)=O
INCHI=InChI=1S/C3H8NO6P/c4-2(3(5)6)1-10-11(7,8)9/h2H,1,4H2,(H,5,6)(H2,7,8,9)/t2-/m0/s1
INCHIAUX=N/A
PUBMED=N/A
SUBMITUSER=mwang87
TAGS=
LIBRARYQUALITY=3
SPECTRUMID=CCMSLIB00000425105
SCANS=77
88.297 100.0 
END IONS

BEGIN IONS
PEPMASS=75.0922
CHARGE=1+
MSLEVEL=2
SOURCE_INSTRUMENT=Positive-Quattro_QQQ:10eV
FILENAME=hmdb_intermediate.mgf
SEQ=*..*
IONMODE=Positive
ORGANISM=HMDB
NAME=HMDB:HMDB00002-4 1,3-Diaminopropane M+H
PI=HMDB
DATACOLLECTOR=HMDB
SMILES=NCCCN
INCHI=InChI=1S/C3H10N2/c4-2-1-3-5/h1-5H2
INCHIAUX=N/A
PUBMED=N/A
SUBMITUSER=mwang87
TAGS=
LIBRARYQUALITY=3
SPECTRUMID=CCMSLIB00000425106
SCANS=78
58.207 100.0 
END IONS

BEGIN IONS
PEPMASS=76.0399
CHARGE=1+
MSLEVEL=2
SOURCE_INSTRUMENT=Positive-Quattro_QQQ:10eV
FILENAME=hmdb_intermediate.mgf
SEQ=*..*
IONMODE=Positive
ORGANISM=HMDB
NAME=HMDB:HMDB00123-180 Glycine M+H
PI=HMDB
DATACOLLECTOR=HMDB
SMILES=NCC(O)=O
INCHI=InChI=1S/C2H5NO2/c3-1-2(4)5/h1,3H2,(H,4,5)
INCHIAUX=N/A
PUBMED=N/A
SUBMITUSER=mwang87
TAGS=
LIBRARYQUALITY=3
SPECTRUMID=CCMSLIB00000425107
SCANS=79
30.445 100.0 
76.054 90.265 
END IONS

BEGIN IONS
PEPMASS=397.347
CHARGE=1+
MSLEVEL=2
SOURCE_INSTRUMENT=Positive-Quattro_QQQ:40eV
FILENAME=hmdb_intermediate.mgf
SEQ=*..*
IONMODE=Positive
ORGANISM=HMDB
NAME=HMDB:HMDB00900-1279 Ergocalciferol M+H
PI=HMDB
DATACOLLECTOR=HMDB
SMILES=CC(C)[C@@H](C)\C=C\[C@@H](C)[C@H]1CC[C@@]2([H])\C(CCC[C@]12C)=C\C=C1\C[C@@H](O)CCC1=C
INCHI=InChI=1S/C28H44O/c1-19(2)20(3)9-10-22(5)26-15-16-27-23(8-7-17-28(26,27)6)12-13-24-18-25(29)14-11-21(24)4/h9-10,12-13,19-20,22,25-27,29H,4,7-8,11,14-18H2,1-3,5-6H3/b10-9+,23-12+,24-13-/t20-,22+,25-,26+,27-,28+/m0/s1
INCHIAUX=N/A
PUBMED=N/A
SUBMITUSER=mwang87
TAGS=
LIBRARYQUALITY=3
SPECTRUMID=CCMSLIB00000425108
SCANS=80
57.0 54.908 
68.0 90.464 
80.0 100.0 
90.0 60.997 
92.0 57.49 
94.0 51.109 
104.0 66.842 
106.0 79.787 
118.0 61.058 
144.0 51.572 
END IONS

BEGIN IONS
PEPMASS=170.082
CHARGE=1+
MSLEVEL=2
SOURCE_INSTRUMENT=Positive-Quattro_QQQ:25eV
FILENAME=hmdb_intermediate.mgf
SEQ=*..*
IONMODE=Positive
ORGANISM=HMDB
NAME=HMDB:HMDB01537-1632 6-Hydroxydopamine M+H
PI=HMDB
DATACOLLECTOR=HMDB
SMILES=NCCC1=C(O)C=C(O)C(O)=C1
INCHI=InChI=1S/C8H11NO3/c9-2-1-5-3-7(11)8(12)4-6(5)10/h3-4,10-12H,1-2,9H2
INCHIAUX=N/A
PUBMED=N/A
SUBMITUSER=mwang87
TAGS=
LIBRARYQUALITY=3
SPECTRUMID=CCMSLIB00000425109
SCANS=81
153.12 100.0 
END IONS

BEGIN IONS
PEPMASS=103.076
CHARGE=1+
MSLEVEL=2
SOURCE_INSTRUMENT=Positive-Quattro_QQQ:25eV
FILENAME=hmdb_intermediate.mgf
SEQ=*..*
IONMODE=Positive
ORGANISM=HMDB
NAME=HMDB:HMDB00892-1254 Valeric acid M+H
PI=HMDB
DATACOLLECTOR=HMDB
SMILES=CCCCC(O)=O
INCHI=InChI=1S/C5H10O2/c1-2-3-4-5(6)7/h2-4H2,1H3,(H,6,7)
INCHIAUX=N/A
PUBMED=N/A
SUBMITUSER=mwang87
TAGS=
LIBRARYQUALITY=3
SPECTRUMID=CCMSLIB00000425110
SCANS=82
41.0 86.562 
43.0 100.0 
END IONS

BEGIN IONS
PEPMASS=492.009
CHARGE=1+
MSLEVEL=2
SOURCE_INSTRUMENT=Positive-Quattro_QQQ:40eV
FILENAME=hmdb_intermediate.mgf
SEQ=*..*
IONMODE=Positive
ORGANISM=HMDB
NAME=HMDB:HMDB01532-1630 Deoxyadenosine triphosphate M+H
PI=HMDB
DATACOLLECTOR=HMDB
SMILES=NC1=NC=NC2=C1N=CN2[C@H]1C[C@H](O)[C@@H](COP(O)(=O)OP(O)(=O)OP(O)(O)=O)O1
INCHI=InChI=1S/C10H16N5O12P3/c11-9-8-10(13-3-12-9)15(4-14-8)7-1-5(16)6(25-7)2-24-29(20,21)27-30(22,23)26-28(17,18)19/h3-7,16H,1-2H2,(H,20,21)(H,22,23)(H2,11,12,13)(H2,17,18,19)/t5-,6+,7+/m0/s1
INCHIAUX=N/A
PUBMED=N/A
SUBMITUSER=mwang87
TAGS=
LIBRARYQUALITY=3
SPECTRUMID=CCMSLIB00000425111
SCANS=83
135.0 100.0 
END IONS

BEGIN IONS
PEPMASS=259.093
CHARGE=1+
MSLEVEL=2
SOURCE_INSTRUMENT=Positive-Quattro_QQQ:40eV
FILENAME=hmdb_intermediate.mgf
SEQ=*..*
IONMODE=Positive
ORGANISM=HMDB
NAME=HMDB:HMDB00884-1249 Ribothymidine M+H
PI=HMDB
DATACOLLECTOR=HMDB
SMILES=CC1=CN([C@@H]2O[C@H](CO)[C@@H](O)[C@H]2O)C(=O)NC1=O
INCHI=InChI=1S/C10H14N2O6/c1-4-2-12(10(17)11-8(4)16)9-7(15)6(14)5(3-13)18-9/h2,5-7,9,13-15H,3H2,1H3,(H,11,16,17)/t5-,6-,7-,9-/m1/s1
INCHIAUX=N/A
PUBMED=N/A
SUBMITUSER=mwang87
TAGS=
LIBRARYQUALITY=3
SPECTRUMID=CCMSLIB00000425112
SCANS=84
109.788 75.439 
126.98 100.0 
END IONS

BEGIN IONS
PEPMASS=189.124
CHARGE=1+
MSLEVEL=2
SOURCE_INSTRUMENT=Positive-Quattro_QQQ:25eV
FILENAME=hmdb_intermediate.mgf
SEQ=*..*
IONMODE=Positive
ORGANISM=HMDB
NAME=HMDB:HMDB00446-651 N-Alpha-acetyllysine M+H
PI=HMDB
DATACOLLECTOR=HMDB
SMILES=CC(=O)NC(CCCCN)C(O)=O
INCHI=InChI=1S/C8H16N2O3/c1-6(11)10-7(8(12)13)4-2-3-5-9/h7H,2-5,9H2,1H3,(H,10,11)(H,12,13)
INCHIAUX=N/A
PUBMED=N/A
SUBMITUSER=mwang87
TAGS=
LIBRARYQUALITY=3
SPECTRUMID=CCMSLIB00000425113
SCANS=85
84.0 100.0 
END IONS

BEGIN IONS
PEPMASS=302.055
CHARGE=1+
MSLEVEL=2
SOURCE_INSTRUMENT=Positive-Quattro_QQQ:10eV
FILENAME=hmdb_intermediate.mgf
SEQ=*..*
IONMODE=Positive
ORGANISM=HMDB
NAME=HMDB:HMDB00781-1110 N-Acetylgalactosamine 4-sulphate M+H
PI=HMDB
DATACOLLECTOR=HMDB
SMILES=CC(=O)N[C@H]1[C@H](O)O[C@H](CO)[C@H](OS(O)(=O)=O)[C@@H]1O
INCHI=InChI=1S/C8H15NO9S/c1-3(11)9-5-6(12)7(18-19(14,15)16)4(2-10)17-8(5)13/h4-8,10,12-13H,2H2,1H3,(H,9,11)(H,14,15,16)/t4-,5-,6-,7+,8-/m1/s1
INCHIAUX=N/A
PUBMED=N/A
SUBMITUSER=mwang87
TAGS=
LIBRARYQUALITY=3
SPECTRUMID=CCMSLIB00000425114
SCANS=86
204.0 83.943 
222.0 100.0 
END IONS

BEGIN IONS
PEPMASS=455.291
CHARGE=1+
MSLEVEL=2
SOURCE_INSTRUMENT=Positive-Quattro_QQQ:10eV
FILENAME=hmdb_intermediate.mgf
SEQ=*..*
IONMODE=Positive
ORGANISM=HMDB
NAME=HMDB:HMDB01850-1711 Verapamil M+H
PI=HMDB
DATACOLLECTOR=HMDB
SMILES=COC1=C(OC)C=C(CCN(C)CCCC(C#N)(C(C)C)C2=CC(OC)=C(OC)C=C2)C=C1
INCHI=InChI=1S/C27H38N2O4/c1-20(2)27(19-28,22-10-12-24(31-5)26(18-22)33-7)14-8-15-29(3)16-13-21-9-11-23(30-4)25(17-21)32-6/h9-12,17-18,20H,8,13-16H2,1-7H3
INCHIAUX=N/A
PUBMED=N/A
SUBMITUSER=mwang87
TAGS=
LIBRARYQUALITY=3
SPECTRUMID=CCMSLIB00000425115
SCANS=87
178.343 100.0 
END IONS

BEGIN IONS
PEPMASS=244.093
CHARGE=1+
MSLEVEL=2
SOURCE_INSTRUMENT=Positive-Quattro_QQQ:25eV
FILENAME=hmdb_intermediate.mgf
SEQ=*..*
IONMODE=Positive
ORGANISM=HMDB
NAME=HMDB:HMDB00089-139 Cytidine M+H
PI=HMDB
DATACOLLECTOR=HMDB
SMILES=NC1=NC(=O)N(C=C1)[C@@H]1O[C@H](CO)[C@@H](O)[C@H]1O
INCHI=InChI=1S/C9H13N3O5/c10-5-1-2-12(9(16)11-5)8-7(15)6(14)4(3-13)17-8/h1-2,4,6-8,13-15H,3H2,(H2,10,11,16)/t4-,6-,7-,8-/m1/s1
INCHIAUX=N/A
PUBMED=N/A
SUBMITUSER=mwang87
TAGS=
LIBRARYQUALITY=3
SPECTRUMID=CCMSLIB00000425116
SCANS=88
112.0 100.0 
END IONS

BEGIN IONS
PEPMASS=179.071
CHARGE=1+
MSLEVEL=2
SOURCE_INSTRUMENT=Positive-Quattro_QQQ:25eV
FILENAME=hmdb_intermediate.mgf
SEQ=*..*
IONMODE=Positive
ORGANISM=HMDB
NAME=HMDB:HMDB02040-1963 4-Methoxycinnamic acid M+H
PI=HMDB
DATACOLLECTOR=HMDB
SMILES=COC1=CC=C(\C=C\C(O)=O)C=C1
INCHI=InChI=1S/C10H10O3/c1-13-9-5-2-8(3-6-9)4-7-10(11)12/h2-7H,1H3,(H,11,12)/b7-4+
INCHIAUX=N/A
PUBMED=N/A
SUBMITUSER=mwang87
TAGS=
LIBRARYQUALITY=3
SPECTRUMID=CCMSLIB00000425117
SCANS=89
77.0 52.232 
79.0 63.115 
118.0 68.837 
133.0 100.0 
END IONS

BEGIN IONS
PEPMASS=444.032
CHARGE=1+
MSLEVEL=2
SOURCE_INSTRUMENT=Positive-Quattro_QQQ:10eV
FILENAME=hmdb_intermediate.mgf
SEQ=*..*
IONMODE=Positive
ORGANISM=HMDB
NAME=HMDB:HMDB01201-1460 Guanosine diphosphate M+H
PI=HMDB
DATACOLLECTOR=HMDB
SMILES=NC1=NC2=C(N=CN2[C@@H]2O[C@H](COP(O)(=O)OP(O)(O)=O)[C@@H](O)[C@H]2O)C(=O)N1
INCHI=InChI=1S/C10H15N5O11P2/c11-10-13-7-4(8(18)14-10)12-2-15(7)9-6(17)5(16)3(25-9)1-24-28(22,23)26-27(19,20)21/h2-3,5-6,9,16-17H,1H2,(H,22,23)(H2,19,20,21)(H3,11,13,14,18)/t3-,5-,6-,9-/m1/s1
INCHIAUX=N/A
PUBMED=N/A
SUBMITUSER=mwang87
TAGS=
LIBRARYQUALITY=3
SPECTRUMID=CCMSLIB00000425118
SCANS=90
152.0 100.0 
444.0 72.976 
END IONS

BEGIN IONS
PEPMASS=298.097
CHARGE=1+
MSLEVEL=2
SOURCE_INSTRUMENT=Positive-Quattro_QQQ:10eV
FILENAME=hmdb_intermediate.mgf
SEQ=*..*
IONMODE=Positive
ORGANISM=HMDB
NAME=HMDB:HMDB01173-1448 5'-Methylthioadenosine M+H
PI=HMDB
DATACOLLECTOR=HMDB
SMILES=CSC[C@H]1O[C@H]([C@H](O)[C@@H]1O)N1C=NC2=C1N=CN=C2N
INCHI=InChI=1S/C11H15N5O3S/c1-20-2-5-7(17)8(18)11(19-5)16-4-15-6-9(12)13-3-14-10(6)16/h3-5,7-8,11,17-18H,2H2,1H3,(H2,12,13,14)/t5-,7-,8-,11-/m1/s1
INCHIAUX=N/A
PUBMED=N/A
SUBMITUSER=mwang87
TAGS=
LIBRARYQUALITY=3
SPECTRUMID=CCMSLIB00000425119
SCANS=91
136.0 100.0 
298.0 50.081 
END IONS

BEGIN IONS
PEPMASS=315.232
CHARGE=1+
MSLEVEL=2
SOURCE_INSTRUMENT=Positive-Quattro_QQQ:10eV
FILENAME=hmdb_intermediate.mgf
SEQ=*..*
IONMODE=Positive
ORGANISM=HMDB
NAME=HMDB:HMDB01830-1684 Progesterone M+H
PI=HMDB
DATACOLLECTOR=HMDB
SMILES=[H][C@@]12CC[C@H](C(C)=O)[C@@]1(C)CC[C@@]1([H])[C@@]2([H])CCC2=CC(=O)CC[C@]12C
INCHI=InChI=1S/C21H30O2/c1-13(22)17-6-7-18-16-5-4-14-12-15(23)8-10-20(14,2)19(16)9-11-21(17,18)3/h12,16-19H,4-11H2,1-3H3/t16-,17+,18-,19-,20-,21+/m0/s1
INCHIAUX=N/A
PUBMED=N/A
SUBMITUSER=mwang87
TAGS=
LIBRARYQUALITY=3
SPECTRUMID=CCMSLIB00000425120
SCANS=92
315.265 100.0 
END IONS

BEGIN IONS
PEPMASS=289.217
CHARGE=1+
MSLEVEL=2
SOURCE_INSTRUMENT=Positive-Quattro_QQQ:10eV
FILENAME=hmdb_intermediate.mgf
SEQ=*..*
IONMODE=Positive
ORGANISM=HMDB
NAME=HMDB:HMDB00077-126 Dehydroepiandrosterone M+H
PI=HMDB
DATACOLLECTOR=HMDB
SMILES=C[C@]12CCC3C(CC=C4C[C@@H](O)CC[C@]34C)C1CCC2=O
INCHI=InChI=1S/C19H28O2/c1-18-9-7-13(20)11-12(18)3-4-14-15-5-6-17(21)19(15,2)10-8-16(14)18/h3,13-16,20H,4-11H2,1-2H3/t13-,14?,15?,16?,18-,19-/m0/s1
INCHIAUX=N/A
PUBMED=N/A
SUBMITUSER=mwang87
TAGS=
LIBRARYQUALITY=3
SPECTRUMID=CCMSLIB00000425121
SCANS=93
253.123 100.0 
271.164 85.03 
END IONS

BEGIN IONS
PEPMASS=137.046
CHARGE=1+
MSLEVEL=2
SOURCE_INSTRUMENT=Positive-Quattro_QQQ:25eV
FILENAME=hmdb_intermediate.mgf
SEQ=*..*
IONMODE=Positive
ORGANISM=HMDB
NAME=HMDB:HMDB00157-243 Hypoxanthine M+H
PI=HMDB
DATACOLLECTOR=HMDB
SMILES=OC1=NC=NC2=C1NC=N2
INCHI=InChI=1S/C5H4N4O/c10-5-3-4(7-1-6-3)8-2-9-5/h1-2H,(H2,6,7,8,9,10)
INCHIAUX=N/A
PUBMED=N/A
SUBMITUSER=mwang87
TAGS=
LIBRARYQUALITY=3
SPECTRUMID=CCMSLIB00000425122
SCANS=94
55.211 68.148 
82.114 95.556 
109.933 100.0 
118.988 91.111 
136.842 68.148 
END IONS

BEGIN IONS
PEPMASS=284.099
CHARGE=1+
MSLEVEL=2
SOURCE_INSTRUMENT=Positive-Quattro_QQQ:25eV
FILENAME=hmdb_intermediate.mgf
SEQ=*..*
IONMODE=Positive
ORGANISM=HMDB
NAME=HMDB:HMDB00133-204 Guanosine M+H
PI=HMDB
DATACOLLECTOR=HMDB
SMILES=NC1=NC2=C(N=CN2[C@@H]2O[C@H](CO)[C@@H](O)[C@H]2O)C(=O)N1
INCHI=InChI=1S/C10H13N5O5/c11-10-13-7-4(8(19)14-10)12-2-15(7)9-6(18)5(17)3(1-16)20-9/h2-3,5-6,9,16-18H,1H2,(H3,11,13,14,19)/t3-,5-,6-,9-/m1/s1
INCHIAUX=N/A
PUBMED=N/A
SUBMITUSER=mwang87
TAGS=
LIBRARYQUALITY=3
SPECTRUMID=CCMSLIB00000425123
SCANS=95
151.946 100.0 
END IONS

BEGIN IONS
PEPMASS=425.436
CHARGE=1+
MSLEVEL=2
SOURCE_INSTRUMENT=Positive-Quattro_QQQ:25eV
FILENAME=hmdb_intermediate.mgf
SEQ=*..*
IONMODE=Positive
ORGANISM=HMDB
NAME=HMDB:HMDB02348-2071 Octacosanoic acid M+H
PI=HMDB
DATACOLLECTOR=HMDB
SMILES=CCCCCCCCCCCCCCCCCCCCCCCCCCCC(O)=O
INCHI=InChI=1S/C28H56O2/c1-2-3-4-5-6-7-8-9-10-11-12-13-14-15-16-17-18-19-20-21-22-23-24-25-26-27-28(29)30/h2-27H2,1H3,(H,29,30)
INCHIAUX=N/A
PUBMED=N/A
SUBMITUSER=mwang87
TAGS=
LIBRARYQUALITY=3
SPECTRUMID=CCMSLIB00000425124
SCANS=96
146.0 100.0 
147.0 70.367 
425.0 72.065 
426.0 75.359 
END IONS

BEGIN IONS
PEPMASS=129.019
CHARGE=1+
MSLEVEL=2
SOURCE_INSTRUMENT=Negative-Quattro_QQQ:40eV
FILENAME=hmdb_intermediate.mgf
SEQ=*..*
IONMODE=Negative
ORGANISM=HMDB
NAME=HMDB:HMDB61185-839 2-Pentendioate M-H
PI=HMDB
DATACOLLECTOR=HMDB
SMILES=OC(=O)CC=CC(O)=O
INCHI=InChI=1S/C5H6O4/c6-4(7)2-1-3-5(8)9/h1-2H,3H2,(H,6,7)(H,8,9)/b2-1+
INCHIAUX=N/A
PUBMED=N/A
SUBMITUSER=mwang87
TAGS=
LIBRARYQUALITY=3
SPECTRUMID=CCMSLIB00000425125
SCANS=97
41.286 100.0 
85.083 67.47 
END IONS

BEGIN IONS
PEPMASS=182.082
CHARGE=1+
MSLEVEL=2
SOURCE_INSTRUMENT=Positive-Quattro_QQQ:25eV
FILENAME=hmdb_intermediate.mgf
SEQ=*..*
IONMODE=Positive
ORGANISM=HMDB
NAME=HMDB:HMDB06050-2467 o-Tyrosine M+H
PI=HMDB
DATACOLLECTOR=HMDB
SMILES=NC(CC1=CC=CC=C1O)C(O)=O
INCHI=InChI=1S/C9H11NO3/c10-7(9(12)13)5-6-3-1-2-4-8(6)11/h1-4,7,11H,5,10H2,(H,12,13)
INCHIAUX=N/A
PUBMED=N/A
SUBMITUSER=mwang87
TAGS=
LIBRARYQUALITY=3
SPECTRUMID=CCMSLIB00000425126
SCANS=98
119.1 100.0 
136.14 94.4652966044 
182.1 64.8268611897 
END IONS

BEGIN IONS
PEPMASS=391.285
CHARGE=1+
MSLEVEL=2
SOURCE_INSTRUMENT=Positive-Quattro_QQQ:40eV
FILENAME=hmdb_intermediate.mgf
SEQ=*..*
IONMODE=Positive
ORGANISM=HMDB
NAME=HMDB:HMDB00467-679 Nutriacholic acid M+H
PI=HMDB
DATACOLLECTOR=HMDB
SMILES=[H][C@@]12CCC([C@@H](C)CCC(O)=O)[C@@]1(C)CC[C@@]1([H])[C@@]2([H])C(=O)C[C@]2([H])C[C@H](O)CC[C@]12C
INCHI=InChI=1S/C24H38O4/c1-14(4-7-21(27)28)17-5-6-18-22-19(9-11-24(17,18)3)23(2)10-8-16(25)12-15(23)13-20(22)26/h14-19,22,25H,4-13H2,1-3H3,(H,27,28)/t14-,15-,16+,17?,18-,19-,22-,23-,24+/m0/s1
INCHIAUX=N/A
PUBMED=N/A
SUBMITUSER=mwang87
TAGS=
LIBRARYQUALITY=3
SPECTRUMID=CCMSLIB00000425127
SCANS=99
81.261 100.0 
119.063 52.141 
145.207 73.273 
195.657 50.727 
END IONS

BEGIN IONS
PEPMASS=192.066
CHARGE=1+
MSLEVEL=2
SOURCE_INSTRUMENT=Positive-Quattro_QQQ:40eV
FILENAME=hmdb_intermediate.mgf
SEQ=*..*
IONMODE=Positive
ORGANISM=HMDB
NAME=HMDB:HMDB00763-1097 5-Hydroxyindoleacetic acid M+H
PI=HMDB
DATACOLLECTOR=HMDB
SMILES=OC(=O)CC1=CNC2=CC=C(O)C=C12
INCHI=InChI=1S/C10H9NO3/c12-7-1-2-9-8(4-7)6(5-11-9)3-10(13)14/h1-2,4-5,11-12H,3H2,(H,13,14)
INCHIAUX=N/A
PUBMED=N/A
SUBMITUSER=mwang87
TAGS=
LIBRARYQUALITY=3
SPECTRUMID=CCMSLIB00000425128
SCANS=100
91.061 100.0 
END IONS

BEGIN IONS
PEPMASS=157.006
CHARGE=1+
MSLEVEL=2
SOURCE_INSTRUMENT=Positive-Quattro_QQQ:25eV
FILENAME=hmdb_intermediate.mgf
SEQ=*..*
IONMODE=Positive
ORGANISM=HMDB
NAME=HMDB:HMDB01544-1641 m-Chlorobenzoic acid M+H
PI=HMDB
DATACOLLECTOR=HMDB
SMILES=OC(=O)C1=CC(Cl)=CC=C1
INCHI=InChI=1S/C7H5ClO2/c8-6-3-1-2-5(4-6)7(9)10/h1-4H,(H,9,10)
INCHIAUX=N/A
PUBMED=N/A
SUBMITUSER=mwang87
TAGS=
LIBRARYQUALITY=3
SPECTRUMID=CCMSLIB00000425129
SCANS=101
78.0 100.0 
END IONS

BEGIN IONS
PEPMASS=101.097
CHARGE=1+
MSLEVEL=2
SOURCE_INSTRUMENT=Positive-Quattro_QQQ:25eV
FILENAME=hmdb_intermediate.mgf
SEQ=*..*
IONMODE=Positive
ORGANISM=HMDB
NAME=HMDB:HMDB00753-1078 3-Hexanone M+H
PI=HMDB
DATACOLLECTOR=HMDB
SMILES=CCCC(=O)CC
INCHI=InChI=1S/C6H12O/c1-3-5-6(7)4-2/h3-5H2,1-2H3
INCHIAUX=N/A
PUBMED=N/A
SUBMITUSER=mwang87
TAGS=
LIBRARYQUALITY=3
SPECTRUMID=CCMSLIB00000425130
SCANS=102
59.04 100.0 
101.04 54.3539747691 
END IONS

BEGIN IONS
PEPMASS=132.15
CHARGE=1+
MSLEVEL=2
SOURCE_INSTRUMENT=Positive-Quattro_QQQ:40eV
FILENAME=hmdb_intermediate.mgf
SEQ=*..*
IONMODE=Positive
ORGANISM=HMDB
NAME=HMDB:HMDB11634-2495 Norspermidine M+H
PI=HMDB
DATACOLLECTOR=HMDB
SMILES=NCCCNCCCN
INCHI=InChI=1S/C6H17N3/c7-3-1-5-9-6-2-4-8/h9H,1-8H2
INCHIAUX=N/A
PUBMED=N/A
SUBMITUSER=mwang87
TAGS=
LIBRARYQUALITY=3
SPECTRUMID=CCMSLIB00000425131
SCANS=103
58.04 100.0 
131.47 84.037 
131.5 68.495 
END IONS

BEGIN IONS
PEPMASS=159.066
CHARGE=1+
MSLEVEL=2
SOURCE_INSTRUMENT=Negative-Quattro_QQQ:25eV
FILENAME=hmdb_intermediate.mgf
SEQ=*..*
IONMODE=Negative
ORGANISM=HMDB
NAME=HMDB:HMDB00857-1206 Pimelic acid M-H
PI=HMDB
DATACOLLECTOR=HMDB
SMILES=OC(=O)CCCCCC(O)=O
INCHI=InChI=1S/C7H12O4/c8-6(9)4-2-1-3-5-7(10)11/h1-5H2,(H,8,9)(H,10,11)
INCHIAUX=N/A
PUBMED=N/A
SUBMITUSER=mwang87
TAGS=
LIBRARYQUALITY=3
SPECTRUMID=CCMSLIB00000425132
SCANS=104
95.026 100.0 
97.024 63.855 
END IONS

BEGIN IONS
PEPMASS=285.207
CHARGE=1+
MSLEVEL=2
SOURCE_INSTRUMENT=Negative-Quattro_QQQ:25eV
FILENAME=hmdb_intermediate.mgf
SEQ=*..*
IONMODE=Negative
ORGANISM=HMDB
NAME=HMDB:HMDB00672-928 Hexadecanedioic acid M-H
PI=HMDB
DATACOLLECTOR=HMDB
SMILES=OC(=O)CCCCCCCCCCCCCCC(O)=O
INCHI=InChI=1S/C16H30O4/c17-15(18)13-11-9-7-5-3-1-2-4-6-8-10-12-14-16(19)20/h1-14H2,(H,17,18)(H,19,20)
INCHIAUX=N/A
PUBMED=N/A
SUBMITUSER=mwang87
TAGS=
LIBRARYQUALITY=3
SPECTRUMID=CCMSLIB00000425133
SCANS=105
223.198 97.619 
267.218 100.0 
END IONS

BEGIN IONS
PEPMASS=331.227
CHARGE=1+
MSLEVEL=2
SOURCE_INSTRUMENT=Positive-Quattro_QQQ:40eV
FILENAME=hmdb_intermediate.mgf
SEQ=*..*
IONMODE=Positive
ORGANISM=HMDB
NAME=HMDB:HMDB00374-590 17-Hydroxyprogesterone M+H
PI=HMDB
DATACOLLECTOR=HMDB
SMILES=[H][C@@]12CC[C@](O)(C(C)=O)[C@@]1(C)CC[C@@]1([H])[C@@]2([H])CCC2=CC(=O)CC[C@]12C
INCHI=InChI=1S/C21H30O3/c1-13(22)21(24)11-8-18-16-5-4-14-12-15(23)6-9-19(14,2)17(16)7-10-20(18,21)3/h12,16-18,24H,4-11H2,1-3H3/t16-,17+,18+,19+,20+,21+/m1/s1
INCHIAUX=N/A
PUBMED=N/A
SUBMITUSER=mwang87
TAGS=
LIBRARYQUALITY=3
SPECTRUMID=CCMSLIB00000425134
SCANS=106
97.067 100.0 
109.043 96.032 
END IONS

BEGIN IONS
PEPMASS=489.115
CHARGE=1+
MSLEVEL=2
SOURCE_INSTRUMENT=Positive-Quattro_QQQ:10eV
FILENAME=hmdb_intermediate.mgf
SEQ=*..*
IONMODE=Positive
ORGANISM=HMDB
NAME=HMDB:HMDB01413-1565 Citicoline M+H
PI=HMDB
DATACOLLECTOR=HMDB
SMILES=C[N+](C)(C)CCOP([O-])(=O)OP(O)(=O)OC[C@H]1O[C@H]([C@H](O)[C@@H]1O)N1C=CC(N)=NC1=O
INCHI=InChI=1S/C14H26N4O11P2/c1-18(2,3)6-7-26-30(22,23)29-31(24,25)27-8-9-11(19)12(20)13(28-9)17-5-4-10(15)16-14(17)21/h4-5,9,11-13,19-20H,6-8H2,1-3H3,(H3-,15,16,21,22,23,24,25)/t9-,11-,12-,13-/m1/s1
INCHIAUX=N/A
PUBMED=N/A
SUBMITUSER=mwang87
TAGS=
LIBRARYQUALITY=3
SPECTRUMID=CCMSLIB00000425135
SCANS=107
490.0 100.0 
END IONS

BEGIN IONS
PEPMASS=132.102
CHARGE=1+
MSLEVEL=2
SOURCE_INSTRUMENT=Positive-Quattro_QQQ:40eV
FILENAME=hmdb_intermediate.mgf
SEQ=*..*
IONMODE=Positive
ORGANISM=HMDB
NAME=HMDB:HMDB00557-781 L-Alloisoleucine M+H
PI=HMDB
DATACOLLECTOR=HMDB
SMILES=CC[C@@H](C)[C@H](N)C(O)=O
INCHI=InChI=1S/C6H13NO2/c1-3-4(2)5(7)6(8)9/h4-5H,3,7H2,1-2H3,(H,8,9)/t4-,5+/m1/s1
INCHIAUX=N/A
PUBMED=N/A
SUBMITUSER=mwang87
TAGS=
LIBRARYQUALITY=3
SPECTRUMID=CCMSLIB00000425136
SCANS=108
41.353 100.0 
44.218 62.667 
56.015 53.667 
END IONS

BEGIN IONS
PEPMASS=330.06
CHARGE=1+
MSLEVEL=2
SOURCE_INSTRUMENT=Positive-Quattro_QQQ:10eV
FILENAME=hmdb_intermediate.mgf
SEQ=*..*
IONMODE=Positive
ORGANISM=HMDB
NAME=HMDB:HMDB00058-93 Cyclic AMP M+H
PI=HMDB
DATACOLLECTOR=HMDB
SMILES=NC1=NC=NC2=C1N=CN2[C@@H]1O[C@@H]2COP(O)(=O)O[C@H]2[C@H]1O
INCHI=InChI=1S/C10H12N5O6P/c11-8-5-9(13-2-12-8)15(3-14-5)10-6(16)7-4(20-10)1-19-22(17,18)21-7/h2-4,6-7,10,16H,1H2,(H,17,18)(H2,11,12,13)/t4-,6-,7-,10-/m1/s1
INCHIAUX=N/A
PUBMED=N/A
SUBMITUSER=mwang87
TAGS=
LIBRARYQUALITY=3
SPECTRUMID=CCMSLIB00000425137
SCANS=109
329.95 100.0 
END IONS

BEGIN IONS
PEPMASS=316.249
CHARGE=1+
MSLEVEL=2
SOURCE_INSTRUMENT=Positive-Quattro_QQQ:25eV
FILENAME=hmdb_intermediate.mgf
SEQ=*..*
IONMODE=Positive
ORGANISM=HMDB
NAME=HMDB:HMDB00651-889 Decanoylcarnitine M+H
PI=HMDB
DATACOLLECTOR=HMDB
SMILES=CCCCCCCCCC(=O)OC(CC([O-])=O)C[N+](C)(C)C
INCHI=InChI=1S/C17H33NO4/c1-5-6-7-8-9-10-11-12-17(21)22-15(13-16(19)20)14-18(2,3)4/h15H,5-14H2,1-4H3
INCHIAUX=N/A
PUBMED=N/A
SUBMITUSER=mwang87
TAGS=
LIBRARYQUALITY=3
SPECTRUMID=CCMSLIB00000425138
SCANS=110
60.468 100.0 
END IONS

BEGIN IONS
PEPMASS=90.0555
CHARGE=1+
MSLEVEL=2
SOURCE_INSTRUMENT=Positive-Quattro_QQQ:10eV
FILENAME=hmdb_intermediate.mgf
SEQ=*..*
IONMODE=Positive
ORGANISM=HMDB
NAME=HMDB:HMDB00056-90 Beta-Alanine M+H
PI=HMDB
DATACOLLECTOR=HMDB
SMILES=NCCC(O)=O
INCHI=InChI=1S/C3H7NO2/c4-2-1-3(5)6/h1-2,4H2,(H,5,6)
INCHIAUX=N/A
PUBMED=N/A
SUBMITUSER=mwang87
TAGS=
LIBRARYQUALITY=3
SPECTRUMID=CCMSLIB00000425139
SCANS=111
72.079 100.0 
90.013 64.948 
END IONS

BEGIN IONS
PEPMASS=115.076
CHARGE=1+
MSLEVEL=2
SOURCE_INSTRUMENT=Positive-Quattro_QQQ:40eV
FILENAME=hmdb_intermediate.mgf
SEQ=*..*
IONMODE=Positive
ORGANISM=HMDB
NAME=HMDB:HMDB00453-664 Delta-Hexanolactone M+H
PI=HMDB
DATACOLLECTOR=HMDB
SMILES=CC1CCCC(=O)O1
INCHI=InChI=1S/C6H10O2/c1-5-3-2-4-6(7)8-5/h5H,2-4H2,1H3
INCHIAUX=N/A
PUBMED=N/A
SUBMITUSER=mwang87
TAGS=
LIBRARYQUALITY=3
SPECTRUMID=CCMSLIB00000425140
SCANS=112
55.498 71.574 
56.118 85.106 
57.235 100.0 
63.441 62.673 
70.268 56.506 
72.378 68.835 
73.619 63.183 
74.612 71.232 
114.457 64.382 
END IONS

BEGIN IONS
PEPMASS=305.098
CHARGE=1+
MSLEVEL=2
SOURCE_INSTRUMENT=Positive-Quattro_QQQ:40eV
FILENAME=hmdb_intermediate.mgf
SEQ=*..*
IONMODE=Positive
ORGANISM=HMDB
NAME=HMDB:HMDB01067-1414 N-Acetylaspartylglutamic acid M+H
PI=HMDB
DATACOLLECTOR=HMDB
SMILES=CC(=O)NC(CC(O)=O)C(=O)NC(CCC(O)=O)C(O)=O
INCHI=InChI=1S/C11H16N2O8/c1-5(14)12-7(4-9(17)18)10(19)13-6(11(20)21)2-3-8(15)16/h6-7H,2-4H2,1H3,(H,12,14)(H,13,19)(H,15,16)(H,17,18)(H,20,21)
INCHIAUX=N/A
PUBMED=N/A
SUBMITUSER=mwang87
TAGS=
LIBRARYQUALITY=3
SPECTRUMID=CCMSLIB00000425141
SCANS=113
84.0 100.0 
88.0 95.998 
END IONS

BEGIN IONS
PEPMASS=198.077
CHARGE=1+
MSLEVEL=2
SOURCE_INSTRUMENT=Positive-Quattro_QQQ:40eV
FILENAME=hmdb_intermediate.mgf
SEQ=*..*
IONMODE=Positive
ORGANISM=HMDB
NAME=HMDB:HMDB00181-288 L-Dopa M+H
PI=HMDB
DATACOLLECTOR=HMDB
SMILES=N[C@@H](CC1=CC(O)=C(O)C=C1)C(O)=O
INCHI=InChI=1S/C9H11NO4/c10-6(9(13)14)3-5-1-2-7(11)8(12)4-5/h1-2,4,6,11-12H,3,10H2,(H,13,14)/t6-/m0/s1
INCHIAUX=N/A
PUBMED=N/A
SUBMITUSER=mwang87
TAGS=
LIBRARYQUALITY=3
SPECTRUMID=CCMSLIB00000425142
SCANS=114
65.163 74.242 
77.108 84.848 
79.114 67.172 
106.736 100.0 
END IONS

BEGIN IONS
PEPMASS=115.051
CHARGE=1+
MSLEVEL=2
SOURCE_INSTRUMENT=Positive-Quattro_QQQ:40eV
FILENAME=hmdb_intermediate.mgf
SEQ=*..*
IONMODE=Positive
ORGANISM=HMDB
NAME=HMDB:HMDB00076-125 Dihydrouracil M+H
PI=HMDB
DATACOLLECTOR=HMDB
SMILES=O=C1CCNC(=O)N1
INCHI=InChI=1S/C4H6N2O2/c7-3-1-2-5-4(8)6-3/h1-2H2,(H2,5,6,7,8)
INCHIAUX=N/A
PUBMED=N/A
SUBMITUSER=mwang87
TAGS=
LIBRARYQUALITY=3
SPECTRUMID=CCMSLIB00000425143
SCANS=115
44.236 92.233 
55.166 100.0 
114.887 56.553 
END IONS

BEGIN IONS
PEPMASS=477.231
CHARGE=1+
MSLEVEL=2
SOURCE_INSTRUMENT=Positive-Quattro_QQQ:40eV
FILENAME=hmdb_intermediate.mgf
SEQ=*..*
IONMODE=Positive
ORGANISM=HMDB
NAME=HMDB:HMDB04999-2432 Loperamide M+H
PI=HMDB
DATACOLLECTOR=HMDB
SMILES=CN(C)C(=O)C(CCN1CCC(O)(CC1)C1=CC=C(Cl)C=C1)(C1=CC=CC=C1)C1=CC=CC=C1
INCHI=InChI=1S/C29H33ClN2O2/c1-31(2)27(33)29(24-9-5-3-6-10-24,25-11-7-4-8-12-25)19-22-32-20-17-28(34,18-21-32)23-13-15-26(30)16-14-23/h3-16,34H,17-22H2,1-2H3
INCHIAUX=N/A
PUBMED=N/A
SUBMITUSER=mwang87
TAGS=
LIBRARYQUALITY=3
SPECTRUMID=CCMSLIB00000425144
SCANS=116
210.0 56.104 
266.0 100.0 
END IONS

BEGIN IONS
PEPMASS=215.165
CHARGE=1+
MSLEVEL=2
SOURCE_INSTRUMENT=Negative-Quattro_QQQ:10eV
FILENAME=hmdb_intermediate.mgf
SEQ=*..*
IONMODE=Negative
ORGANISM=HMDB
NAME=HMDB:HMDB00387-594 3-Hydroxydodecanoic acid M-H
PI=HMDB
DATACOLLECTOR=HMDB
SMILES=CCCCCCCCCC(O)CC(O)=O
INCHI=InChI=1S/C12H24O3/c1-2-3-4-5-6-7-8-9-11(13)10-12(14)15/h11,13H,2-10H2,1H3,(H,14,15)
INCHIAUX=N/A
PUBMED=N/A
SUBMITUSER=mwang87
TAGS=
LIBRARYQUALITY=3
SPECTRUMID=CCMSLIB00000425145
SCANS=117
59.444 100.0 
215.231 61.682 
END IONS

BEGIN IONS
PEPMASS=196.061
CHARGE=1+
MSLEVEL=2
SOURCE_INSTRUMENT=Positive-Quattro_QQQ:10eV
FILENAME=hmdb_intermediate.mgf
SEQ=*..*
IONMODE=Positive
ORGANISM=HMDB
NAME=HMDB:HMDB00840-1184 Salicyluric acid M+H
PI=HMDB
DATACOLLECTOR=HMDB
SMILES=OC(=O)CNC(=O)C1=CC=CC=C1O
INCHI=InChI=1S/C9H9NO4/c11-7-4-2-1-3-6(7)9(14)10-5-8(12)13/h1-4,11H,5H2,(H,10,14)(H,12,13)
INCHIAUX=N/A
PUBMED=N/A
SUBMITUSER=mwang87
TAGS=
LIBRARYQUALITY=3
SPECTRUMID=CCMSLIB00000425146
SCANS=118
120.979 100.0 
END IONS

BEGIN IONS
PEPMASS=289.071
CHARGE=1+
MSLEVEL=2
SOURCE_INSTRUMENT=Negative-Quattro_QQQ:10eV
FILENAME=hmdb_intermediate.mgf
SEQ=*..*
IONMODE=Negative
ORGANISM=HMDB
NAME=HMDB:HMDB02780-2128 Catechin M-H
PI=HMDB
DATACOLLECTOR=HMDB
SMILES=O[C@H]1CC2=C(O)C=C(O)C=C2O[C@@H]1C1=CC(O)=C(O)C=C1
INCHI=InChI=1S/C15H14O6/c16-8-4-11(18)9-6-13(20)15(21-14(9)5-8)7-1-2-10(17)12(19)3-7/h1-5,13,15-20H,6H2/t13-,15+/m0/s1
INCHIAUX=N/A
PUBMED=N/A
SUBMITUSER=mwang87
TAGS=
LIBRARYQUALITY=3
SPECTRUMID=CCMSLIB00000425147
SCANS=119
289.0 100.0 
END IONS

BEGIN IONS
PEPMASS=169.05
CHARGE=1+
MSLEVEL=2
SOURCE_INSTRUMENT=Positive-Quattro_QQQ:25eV
FILENAME=hmdb_intermediate.mgf
SEQ=*..*
IONMODE=Positive
ORGANISM=HMDB
NAME=HMDB:HMDB01336-1520 3,4-Dihydroxybenzeneacetic acid M+H
PI=HMDB
DATACOLLECTOR=HMDB
SMILES=OC(=O)CC1=CC=C(O)C(O)=C1
INCHI=InChI=1S/C8H8O4/c9-6-2-1-5(3-7(6)10)4-8(11)12/h1-3,9-10H,4H2,(H,11,12)
INCHIAUX=N/A
PUBMED=N/A
SUBMITUSER=mwang87
TAGS=
LIBRARYQUALITY=3
SPECTRUMID=CCMSLIB00000425148
SCANS=120
123.0 100.0 
END IONS

BEGIN IONS
PEPMASS=181.071
CHARGE=1+
MSLEVEL=2
SOURCE_INSTRUMENT=Positive-Quattro_QQQ:40eV
FILENAME=hmdb_intermediate.mgf
SEQ=*..*
IONMODE=Positive
ORGANISM=HMDB
NAME=HMDB:HMDB03418-2300 D-Tagatose M+H
PI=HMDB
DATACOLLECTOR=HMDB
SMILES=OC[C@@H](O)[C@H](O)[C@H](O)C(=O)CO
INCHI=InChI=1S/C6H12O6/c7-1-3(9)5(11)6(12)4(10)2-8/h3,5-9,11-12H,1-2H2/t3-,5+,6-/m1/s1
INCHIAUX=N/A
PUBMED=N/A
SUBMITUSER=mwang87
TAGS=
LIBRARYQUALITY=3
SPECTRUMID=CCMSLIB00000425149
SCANS=121
55.38 70.287 
66.93 100.0 
80.81 58.137 
98.33 64.924 
98.96 88.607 
END IONS

BEGIN IONS
PEPMASS=171.029
CHARGE=1+
MSLEVEL=2
SOURCE_INSTRUMENT=Positive-Quattro_QQQ:10eV
FILENAME=hmdb_intermediate.mgf
SEQ=*..*
IONMODE=Positive
ORGANISM=HMDB
NAME=HMDB:HMDB05807-2454 Gallic acid M+H
PI=HMDB
DATACOLLECTOR=HMDB
SMILES=OC(=O)C1=CC(O)=C(O)C(O)=C1
INCHI=InChI=1S/C7H6O5/c8-4-1-3(7(11)12)2-5(9)6(4)10/h1-2,8-10H,(H,11,12)
INCHIAUX=N/A
PUBMED=N/A
SUBMITUSER=mwang87
TAGS=
LIBRARYQUALITY=3
SPECTRUMID=CCMSLIB00000425150
SCANS=122
127.0 77.802 
153.0 100.0 
171.0 54.269 
END IONS

BEGIN IONS
PEPMASS=261.038
CHARGE=1+
MSLEVEL=2
SOURCE_INSTRUMENT=Positive-Quattro_QQQ:10eV
FILENAME=hmdb_intermediate.mgf
SEQ=*..*
IONMODE=Positive
ORGANISM=HMDB
NAME=HMDB:HMDB01078-1418 Mannose 6-phosphate M+H
PI=HMDB
DATACOLLECTOR=HMDB
SMILES=O[C@@H]1O[C@H](COP(O)(O)=O)[C@@H](O)[C@H](O)[C@@H]1O
INCHI=InChI=1S/C6H13O9P/c7-3-2(1-14-16(11,12)13)15-6(10)5(9)4(3)8/h2-10H,1H2,(H2,11,12,13)/t2-,3-,4+,5+,6-/m1/s1
INCHIAUX=N/A
PUBMED=N/A
SUBMITUSER=mwang87
TAGS=
LIBRARYQUALITY=3
SPECTRUMID=CCMSLIB00000425151
SCANS=123
243.0 100.0 
END IONS

BEGIN IONS
PEPMASS=150.059
CHARGE=1+
MSLEVEL=2
SOURCE_INSTRUMENT=Positive-Quattro_QQQ:25eV
FILENAME=hmdb_intermediate.mgf
SEQ=*..*
IONMODE=Positive
ORGANISM=HMDB
NAME=HMDB:HMDB00696-970 L-Methionine M+H
PI=HMDB
DATACOLLECTOR=HMDB
SMILES=CSCC[C@H](N)C(O)=O
INCHI=InChI=1S/C5H11NO2S/c1-9-3-2-4(6)5(7)8/h4H,2-3,6H2,1H3,(H,7,8)/t4-/m0/s1
INCHIAUX=N/A
PUBMED=N/A
SUBMITUSER=mwang87
TAGS=
LIBRARYQUALITY=3
SPECTRUMID=CCMSLIB00000425152
SCANS=124
56.211 95.049 
61.135 100.0 
END IONS

BEGIN IONS
PEPMASS=649.592
CHARGE=1+
MSLEVEL=2
SOURCE_INSTRUMENT=Positive-Quattro_QQQ:25eV
FILENAME=hmdb_intermediate.mgf
SEQ=*..*
IONMODE=Positive
ORGANISM=HMDB
NAME=HMDB:HMDB00610-829 CE(18:2(9Z,12Z)) M+H
PI=HMDB
DATACOLLECTOR=HMDB
SMILES=CCCCC\C=C/C\C=C/CCCCCCCC(=O)O[C@H]1CC[C@@]2(C)C(=CC[C@@]3([H])[C@]4([H])CC[C@]([H])([C@H](C)CCCC(C)C)[C@@]4(C)CC[C@]23[H])C1
INCHI=InChI=1S/C45H76O2/c1-7-8-9-10-11-12-13-14-15-16-17-18-19-20-21-25-43(46)47-38-30-32-44(5)37(34-38)26-27-39-41-29-28-40(36(4)24-22-23-35(2)3)45(41,6)33-31-42(39)44/h11-12,14-15,26,35-36,38-42H,7-10,13,16-25,27-34H2,1-6H3/b12-11-,15-14-/t36-,38+,39+,40-,41+,42+,44+,45-/m1/s1
INCHIAUX=N/A
PUBMED=N/A
SUBMITUSER=mwang87
TAGS=
LIBRARYQUALITY=3
SPECTRUMID=CCMSLIB00000425153
SCANS=125
649.0 100.0 
END IONS

BEGIN IONS
PEPMASS=124.04
CHARGE=1+
MSLEVEL=2
SOURCE_INSTRUMENT=Positive-Quattro_QQQ:10eV
FILENAME=hmdb_intermediate.mgf
SEQ=*..*
IONMODE=Positive
ORGANISM=HMDB
NAME=HMDB:HMDB01488-1604 Nicotinic acid M+H
PI=HMDB
DATACOLLECTOR=HMDB
SMILES=OC(=O)C1=CN=CC=C1
INCHI=InChI=1S/C6H5NO2/c8-6(9)5-2-1-3-7-4-5/h1-4H,(H,8,9)
INCHIAUX=N/A
PUBMED=N/A
SUBMITUSER=mwang87
TAGS=
LIBRARYQUALITY=3
SPECTRUMID=CCMSLIB00000425154
SCANS=126
123.935 100.0 
END IONS

BEGIN IONS
PEPMASS=138.055
CHARGE=1+
MSLEVEL=2
SOURCE_INSTRUMENT=Positive-Quattro_QQQ:25eV
FILENAME=hmdb_intermediate.mgf
SEQ=*..*
IONMODE=Positive
ORGANISM=HMDB
NAME=HMDB:HMDB00875-1236 Trigonelline M+H
PI=HMDB
DATACOLLECTOR=HMDB
SMILES=C[N+]1=CC(=CC=C1)C([O-])=O
INCHI=InChI=1S/C7H7NO2/c1-8-4-2-3-6(5-8)7(9)10/h2-5H,1H3
INCHIAUX=N/A
PUBMED=N/A
SUBMITUSER=mwang87
TAGS=
LIBRARYQUALITY=3
SPECTRUMID=CCMSLIB00000425155
SCANS=127
138.145 100.0 
138.519 76.184 
END IONS

BEGIN IONS
PEPMASS=112.04
CHARGE=1+
MSLEVEL=2
SOURCE_INSTRUMENT=Positive-Quattro_QQQ:40eV
FILENAME=hmdb_intermediate.mgf
SEQ=*..*
IONMODE=Positive
ORGANISM=HMDB
NAME=HMDB:HMDB04230-2378 Pyrrole-2-carboxylic acid M+H
PI=HMDB
DATACOLLECTOR=HMDB
SMILES=OC(=O)C1=CC=CN1
INCHI=InChI=1S/C5H5NO2/c7-5(8)4-2-1-3-6-4/h1-3,6H,(H,7,8)
INCHIAUX=N/A
PUBMED=N/A
SUBMITUSER=mwang87
TAGS=
LIBRARYQUALITY=3
SPECTRUMID=CCMSLIB00000425156
SCANS=128
39.22 100.0 
END IONS

BEGIN IONS
PEPMASS=325.044
CHARGE=1+
MSLEVEL=2
SOURCE_INSTRUMENT=Positive-Quattro_QQQ:25eV
FILENAME=hmdb_intermediate.mgf
SEQ=*..*
IONMODE=Positive
ORGANISM=HMDB
NAME=HMDB:HMDB00288-487 Uridine 5'-monophosphate M+H
PI=HMDB
DATACOLLECTOR=HMDB
SMILES=O[C@H]1[C@@H](O)[C@@H](O[C@@H]1COP(O)(O)=O)N1C=CC(=O)NC1=O
INCHI=InChI=1S/C9H13N2O9P/c12-5-1-2-11(9(15)10-5)8-7(14)6(13)4(20-8)3-19-21(16,17)18/h1-2,4,6-8,13-14H,3H2,(H,10,12,15)(H2,16,17,18)/t4-,6-,7-,8-/m1/s1
INCHIAUX=N/A
PUBMED=N/A
SUBMITUSER=mwang87
TAGS=
LIBRARYQUALITY=3
SPECTRUMID=CCMSLIB00000425157
SCANS=129
113.0 100.0 
END IONS

BEGIN IONS
PEPMASS=104.071
CHARGE=1+
MSLEVEL=2
SOURCE_INSTRUMENT=Positive-Quattro_QQQ:40eV
FILENAME=hmdb_intermediate.mgf
SEQ=*..*
IONMODE=Positive
ORGANISM=HMDB
NAME=HMDB:HMDB03911-2351 3-Aminoisobutanoic acid M+H
PI=HMDB
DATACOLLECTOR=HMDB
SMILES=CC(CN)C(O)=O
INCHI=InChI=1S/C4H9NO2/c1-3(2-5)4(6)7/h3H,2,5H2,1H3,(H,6,7)
INCHIAUX=N/A
PUBMED=N/A
SUBMITUSER=mwang87
TAGS=
LIBRARYQUALITY=3
SPECTRUMID=CCMSLIB00000425158
SCANS=130
104.0 100.0 
END IONS

BEGIN IONS
PEPMASS=732.615
CHARGE=1+
MSLEVEL=2
SOURCE_INSTRUMENT=Positive-Quattro_QQQ:40eV
FILENAME=hmdb_intermediate.mgf
SEQ=*..*
IONMODE=Positive
ORGANISM=HMDB
NAME=HMDB:HMDB01348-1530 SM(d18:1/18:0) M+H
PI=HMDB
DATACOLLECTOR=HMDB
SMILES=CCCCCCCCCCCCCCCCCC(=O)N[C@@]([H])(COP(O)(=O)OCC[N+](C)(C)C)[C@]([H])(O)\C=C\CCCCCCCCCCCCC
INCHI=InChI=1S/C41H83N2O6P/c1-6-8-10-12-14-16-18-20-21-23-25-27-29-31-33-35-41(45)42-39(38-49-50(46,47)48-37-36-43(3,4)5)40(44)34-32-30-28-26-24-22-19-17-15-13-11-9-7-2/h32,34,39-40,44H,6-31,33,35-38H2,1-5H3,(H-,42,45,46,47)/p+1/b34-32+/t39-,40+/m0/s1
INCHIAUX=N/A
PUBMED=N/A
SUBMITUSER=mwang87
TAGS=
LIBRARYQUALITY=3
SPECTRUMID=CCMSLIB00000425159
SCANS=131
184.0 100.0 
END IONS

BEGIN IONS
PEPMASS=239.092
CHARGE=1+
MSLEVEL=2
SOURCE_INSTRUMENT=Positive-Quattro_QQQ:40eV
FILENAME=hmdb_intermediate.mgf
SEQ=*..*
IONMODE=Positive
ORGANISM=HMDB
NAME=HMDB:HMDB02511-2115 3,4,5-Trimethoxycinnamic acid M+H
PI=HMDB
DATACOLLECTOR=HMDB
SMILES=COC1=CC(\C=C\C(O)=O)=CC(OC)=C1OC
INCHI=InChI=1S/C12H14O5/c1-15-9-6-8(4-5-11(13)14)7-10(16-2)12(9)17-3/h4-7H,1-3H3,(H,13,14)/b5-4+
INCHIAUX=N/A
PUBMED=N/A
SUBMITUSER=mwang87
TAGS=
LIBRARYQUALITY=3
SPECTRUMID=CCMSLIB00000425160
SCANS=132
90.0 100.0 
END IONS

BEGIN IONS
PEPMASS=87.0446
CHARGE=1+
MSLEVEL=2
SOURCE_INSTRUMENT=Negative-Quattro_QQQ:25eV
FILENAME=hmdb_intermediate.mgf
SEQ=*..*
IONMODE=Negative
ORGANISM=HMDB
NAME=HMDB:HMDB00039-67 Butyric acid M-H
PI=HMDB
DATACOLLECTOR=HMDB
SMILES=CCCC(O)=O
INCHI=InChI=1S/C4H8O2/c1-2-3-4(5)6/h2-3H2,1H3,(H,5,6)
INCHIAUX=N/A
PUBMED=N/A
SUBMITUSER=mwang87
TAGS=
LIBRARYQUALITY=3
SPECTRUMID=CCMSLIB00000425161
SCANS=133
87.076 100.0 
END IONS

BEGIN IONS
PEPMASS=175.024
CHARGE=1+
MSLEVEL=2
SOURCE_INSTRUMENT=Positive-Quattro_QQQ:10eV
FILENAME=hmdb_intermediate.mgf
SEQ=*..*
IONMODE=Positive
ORGANISM=HMDB
NAME=HMDB:HMDB01264-1497 Dehydroascorbic acid M+H
PI=HMDB
DATACOLLECTOR=HMDB
SMILES=[H][C@@]1(OC(=O)C(=O)C1=O)[C@H](O)CO
INCHI=InChI=1S/C6H6O6/c7-1-2(8)5-3(9)4(10)6(11)12-5/h2,5,7-8H,1H2/t2-,5-/m1/s1
INCHIAUX=N/A
PUBMED=N/A
SUBMITUSER=mwang87
TAGS=
LIBRARYQUALITY=3
SPECTRUMID=CCMSLIB00000425162
SCANS=134
85.0 66.54 
111.0 56.534 
129.0 53.531 
143.0 64.633 
157.0 74.102 
175.0 100.0 
END IONS

BEGIN IONS
PEPMASS=138.055
CHARGE=1+
MSLEVEL=2
SOURCE_INSTRUMENT=Positive-Quattro_QQQ:40eV
FILENAME=hmdb_intermediate.mgf
SEQ=*..*
IONMODE=Positive
ORGANISM=HMDB
NAME=HMDB:HMDB01538-1636 3-Pyridylacetic acid M+H
PI=HMDB
DATACOLLECTOR=HMDB
SMILES=OC(=O)CC1=CN=CC=C1
INCHI=InChI=1S/C7H7NO2/c9-7(10)4-6-2-1-3-8-5-6/h1-3,5H,4H2,(H,9,10)
INCHIAUX=N/A
PUBMED=N/A
SUBMITUSER=mwang87
TAGS=
LIBRARYQUALITY=3
SPECTRUMID=CCMSLIB00000425163
SCANS=135
65.0 51.451 
66.0 51.447 
92.0 100.0 
93.0 58.033 
END IONS

BEGIN IONS
PEPMASS=768.123
CHARGE=1+
MSLEVEL=2
SOURCE_INSTRUMENT=Positive-Quattro_QQQ:25eV
FILENAME=hmdb_intermediate.mgf
SEQ=*..*
IONMODE=Positive
ORGANISM=HMDB
NAME=HMDB:HMDB01423-1572 Coenzyme A M+H
PI=HMDB
DATACOLLECTOR=HMDB
SMILES=CC(C)(COP(O)(=O)OP(O)(=O)OC[C@H]1O[C@H]([C@H](O)[C@@H]1OP(O)(O)=O)N1C=NC2=C1N=CN=C2N)C(O)C(=O)NCCC(=O)NCCS
INCHI=InChI=1S/C21H36N7O16P3S/c1-21(2,16(31)19(32)24-4-3-12(29)23-5-6-48)8-41-47(38,39)44-46(36,37)40-7-11-15(43-45(33,34)35)14(30)20(42-11)28-10-27-13-17(22)25-9-26-18(13)28/h9-11,14-16,20,30-31,48H,3-8H2,1-2H3,(H,23,29)(H,24,32)(H,36,37)(H,38,39)(H2,22,25,26)(H2,33,34,35)/t11-,14-,15-,16?,20-/m1/s1
INCHIAUX=N/A
PUBMED=N/A
SUBMITUSER=mwang87
TAGS=
LIBRARYQUALITY=3
SPECTRUMID=CCMSLIB00000425164
SCANS=136
261.0 100.0 
END IONS

BEGIN IONS
PEPMASS=397.405
CHARGE=1+
MSLEVEL=2
SOURCE_INSTRUMENT=Positive-Quattro_QQQ:25eV
FILENAME=hmdb_intermediate.mgf
SEQ=*..*
IONMODE=Positive
ORGANISM=HMDB
NAME=HMDB:HMDB60125-2077 Hexacosanoic acid M+H
PI=HMDB
DATACOLLECTOR=HMDB
SMILES=CCCCCCCCCCCCCCCCCCCCCCCCCC(O)=O
INCHI=InChI=1S/C26H52O2/c1-2-3-4-5-6-7-8-9-10-11-12-13-14-15-16-17-18-19-20-21-22-23-24-25-26(27)28/h2-25H2,1H3,(H,27,28)
INCHIAUX=N/A
PUBMED=N/A
SUBMITUSER=mwang87
TAGS=
LIBRARYQUALITY=3
SPECTRUMID=CCMSLIB00000425165
SCANS=137
73.48 94.77 
103.03 67.222 
209.62 68.558 
227.77 69.726 
252.45 85.708 
294.19 92.585 
298.87 78.641 
307.25 67.235 
309.42 100.0 
END IONS

BEGIN IONS
PEPMASS=123.045
CHARGE=1+
MSLEVEL=2
SOURCE_INSTRUMENT=Positive-Quattro_QQQ:10eV
FILENAME=hmdb_intermediate.mgf
SEQ=*..*
IONMODE=Positive
ORGANISM=HMDB
NAME=HMDB:HMDB01870-1756 Benzoic acid M+H
PI=HMDB
DATACOLLECTOR=HMDB
SMILES=OC(=O)C1=CC=CC=C1
INCHI=InChI=1S/C7H6O2/c8-7(9)6-4-2-1-3-5-6/h1-5H,(H,8,9)
INCHIAUX=N/A
PUBMED=N/A
SUBMITUSER=mwang87
TAGS=
LIBRARYQUALITY=3
SPECTRUMID=CCMSLIB00000425166
SCANS=138
77.106 100.0 
120.972 59.195 
END IONS

BEGIN IONS
PEPMASS=450.322
CHARGE=1+
MSLEVEL=2
SOURCE_INSTRUMENT=Positive-Quattro_QQQ:25eV
FILENAME=hmdb_intermediate.mgf
SEQ=*..*
IONMODE=Positive
ORGANISM=HMDB
NAME=HMDB:HMDB00631-862 Deoxycholic acid glycine conjugate M+H
PI=HMDB
DATACOLLECTOR=HMDB
SMILES=[H][C@]12CCC3C4CC[C@H]([C@H](C)CCC(=O)NCC(O)=O)[C@@]4(C)[C@@H](O)CC3[C@@]1(C)CC[C@@H](O)C2
INCHI=InChI=1S/C26H43NO5/c1-15(4-9-23(30)27-14-24(31)32)19-7-8-20-18-6-5-16-12-17(28)10-11-25(16,2)21(18)13-22(29)26(19,20)3/h15-22,28-29H,4-14H2,1-3H3,(H,27,30)(H,31,32)/t15-,16-,17-,18?,19-,20?,21?,22+,25+,26-/m1/s1
INCHIAUX=N/A
PUBMED=N/A
SUBMITUSER=mwang87
TAGS=
LIBRARYQUALITY=3
SPECTRUMID=CCMSLIB00000425167
SCANS=139
76.129 95.076 
215.067 56.439 
321.202 65.909 
339.23 83.333 
414.27 100.0 
END IONS

BEGIN IONS
PEPMASS=232.118
CHARGE=1+
MSLEVEL=2
SOURCE_INSTRUMENT=Positive-Quattro_QQQ:10eV
FILENAME=hmdb_intermediate.mgf
SEQ=*..*
IONMODE=Positive
ORGANISM=HMDB
NAME=HMDB:HMDB00953-1345 Suberylglycine M+H
PI=HMDB
DATACOLLECTOR=HMDB
SMILES=OC(=O)CCCCCCC(=O)NCC(O)=O
INCHI=InChI=1S/C10H17NO5/c12-8(11-7-10(15)16)5-3-1-2-4-6-9(13)14/h1-7H2,(H,11,12)(H,13,14)(H,15,16)
INCHIAUX=N/A
PUBMED=N/A
SUBMITUSER=mwang87
TAGS=
LIBRARYQUALITY=3
SPECTRUMID=CCMSLIB00000425168
SCANS=140
214.0 100.0 
END IONS

BEGIN IONS
PEPMASS=152.071
CHARGE=1+
MSLEVEL=2
SOURCE_INSTRUMENT=Positive-Quattro_QQQ:40eV
FILENAME=hmdb_intermediate.mgf
SEQ=*..*
IONMODE=Positive
ORGANISM=HMDB
NAME=HMDB:HMDB02210-2033 2-Phenylglycine M+H
PI=HMDB
DATACOLLECTOR=HMDB
SMILES=NC(C(O)=O)C1=CC=CC=C1
INCHI=InChI=1S/C8H9NO2/c9-7(8(10)11)6-4-2-1-3-5-6/h1-5,7H,9H2,(H,10,11)
INCHIAUX=N/A
PUBMED=N/A
SUBMITUSER=mwang87
TAGS=
LIBRARYQUALITY=3
SPECTRUMID=CCMSLIB00000425169
SCANS=141
76.0 100.0 
END IONS

BEGIN IONS
PEPMASS=151.061
CHARGE=1+
MSLEVEL=2
SOURCE_INSTRUMENT=Positive-Quattro_QQQ:40eV
FILENAME=hmdb_intermediate.mgf
SEQ=*..*
IONMODE=Positive
ORGANISM=HMDB
NAME=HMDB:HMDB00098-155 D-Xylose M+H
PI=HMDB
DATACOLLECTOR=HMDB
SMILES=O[C@@H]1COC(O)[C@H](O)[C@H]1O
INCHI=InChI=1S/C5H10O5/c6-2-1-10-5(9)4(8)3(2)7/h2-9H,1H2/t2-,3+,4-,5?/m1/s1
INCHIAUX=N/A
PUBMED=N/A
SUBMITUSER=mwang87
TAGS=
LIBRARYQUALITY=3
SPECTRUMID=CCMSLIB00000425170
SCANS=142
87.0 77.099 
101.0 100.0 
END IONS

BEGIN IONS
PEPMASS=289.18
CHARGE=1+
MSLEVEL=2
SOURCE_INSTRUMENT=Positive-Quattro_QQQ:40eV
FILENAME=hmdb_intermediate.mgf
SEQ=*..*
IONMODE=Positive
ORGANISM=HMDB
NAME=HMDB:HMDB00347-560 16b-Hydroxyestradiol M+H
PI=HMDB
DATACOLLECTOR=HMDB
SMILES=[H][C@@]12C[C@H](O)[C@H](O)[C@@]1(C)CC[C@]1([H])C3=C(CC[C@@]21[H])C=C(O)C=C3
INCHI=InChI=1S/C18H24O3/c1-18-7-6-13-12-5-3-11(19)8-10(12)2-4-14(13)15(18)9-16(20)17(18)21/h3,5,8,13-17,19-21H,2,4,6-7,9H2,1H3/t13-,14-,15+,16+,17+,18+/m1/s1
INCHIAUX=N/A
PUBMED=N/A
SUBMITUSER=mwang87
TAGS=
LIBRARYQUALITY=3
SPECTRUMID=CCMSLIB00000425171
SCANS=143
107.2 100.0 
END IONS

BEGIN IONS
PEPMASS=442.147
CHARGE=1+
MSLEVEL=2
SOURCE_INSTRUMENT=Positive-Quattro_QQQ:40eV
FILENAME=hmdb_intermediate.mgf
SEQ=*..*
IONMODE=Positive
ORGANISM=HMDB
NAME=HMDB:HMDB00121-176 Folic acid M+H
PI=HMDB
DATACOLLECTOR=HMDB
SMILES=NC1=NC(=O)C2=NC(CNC3=CC=C(C=C3)C(=O)N[C@@H](CCC(O)=O)C(O)=O)=CN=C2N1
INCHI=InChI=1S/C19H19N7O6/c20-19-25-15-14(17(30)26-19)23-11(8-22-15)7-21-10-3-1-9(2-4-10)16(29)24-12(18(31)32)5-6-13(27)28/h1-4,8,12,21H,5-7H2,(H,24,29)(H,27,28)(H,31,32)(H3,20,22,25,26,30)/t12-/m0/s1
INCHIAUX=N/A
PUBMED=N/A
SUBMITUSER=mwang87
TAGS=
LIBRARYQUALITY=3
SPECTRUMID=CCMSLIB00000425172
SCANS=144
294.35 70.336 
295.31 100.0 
295.5 51.396 
END IONS

BEGIN IONS
PEPMASS=149.06
CHARGE=1+
MSLEVEL=2
SOURCE_INSTRUMENT=Positive-Quattro_QQQ:10eV
FILENAME=hmdb_intermediate.mgf
SEQ=*..*
IONMODE=Positive
ORGANISM=HMDB
NAME=HMDB:HMDB00930-1324 trans-Cinnamic acid M+H
PI=HMDB
DATACOLLECTOR=HMDB
SMILES=OC(=O)\C=C\C1=CC=CC=C1
INCHI=InChI=1S/C9H8O2/c10-9(11)7-6-8-4-2-1-3-5-8/h1-7H,(H,10,11)/b7-6+
INCHIAUX=N/A
PUBMED=N/A
SUBMITUSER=mwang87
TAGS=
LIBRARYQUALITY=3
SPECTRUMID=CCMSLIB00000425173
SCANS=145
130.0 100.0 
END IONS

BEGIN IONS
PEPMASS=403.358
CHARGE=1+
MSLEVEL=2
SOURCE_INSTRUMENT=Positive-Quattro_QQQ:10eV
FILENAME=hmdb_intermediate.mgf
SEQ=*..*
IONMODE=Positive
ORGANISM=HMDB
NAME=HMDB:HMDB02902-2157 Delta-Tocopherol M+H
PI=HMDB
DATACOLLECTOR=HMDB
SMILES=CC(C)CCC[C@@H](C)CCC[C@@H](C)CCC[C@]1(C)CCC2=C(O1)C(C)=CC(O)=C2
INCHI=InChI=1S/C27H46O2/c1-20(2)10-7-11-21(3)12-8-13-22(4)14-9-16-27(6)17-15-24-19-25(28)18-23(5)26(24)29-27/h18-22,28H,7-17H2,1-6H3/t21-,22-,27-/m1/s1
INCHIAUX=N/A
PUBMED=N/A
SUBMITUSER=mwang87
TAGS=
LIBRARYQUALITY=3
SPECTRUMID=CCMSLIB00000425174
SCANS=146
403.0 100.0 
END IONS

BEGIN IONS
PEPMASS=216.043
CHARGE=1+
MSLEVEL=2
SOURCE_INSTRUMENT=Positive-Quattro_QQQ:10eV
FILENAME=hmdb_intermediate.mgf
SEQ=*..*
IONMODE=Positive
ORGANISM=HMDB
NAME=HMDB:HMDB01885-1783 3-Chlorotyrosine M+H
PI=HMDB
DATACOLLECTOR=HMDB
SMILES=NC(CC1=CC(Cl)=C(O)C=C1)C(O)=O
INCHI=InChI=1S/C9H10ClNO3/c10-6-3-5(1-2-8(6)12)4-7(11)9(13)14/h1-3,7,12H,4,11H2,(H,13,14)
INCHIAUX=N/A
PUBMED=N/A
SUBMITUSER=mwang87
TAGS=
LIBRARYQUALITY=3
SPECTRUMID=CCMSLIB00000425175
SCANS=147
170.1 58.1949487159 
216.06 100.0 
END IONS

BEGIN IONS
PEPMASS=160.097
CHARGE=1+
MSLEVEL=2
SOURCE_INSTRUMENT=Positive-Quattro_QQQ:10eV
FILENAME=hmdb_intermediate.mgf
SEQ=*..*
IONMODE=Positive
ORGANISM=HMDB
NAME=HMDB:HMDB00678-939 Isovalerylglycine M+H
PI=HMDB
DATACOLLECTOR=HMDB
SMILES=CC(C)CC(=O)NCC(O)=O
INCHI=InChI=1S/C7H13NO3/c1-5(2)3-6(9)8-4-7(10)11/h5H,3-4H2,1-2H3,(H,8,9)(H,10,11)
INCHIAUX=N/A
PUBMED=N/A
SUBMITUSER=mwang87
TAGS=
LIBRARYQUALITY=3
SPECTRUMID=CCMSLIB00000425176
SCANS=148
76.333 100.0 
85.327 93.333 
END IONS

BEGIN IONS
PEPMASS=500.305
CHARGE=1+
MSLEVEL=2
SOURCE_INSTRUMENT=Positive-Quattro_QQQ:10eV
FILENAME=hmdb_intermediate.mgf
SEQ=*..*
IONMODE=Positive
ORGANISM=HMDB
NAME=HMDB:HMDB00896-1265 Taurodeoxycholic acid M+H
PI=HMDB
DATACOLLECTOR=HMDB
SMILES=[H][C@@]1(CC[C@@]2([H])[C@]3([H])CC[C@]4([H])C[C@H](O)CC[C@]4(C)[C@@]3([H])C[C@H](O)[C@]12C)[C@H](C)CCC(=O)NCCS(O)(=O)=O
INCHI=InChI=1S/C26H45NO6S/c1-16(4-9-24(30)27-12-13-34(31,32)33)20-7-8-21-19-6-5-17-14-18(28)10-11-25(17,2)22(19)15-23(29)26(20,21)3/h16-23,28-29H,4-15H2,1-3H3,(H,27,30)(H,31,32,33)/t16-,17-,18-,19+,20-,21+,22+,23+,25+,26-/m1/s1
INCHIAUX=N/A
PUBMED=N/A
SUBMITUSER=mwang87
TAGS=
LIBRARYQUALITY=3
SPECTRUMID=CCMSLIB00000425177
SCANS=149
243.545 87.382 
396.66 52.037 
398.558 56.524 
463.614 100.0 
464.626 54.0 
501.713 92.429 
END IONS

BEGIN IONS
PEPMASS=152.057
CHARGE=1+
MSLEVEL=2
SOURCE_INSTRUMENT=Positive-Quattro_QQQ:25eV
FILENAME=hmdb_intermediate.mgf
SEQ=*..*
IONMODE=Positive
ORGANISM=HMDB
NAME=HMDB:HMDB00403-613 2-Hydroxyadenine M+H
PI=HMDB
DATACOLLECTOR=HMDB
SMILES=NC1=NC(O)=NC2=C1NC=N2
INCHI=InChI=1S/C5H5N5O/c6-3-2-4(8-1-7-2)10-5(11)9-3/h1H,(H4,6,7,8,9,10,11)
INCHIAUX=N/A
PUBMED=N/A
SUBMITUSER=mwang87
TAGS=
LIBRARYQUALITY=3
SPECTRUMID=CCMSLIB00000425178
SCANS=150
134.0 100.0 
END IONS

BEGIN IONS
PEPMASS=283.264
CHARGE=1+
MSLEVEL=2
SOURCE_INSTRUMENT=Negative-Quattro_QQQ:10eV
FILENAME=hmdb_intermediate.mgf
SEQ=*..*
IONMODE=Negative
ORGANISM=HMDB
NAME=HMDB:HMDB00827-1176 Stearic acid M-H
PI=HMDB
DATACOLLECTOR=HMDB
SMILES=CCCCCCCCCCCCCCCCCC(O)=O
INCHI=InChI=1S/C18H36O2/c1-2-3-4-5-6-7-8-9-10-11-12-13-14-15-16-17-18(19)20/h2-17H2,1H3,(H,19,20)
INCHIAUX=N/A
PUBMED=N/A
SUBMITUSER=mwang87
TAGS=
LIBRARYQUALITY=3
SPECTRUMID=CCMSLIB00000425179
SCANS=151
283.251 100.0 
END IONS

BEGIN IONS
PEPMASS=194.082
CHARGE=1+
MSLEVEL=2
SOURCE_INSTRUMENT=Positive-Quattro_QQQ:40eV
FILENAME=hmdb_intermediate.mgf
SEQ=*..*
IONMODE=Positive
ORGANISM=HMDB
NAME=HMDB:HMDB00821-1172 Phenylacetylglycine M+H
PI=HMDB
DATACOLLECTOR=HMDB
SMILES=OC(=O)CNC(=O)CC1=CC=CC=C1
INCHI=InChI=1S/C10H11NO3/c12-9(11-7-10(13)14)6-8-4-2-1-3-5-8/h1-5H,6-7H2,(H,11,12)(H,13,14)
INCHIAUX=N/A
PUBMED=N/A
SUBMITUSER=mwang87
TAGS=
LIBRARYQUALITY=3
SPECTRUMID=CCMSLIB00000425180
SCANS=152
91.0 100.0 
END IONS

BEGIN IONS
PEPMASS=178.05
CHARGE=1+
MSLEVEL=2
SOURCE_INSTRUMENT=Negative-Quattro_QQQ:40eV
FILENAME=hmdb_intermediate.mgf
SEQ=*..*
IONMODE=Negative
ORGANISM=HMDB
NAME=HMDB:HMDB00714-998 Hippuric acid M-H
PI=HMDB
DATACOLLECTOR=HMDB
SMILES=OC(=O)CNC(=O)C1=CC=CC=C1
INCHI=InChI=1S/C9H9NO3/c11-8(12)6-10-9(13)7-4-2-1-3-5-7/h1-5H,6H2,(H,10,13)(H,11,12)
INCHIAUX=N/A
PUBMED=N/A
SUBMITUSER=mwang87
TAGS=
LIBRARYQUALITY=3
SPECTRUMID=CCMSLIB00000425181
SCANS=153
77.061 100.0 
END IONS

BEGIN IONS
PEPMASS=106.087
CHARGE=1+
MSLEVEL=2
SOURCE_INSTRUMENT=Positive-Quattro_QQQ:25eV
FILENAME=hmdb_intermediate.mgf
SEQ=*..*
IONMODE=Positive
ORGANISM=HMDB
NAME=HMDB:HMDB04437-2386 Diethanolamine M+H
PI=HMDB
DATACOLLECTOR=HMDB
SMILES=OCCNCCO
INCHI=InChI=1S/C4H11NO2/c6-3-1-5-2-4-7/h5-7H,1-4H2
INCHIAUX=N/A
PUBMED=N/A
SUBMITUSER=mwang87
TAGS=
LIBRARYQUALITY=3
SPECTRUMID=CCMSLIB00000425182
SCANS=154
45.0 100.0 
END IONS

BEGIN IONS
PEPMASS=209.097
CHARGE=1+
MSLEVEL=2
SOURCE_INSTRUMENT=Positive-Quattro_QQQ:25eV
FILENAME=hmdb_intermediate.mgf
SEQ=*..*
IONMODE=Positive
ORGANISM=HMDB
NAME=HMDB:HMDB03066-2186 Chalcone M+H
PI=HMDB
DATACOLLECTOR=HMDB
SMILES=O=C(\C=C\C1=CC=CC=C1)C1=CC=CC=C1
INCHI=InChI=1S/C15H12O/c16-15(14-9-5-2-6-10-14)12-11-13-7-3-1-4-8-13/h1-12H/b12-11+
INCHIAUX=N/A
PUBMED=N/A
SUBMITUSER=mwang87
TAGS=
LIBRARYQUALITY=3
SPECTRUMID=CCMSLIB00000425183
SCANS=155
102.9 100.0 
END IONS

BEGIN IONS
PEPMASS=301.18
CHARGE=1+
MSLEVEL=2
SOURCE_INSTRUMENT=Positive-Quattro_QQQ:40eV
FILENAME=hmdb_intermediate.mgf
SEQ=*..*
IONMODE=Positive
ORGANISM=HMDB
NAME=HMDB:HMDB00010-15 2-Methoxyestrone M+H
PI=HMDB
DATACOLLECTOR=HMDB
SMILES=[H][C@@]12CCC(=O)[C@@]1(C)CC[C@]1([H])C3=C(CC[C@@]21[H])C=C(O)C(OC)=C3
INCHI=InChI=1S/C19H24O3/c1-19-8-7-12-13(15(19)5-6-18(19)21)4-3-11-9-16(20)17(22-2)10-14(11)12/h9-10,12-13,15,20H,3-8H2,1-2H3/t12-,13+,15-,19-/m0/s1
INCHIAUX=N/A
PUBMED=N/A
SUBMITUSER=mwang87
TAGS=
LIBRARYQUALITY=3
SPECTRUMID=CCMSLIB00000425184
SCANS=156
103.0 88.807 
129.0 72.657 
131.0 100.0 
137.0 70.639 
END IONS

BEGIN IONS
PEPMASS=151.061
CHARGE=1+
MSLEVEL=2
SOURCE_INSTRUMENT=Positive-Quattro_QQQ:25eV
FILENAME=hmdb_intermediate.mgf
SEQ=*..*
IONMODE=Positive
ORGANISM=HMDB
NAME=HMDB:HMDB00621-841 D-Ribulose M+H
PI=HMDB
DATACOLLECTOR=HMDB
SMILES=OC[C@@H](O)[C@@H](O)C(=O)CO
INCHI=InChI=1S/C5H10O5/c6-1-3(8)5(10)4(9)2-7/h3,5-8,10H,1-2H2/t3-,5-/m1/s1
INCHIAUX=N/A
PUBMED=N/A
SUBMITUSER=mwang87
TAGS=
LIBRARYQUALITY=3
SPECTRUMID=CCMSLIB00000425185
SCANS=157
69.0 100.0 
114.0 99.0366112717 
END IONS

BEGIN IONS
PEPMASS=149.009
CHARGE=1+
MSLEVEL=2
SOURCE_INSTRUMENT=Negative-Quattro_QQQ:40eV
FILENAME=hmdb_intermediate.mgf
SEQ=*..*
IONMODE=Negative
ORGANISM=HMDB
NAME=HMDB:HMDB00956-1356 Tartaric acid M-H
PI=HMDB
DATACOLLECTOR=HMDB
SMILES=O[C@H]([C@@H](O)C(O)=O)C(O)=O
INCHI=InChI=1S/C4H6O6/c5-1(3(7)8)2(6)4(9)10/h1-2,5-6H,(H,7,8)(H,9,10)/t1-,2-/m1/s1
INCHIAUX=N/A
PUBMED=N/A
SUBMITUSER=mwang87
TAGS=
LIBRARYQUALITY=3
SPECTRUMID=CCMSLIB00000425186
SCANS=158
43.598 100.0 
END IONS

BEGIN IONS
PEPMASS=383.389
CHARGE=1+
MSLEVEL=2
SOURCE_INSTRUMENT=Positive-Quattro_QQQ:10eV
FILENAME=hmdb_intermediate.mgf
SEQ=*..*
IONMODE=Positive
ORGANISM=HMDB
NAME=HMDB:HMDB02361-2082 Pentacosanoic acid M+H
PI=HMDB
DATACOLLECTOR=HMDB
SMILES=CCCCCCCCCCCCCCCCCCCCCCCCC(O)=O
INCHI=InChI=1S/C25H50O2/c1-2-3-4-5-6-7-8-9-10-11-12-13-14-15-16-17-18-19-20-21-22-23-24-25(26)27/h2-24H2,1H3,(H,26,27)
INCHIAUX=N/A
PUBMED=N/A
SUBMITUSER=mwang87
TAGS=
LIBRARYQUALITY=3
SPECTRUMID=CCMSLIB00000425187
SCANS=159
382.0 80.915 
383.0 100.0 
END IONS

BEGIN IONS
PEPMASS=117.055
CHARGE=1+
MSLEVEL=2
SOURCE_INSTRUMENT=Negative-Quattro_QQQ:25eV
FILENAME=hmdb_intermediate.mgf
SEQ=*..*
IONMODE=Negative
ORGANISM=HMDB
NAME=HMDB:HMDB00407-619 2-Hydroxy-3-methylbutyric acid M-H
PI=HMDB
DATACOLLECTOR=HMDB
SMILES=CC(C)C(O)C(O)=O
INCHI=InChI=1S/C5H10O3/c1-3(2)4(6)5(7)8/h3-4,6H,1-2H3,(H,7,8)
INCHIAUX=N/A
PUBMED=N/A
SUBMITUSER=mwang87
TAGS=
LIBRARYQUALITY=3
SPECTRUMID=CCMSLIB00000425188
SCANS=160
45.575 100.0 
71.41 78.4 
END IONS

BEGIN IONS
PEPMASS=255.232
CHARGE=1+
MSLEVEL=2
SOURCE_INSTRUMENT=Negative-Quattro_QQQ:25eV
FILENAME=hmdb_intermediate.mgf
SEQ=*..*
IONMODE=Negative
ORGANISM=HMDB
NAME=HMDB:HMDB60083-359 Palmitic acid M-H
PI=HMDB
DATACOLLECTOR=HMDB
SMILES=CCCCCCCCCCCCCCCC(O)=O
INCHI=InChI=1S/C16H32O2/c1-2-3-4-5-6-7-8-9-10-11-12-13-14-15-16(17)18/h2-15H2,1H3,(H,17,18)
INCHIAUX=N/A
PUBMED=N/A
SUBMITUSER=mwang87
TAGS=
LIBRARYQUALITY=3
SPECTRUMID=CCMSLIB00000425189
SCANS=161
255.112 100.0 
END IONS

BEGIN IONS
PEPMASS=153.041
CHARGE=1+
MSLEVEL=2
SOURCE_INSTRUMENT=Positive-Quattro_QQQ:40eV
FILENAME=hmdb_intermediate.mgf
SEQ=*..*
IONMODE=Positive
ORGANISM=HMDB
NAME=HMDB:HMDB00786-1124 Oxypurinol M+H
PI=HMDB
DATACOLLECTOR=HMDB
SMILES=O=C1NC2=C(C=NN2)C(=O)N1
INCHI=InChI=1S/C5H4N4O2/c10-4-2-1-6-9-3(2)7-5(11)8-4/h1H,(H3,6,7,8,9,10,11)
INCHIAUX=N/A
PUBMED=N/A
SUBMITUSER=mwang87
TAGS=
LIBRARYQUALITY=3
SPECTRUMID=CCMSLIB00000425190
SCANS=162
69.579 100.0 
76.527 90.755 
END IONS

BEGIN IONS
PEPMASS=260.054
CHARGE=1+
MSLEVEL=2
SOURCE_INSTRUMENT=Positive-Quattro_QQQ:10eV
FILENAME=hmdb_intermediate.mgf
SEQ=*..*
IONMODE=Positive
ORGANISM=HMDB
NAME=HMDB:HMDB01254-1484 Glucosamine 6-phosphate M+H
PI=HMDB
DATACOLLECTOR=HMDB
SMILES=N[C@H]1[C@@H](O)O[C@H](COP(O)(O)=O)[C@@H](O)[C@@H]1O
INCHI=InChI=1S/C6H14NO8P/c7-3-5(9)4(8)2(15-6(3)10)1-14-16(11,12)13/h2-6,8-10H,1,7H2,(H2,11,12,13)/t2-,3-,4-,5-,6+/m1/s1
INCHIAUX=N/A
PUBMED=N/A
SUBMITUSER=mwang87
TAGS=
LIBRARYQUALITY=3
SPECTRUMID=CCMSLIB00000425191
SCANS=163
126.0 100.0 
END IONS

BEGIN IONS
PEPMASS=387.363
CHARGE=1+
MSLEVEL=2
SOURCE_INSTRUMENT=Positive-Quattro_QQQ:10eV
FILENAME=hmdb_intermediate.mgf
SEQ=*..*
IONMODE=Positive
ORGANISM=HMDB
NAME=HMDB:HMDB00871-1226 5alpha-Cholestanone M+H
PI=HMDB
DATACOLLECTOR=HMDB
SMILES=[H][C@@]1(CC[C@@]2([H])[C@]3([H])CC[C@@]4([H])CC(=O)CC[C@]4(C)[C@@]3([H])CC[C@]12C)[C@H](C)CCCC(C)C
INCHI=InChI=1S/C27H46O/c1-18(2)7-6-8-19(3)23-11-12-24-22-10-9-20-17-21(28)13-15-26(20,4)25(22)14-16-27(23,24)5/h18-20,22-25H,6-17H2,1-5H3/t19-,20+,22+,23-,24+,25+,26+,27-/m1/s1
INCHIAUX=N/A
PUBMED=N/A
SUBMITUSER=mwang87
TAGS=
LIBRARYQUALITY=3
SPECTRUMID=CCMSLIB00000425192
SCANS=164
387.14 100.0 
END IONS

BEGIN IONS
PEPMASS=167.034
CHARGE=1+
MSLEVEL=2
SOURCE_INSTRUMENT=Negative-Quattro_QQQ:10eV
FILENAME=hmdb_intermediate.mgf
SEQ=*..*
IONMODE=Negative
ORGANISM=HMDB
NAME=HMDB:HMDB00750-1071 3-Hydroxymandelic acid M-H
PI=HMDB
DATACOLLECTOR=HMDB
SMILES=OC(C(O)=O)C1=CC(O)=CC=C1
INCHI=InChI=1S/C8H8O4/c9-6-3-1-2-5(4-6)7(10)8(11)12/h1-4,7,9-10H,(H,11,12)
INCHIAUX=N/A
PUBMED=N/A
SUBMITUSER=mwang87
TAGS=
LIBRARYQUALITY=3
SPECTRUMID=CCMSLIB00000425193
SCANS=165
121.161 96.842 
123.157 100.0 
167.066 55.526 
END IONS

BEGIN IONS
PEPMASS=187.097
CHARGE=1+
MSLEVEL=2
SOURCE_INSTRUMENT=Negative-Quattro_QQQ:10eV
FILENAME=hmdb_intermediate.mgf
SEQ=*..*
IONMODE=Negative
ORGANISM=HMDB
NAME=HMDB:HMDB00784-1119 Azelaic acid M-H
PI=HMDB
DATACOLLECTOR=HMDB
SMILES=OC(=O)CCCCCCCC(O)=O
INCHI=InChI=1S/C9H16O4/c10-8(11)6-4-2-1-3-5-7-9(12)13/h1-7H2,(H,10,11)(H,12,13)
INCHIAUX=N/A
PUBMED=N/A
SUBMITUSER=mwang87
TAGS=
LIBRARYQUALITY=3
SPECTRUMID=CCMSLIB00000425194
SCANS=166
186.981 100.0 
END IONS

BEGIN IONS
PEPMASS=184.028
CHARGE=1+
MSLEVEL=2
SOURCE_INSTRUMENT=Positive-Quattro_QQQ:25eV
FILENAME=hmdb_intermediate.mgf
SEQ=*..*
IONMODE=Positive
ORGANISM=HMDB
NAME=HMDB:HMDB02205-2029 L-Homocysteic acid M+H
PI=HMDB
DATACOLLECTOR=HMDB
SMILES=N[C@@H](CCS(O)(=O)=O)C(O)=O
INCHI=InChI=1S/C4H9NO5S/c5-3(4(6)7)1-2-11(8,9)10/h3H,1-2,5H2,(H,6,7)(H,8,9,10)/t3-/m0/s1
INCHIAUX=N/A
PUBMED=N/A
SUBMITUSER=mwang87
TAGS=
LIBRARYQUALITY=3
SPECTRUMID=CCMSLIB00000425195
SCANS=167
56.02 100.0 
END IONS

BEGIN IONS
PEPMASS=183.052
CHARGE=1+
MSLEVEL=2
SOURCE_INSTRUMENT=Positive-Quattro_QQQ:25eV
FILENAME=hmdb_intermediate.mgf
SEQ=*..*
IONMODE=Positive
ORGANISM=HMDB
NAME=HMDB:HMDB01973-1918 9-Methyluric acid M+H
PI=HMDB
DATACOLLECTOR=HMDB
SMILES=CN1C(=O)NC2=C1NC(=O)NC2=O
INCHI=InChI=1S/C6H6N4O3/c1-10-3-2(7-6(10)13)4(11)9-5(12)8-3/h1H3,(H,7,13)(H2,8,9,11,12)
INCHIAUX=N/A
PUBMED=N/A
SUBMITUSER=mwang87
TAGS=
LIBRARYQUALITY=3
SPECTRUMID=CCMSLIB00000425196
SCANS=168
67.0 62.734 
83.0 77.522 
84.0 100.0 
112.0 66.217 
140.0 60.219 
153.0 62.969 
155.0 76.968 
END IONS

BEGIN IONS
PEPMASS=153.041
CHARGE=1+
MSLEVEL=2
SOURCE_INSTRUMENT=Positive-Quattro_QQQ:40eV
FILENAME=hmdb_intermediate.mgf
SEQ=*..*
IONMODE=Positive
ORGANISM=HMDB
NAME=HMDB:HMDB00292-497 Xanthine M+H
PI=HMDB
DATACOLLECTOR=HMDB
SMILES=O=C1NC2=C(NC=N2)C(=O)N1
INCHI=InChI=1S/C5H4N4O2/c10-4-2-3(7-1-6-2)8-5(11)9-4/h1H,(H3,6,7,8,9,10,11)
INCHIAUX=N/A
PUBMED=N/A
SUBMITUSER=mwang87
TAGS=
LIBRARYQUALITY=3
SPECTRUMID=CCMSLIB00000425197
SCANS=169
55.188 100.0 
END IONS

BEGIN IONS
PEPMASS=255.232
CHARGE=1+
MSLEVEL=2
SOURCE_INSTRUMENT=Negative-Quattro_QQQ:40eV
FILENAME=hmdb_intermediate.mgf
SEQ=*..*
IONMODE=Negative
ORGANISM=HMDB
NAME=HMDB:HMDB00220-360 Palmitic acid M-H
PI=HMDB
DATACOLLECTOR=HMDB
SMILES=CCCCCCCCCCCCCCCC(O)=O
INCHI=InChI=1S/C16H32O2/c1-2-3-4-5-6-7-8-9-10-11-12-13-14-15-16(17)18/h2-15H2,1H3,(H,17,18)
INCHIAUX=N/A
PUBMED=N/A
SUBMITUSER=mwang87
TAGS=
LIBRARYQUALITY=3
SPECTRUMID=CCMSLIB00000425198
SCANS=170
45.359 77.931 
54.305 82.069 
75.123 100.0 
148.891 54.483 
END IONS

BEGIN IONS
PEPMASS=523.998
CHARGE=1+
MSLEVEL=2
SOURCE_INSTRUMENT=Positive-Quattro_QQQ:25eV
FILENAME=hmdb_intermediate.mgf
SEQ=*..*
IONMODE=Positive
ORGANISM=HMDB
NAME=HMDB:HMDB01273-1502 Guanosine triphosphate M+H
PI=HMDB
DATACOLLECTOR=HMDB
SMILES=NC1=NC2=C(N=CN2[C@@H]2O[C@H](COP(O)(=O)OP(O)(=O)OP(O)(O)=O)[C@@H](O)[C@H]2O)C(=O)N1
INCHI=InChI=1S/C10H16N5O14P3/c11-10-13-7-4(8(18)14-10)12-2-15(7)9-6(17)5(16)3(27-9)1-26-31(22,23)29-32(24,25)28-30(19,20)21/h2-3,5-6,9,16-17H,1H2,(H,22,23)(H,24,25)(H2,19,20,21)(H3,11,13,14,18)/t3-,5-,6-,9-/m1/s1
INCHIAUX=N/A
PUBMED=N/A
SUBMITUSER=mwang87
TAGS=
LIBRARYQUALITY=3
SPECTRUMID=CCMSLIB00000425199
SCANS=171
445.0 100.0 
446.0 83.988 
523.0 51.252 
END IONS

BEGIN IONS
PEPMASS=120.066
CHARGE=1+
MSLEVEL=2
SOURCE_INSTRUMENT=Positive-Quattro_QQQ:25eV
FILENAME=hmdb_intermediate.mgf
SEQ=*..*
IONMODE=Positive
ORGANISM=HMDB
NAME=HMDB:HMDB00719-1009 L-Homoserine M+H
PI=HMDB
DATACOLLECTOR=HMDB
SMILES=N[C@@H](CCO)C(O)=O
INCHI=InChI=1S/C4H9NO3/c5-3(1-2-6)4(7)8/h3,6H,1-2,5H2,(H,7,8)/t3-/m0/s1
INCHIAUX=N/A
PUBMED=N/A
SUBMITUSER=mwang87
TAGS=
LIBRARYQUALITY=3
SPECTRUMID=CCMSLIB00000425200
SCANS=172
56.214 100.0 
END IONS

BEGIN IONS
PEPMASS=142.027
CHARGE=1+
MSLEVEL=2
SOURCE_INSTRUMENT=Positive-Quattro_QQQ:10eV
FILENAME=hmdb_intermediate.mgf
SEQ=*..*
IONMODE=Positive
ORGANISM=HMDB
NAME=HMDB:HMDB60151-370 O-Phosphoethanolamine M+H
PI=HMDB
DATACOLLECTOR=HMDB
SMILES=NCCOP(O)(O)=O
INCHI=InChI=1S/C2H8NO4P/c3-1-2-7-8(4,5)6/h1-3H2,(H2,4,5,6)
INCHIAUX=N/A
PUBMED=N/A
SUBMITUSER=mwang87
TAGS=
LIBRARYQUALITY=3
SPECTRUMID=CCMSLIB00000425201
SCANS=173
44.628 100.0 
END IONS

BEGIN IONS
PEPMASS=60.0813
CHARGE=1+
MSLEVEL=2
SOURCE_INSTRUMENT=Positive-Quattro_QQQ:25eV
FILENAME=hmdb_intermediate.mgf
SEQ=*..*
IONMODE=Positive
ORGANISM=HMDB
NAME=HMDB:HMDB00906-1293 Trimethylamine M+H
PI=HMDB
DATACOLLECTOR=HMDB
SMILES=CN(C)C
INCHI=InChI=1S/C3H9N/c1-4(2)3/h1-3H3
INCHIAUX=N/A
PUBMED=N/A
SUBMITUSER=mwang87
TAGS=
LIBRARYQUALITY=3
SPECTRUMID=CCMSLIB00000425202
SCANS=174
44.0 100.0 
END IONS

BEGIN IONS
PEPMASS=189.135
CHARGE=1+
MSLEVEL=2
SOURCE_INSTRUMENT=Positive-Quattro_QQQ:10eV
FILENAME=hmdb_intermediate.mgf
SEQ=*..*
IONMODE=Positive
ORGANISM=HMDB
NAME=HMDB:HMDB00670-921 Homo-L-arginine M+H
PI=HMDB
DATACOLLECTOR=HMDB
SMILES=N[C@@H](CCCCNC(N)=N)C(O)=O
INCHI=InChI=1S/C7H16N4O2/c8-5(6(12)13)3-1-2-4-11-7(9)10/h5H,1-4,8H2,(H,12,13)(H4,9,10,11)/t5-/m0/s1
INCHIAUX=N/A
PUBMED=N/A
SUBMITUSER=mwang87
TAGS=
LIBRARYQUALITY=3
SPECTRUMID=CCMSLIB00000425203
SCANS=175
188.994 100.0 
END IONS

BEGIN IONS
PEPMASS=167.057
CHARGE=1+
MSLEVEL=2
SOURCE_INSTRUMENT=Positive-Quattro_QQQ:10eV
FILENAME=hmdb_intermediate.mgf
SEQ=*..*
IONMODE=Positive
ORGANISM=HMDB
NAME=HMDB:HMDB01886-1786 3-Methylxanthine M+H
PI=HMDB
DATACOLLECTOR=HMDB
SMILES=CN1C2=C(NC=N2)C(=O)NC1=O
INCHI=InChI=1S/C6H6N4O2/c1-10-4-3(7-2-8-4)5(11)9-6(10)12/h2H,1H3,(H,7,8)(H,9,11,12)
INCHIAUX=N/A
PUBMED=N/A
SUBMITUSER=mwang87
TAGS=
LIBRARYQUALITY=3
SPECTRUMID=CCMSLIB00000425204
SCANS=176
125.151 100.0 
125.653 94.792 
END IONS

BEGIN IONS
PEPMASS=90.0555
CHARGE=1+
MSLEVEL=2
SOURCE_INSTRUMENT=Positive-Quattro_QQQ:40eV
FILENAME=hmdb_intermediate.mgf
SEQ=*..*
IONMODE=Positive
ORGANISM=HMDB
NAME=HMDB:HMDB01310-1512 D-Alanine M+H
PI=HMDB
DATACOLLECTOR=HMDB
SMILES=C[C@@H](N)C(O)=O
INCHI=InChI=1S/C3H7NO2/c1-2(4)3(5)6/h2H,4H2,1H3,(H,5,6)/t2-/m1/s1
INCHIAUX=N/A
PUBMED=N/A
SUBMITUSER=mwang87
TAGS=
LIBRARYQUALITY=3
SPECTRUMID=CCMSLIB00000425205
SCANS=177
44.0 100.0 
45.0 68.207 
END IONS

BEGIN IONS
PEPMASS=308.092
CHARGE=1+
MSLEVEL=2
SOURCE_INSTRUMENT=Positive-Quattro_QQQ:10eV
FILENAME=hmdb_intermediate.mgf
SEQ=*..*
IONMODE=Positive
ORGANISM=HMDB
NAME=HMDB:HMDB00125-186 Glutathione M+H
PI=HMDB
DATACOLLECTOR=HMDB
SMILES=N[C@@H](CCC(=O)N[C@@H](CS)C(=O)NCC(O)=O)C(O)=O
INCHI=InChI=1S/C10H17N3O6S/c11-5(10(18)19)1-2-7(14)13-6(4-20)9(17)12-3-8(15)16/h5-6,20H,1-4,11H2,(H,12,17)(H,13,14)(H,15,16)(H,18,19)/t5-,6-/m0/s1
INCHIAUX=N/A
PUBMED=N/A
SUBMITUSER=mwang87
TAGS=
LIBRARYQUALITY=3
SPECTRUMID=CCMSLIB00000425206
SCANS=178
129.998 100.0 
307.967 91.15 
END IONS

BEGIN IONS
PEPMASS=195.077
CHARGE=1+
MSLEVEL=2
SOURCE_INSTRUMENT=Positive-Quattro_QQQ:40eV
FILENAME=hmdb_intermediate.mgf
SEQ=*..*
IONMODE=Positive
ORGANISM=HMDB
NAME=HMDB:HMDB01867-1752 4-Aminohippuric acid M+H
PI=HMDB
DATACOLLECTOR=HMDB
SMILES=NC1=CC=C(C=C1)C(=O)NCC(O)=O
INCHI=InChI=1S/C9H10N2O3/c10-7-3-1-6(2-4-7)9(14)11-5-8(12)13/h1-4H,5,10H2,(H,11,14)(H,12,13)
INCHIAUX=N/A
PUBMED=N/A
SUBMITUSER=mwang87
TAGS=
LIBRARYQUALITY=3
SPECTRUMID=CCMSLIB00000425207
SCANS=179
64.697 89.89 
65.575 100.0 
92.427 88.699 
120.409 52.7 
END IONS

BEGIN IONS
PEPMASS=112.937
CHARGE=1+
MSLEVEL=2
SOURCE_INSTRUMENT=Positive-Quattro_QQQ:25eV
FILENAME=hmdb_intermediate.mgf
SEQ=*..*
IONMODE=Positive
ORGANISM=HMDB
NAME=HMDB:HMDB00257-446 Thiosulfate M+H
PI=HMDB
DATACOLLECTOR=HMDB
SMILES=[O-]S([S-])(=O)=O
INCHI=InChI=1S/H2O3S2/c1-5(2,3)4/h(H2,1,2,3,4)/p-2
INCHIAUX=N/A
PUBMED=N/A
SUBMITUSER=mwang87
TAGS=
LIBRARYQUALITY=3
SPECTRUMID=CCMSLIB00000425208
SCANS=180
55.059 100.0 
55.562 54.902 
70.39 84.489 
72.275 64.786 
74.035 68.618 
END IONS

BEGIN IONS
PEPMASS=159.139
CHARGE=1+
MSLEVEL=2
SOURCE_INSTRUMENT=Positive-Quattro_QQQ:10eV
FILENAME=hmdb_intermediate.mgf
SEQ=*..*
IONMODE=Positive
ORGANISM=HMDB
NAME=HMDB:HMDB00847-1193 Pelargonic acid M+H
PI=HMDB
DATACOLLECTOR=HMDB
SMILES=CCCCCCCCC(O)=O
INCHI=InChI=1S/C9H18O2/c1-2-3-4-5-6-7-8-9(10)11/h2-8H2,1H3,(H,10,11)
INCHIAUX=N/A
PUBMED=N/A
SUBMITUSER=mwang87
TAGS=
LIBRARYQUALITY=3
SPECTRUMID=CCMSLIB00000425209
SCANS=181
43.0 83.332 
88.0 100.0 
102.0 51.317 
158.0 53.649 
END IONS

BEGIN IONS
PEPMASS=125.06
CHARGE=1+
MSLEVEL=2
SOURCE_INSTRUMENT=Positive-Quattro_QQQ:10eV
FILENAME=hmdb_intermediate.mgf
SEQ=*..*
IONMODE=Positive
ORGANISM=HMDB
NAME=HMDB:HMDB00873-1232 4-Methylcatechol M+H
PI=HMDB
DATACOLLECTOR=HMDB
SMILES=CC1=CC(O)=C(O)C=C1
INCHI=InChI=1S/C7H8O2/c1-5-2-3-6(8)7(9)4-5/h2-4,8-9H,1H3
INCHIAUX=N/A
PUBMED=N/A
SUBMITUSER=mwang87
TAGS=
LIBRARYQUALITY=3
SPECTRUMID=CCMSLIB00000425210
SCANS=182
107.031 100.0 
125.005 55.093 
END IONS

BEGIN IONS
PEPMASS=183.052
CHARGE=1+
MSLEVEL=2
SOURCE_INSTRUMENT=Positive-Quattro_QQQ:10eV
FILENAME=hmdb_intermediate.mgf
SEQ=*..*
IONMODE=Positive
ORGANISM=HMDB
NAME=HMDB:HMDB03099-2194 1-Methyluric acid M+H
PI=HMDB
DATACOLLECTOR=HMDB
SMILES=CN1C(=O)NC2=C(NC(=O)N2)C1=O
INCHI=InChI=1S/C6H6N4O3/c1-10-4(11)2-3(9-6(10)13)8-5(12)7-2/h1H3,(H,9,13)(H2,7,8,12)
INCHIAUX=N/A
PUBMED=N/A
SUBMITUSER=mwang87
TAGS=
LIBRARYQUALITY=3
SPECTRUMID=CCMSLIB00000425211
SCANS=183
182.0 100.0 
183.0 75.011 
END IONS

BEGIN IONS
PEPMASS=400.343
CHARGE=1+
MSLEVEL=2
SOURCE_INSTRUMENT=Positive-Quattro_QQQ:40eV
FILENAME=hmdb_intermediate.mgf
SEQ=*..*
IONMODE=Positive
ORGANISM=HMDB
NAME=HMDB:HMDB00222-366 L-Palmitoylcarnitine M+H
PI=HMDB
DATACOLLECTOR=HMDB
SMILES=CCCCCCCCCCCCCCCC(=O)O[C@H](CC([O-])=O)C[N+](C)(C)C
INCHI=InChI=1S/C23H45NO4/c1-5-6-7-8-9-10-11-12-13-14-15-16-17-18-23(27)28-21(19-22(25)26)20-24(2,3)4/h21H,5-20H2,1-4H3/t21-/m1/s1
INCHIAUX=N/A
PUBMED=N/A
SUBMITUSER=mwang87
TAGS=
LIBRARYQUALITY=3
SPECTRUMID=CCMSLIB00000425212
SCANS=184
85.198 100.0 
END IONS

BEGIN IONS
PEPMASS=260.165
CHARGE=1+
MSLEVEL=2
SOURCE_INSTRUMENT=Positive-Quattro_QQQ:10eV
FILENAME=hmdb_intermediate.mgf
SEQ=*..*
IONMODE=Positive
ORGANISM=HMDB
NAME=HMDB:HMDB01849-1708 Propranolol M+H
PI=HMDB
DATACOLLECTOR=HMDB
SMILES=CC(C)NCC(O)COC1=CC=CC2=CC=CC=C12
INCHI=InChI=1S/C16H21NO2/c1-12(2)17-10-14(18)11-19-16-9-5-7-13-6-3-4-8-15(13)16/h3-9,12,14,17-18H,10-11H2,1-2H3
INCHIAUX=N/A
PUBMED=N/A
SUBMITUSER=mwang87
TAGS=
LIBRARYQUALITY=3
SPECTRUMID=CCMSLIB00000425213
SCANS=185
260.402 100.0 
260.527 91.284 
END IONS

BEGIN IONS
PEPMASS=162.055
CHARGE=1+
MSLEVEL=2
SOURCE_INSTRUMENT=Positive-Quattro_QQQ:10eV
FILENAME=hmdb_intermediate.mgf
SEQ=*..*
IONMODE=Positive
ORGANISM=HMDB
NAME=HMDB:HMDB03320-2242 Indole-3-carboxylic acid M+H
PI=HMDB
DATACOLLECTOR=HMDB
SMILES=OC(=O)C1=CNC2=CC=CC=C12
INCHI=InChI=1S/C9H7NO2/c11-9(12)7-5-10-8-4-2-1-3-6(7)8/h1-5,10H,(H,11,12)
INCHIAUX=N/A
PUBMED=N/A
SUBMITUSER=mwang87
TAGS=
LIBRARYQUALITY=3
SPECTRUMID=CCMSLIB00000425214
SCANS=186
161.0 100.0 
162.0 63.064 
END IONS

BEGIN IONS
PEPMASS=285.083
CHARGE=1+
MSLEVEL=2
SOURCE_INSTRUMENT=Positive-Quattro_QQQ:25eV
FILENAME=hmdb_intermediate.mgf
SEQ=*..*
IONMODE=Positive
ORGANISM=HMDB
NAME=HMDB:HMDB00299-508 Xanthosine M+H
PI=HMDB
DATACOLLECTOR=HMDB
SMILES=OC[C@H]1O[C@H]([C@H](O)[C@@H]1O)N1C=NC2=C1N=C(O)N=C2O
INCHI=InChI=1S/C10H12N4O6/c15-1-3-5(16)6(17)9(20-3)14-2-11-4-7(14)12-10(19)13-8(4)18/h2-3,5-6,9,15-17H,1H2,(H2,12,13,18,19)/t3-,5-,6-,9-/m1/s1
INCHIAUX=N/A
PUBMED=N/A
SUBMITUSER=mwang87
TAGS=
LIBRARYQUALITY=3
SPECTRUMID=CCMSLIB00000425215
SCANS=187
152.938 100.0 
END IONS

BEGIN IONS
PEPMASS=167.071
CHARGE=1+
MSLEVEL=2
SOURCE_INSTRUMENT=Positive-Quattro_QQQ:40eV
FILENAME=hmdb_intermediate.mgf
SEQ=*..*
IONMODE=Positive
ORGANISM=HMDB
NAME=HMDB:HMDB02072-1983 4-Methoxyphenylacetic acid M+H
PI=HMDB
DATACOLLECTOR=HMDB
SMILES=COC1=CC=C(CC(O)=O)C=C1
INCHI=InChI=1S/C9H10O3/c1-12-8-4-2-7(3-5-8)6-9(10)11/h2-5H,6H2,1H3,(H,10,11)
INCHIAUX=N/A
PUBMED=N/A
SUBMITUSER=mwang87
TAGS=
LIBRARYQUALITY=3
SPECTRUMID=CCMSLIB00000425216
SCANS=188
77.0 60.487 
78.0 100.0 
END IONS

BEGIN IONS
PEPMASS=146.082
CHARGE=1+
MSLEVEL=2
SOURCE_INSTRUMENT=Positive-Quattro_QQQ:25eV
FILENAME=hmdb_intermediate.mgf
SEQ=*..*
IONMODE=Positive
ORGANISM=HMDB
NAME=HMDB:HMDB00730-1027 Isobutyrylglycine M+H
PI=HMDB
DATACOLLECTOR=HMDB
SMILES=CC(C)C(=O)NCC(O)=O
INCHI=InChI=1S/C6H11NO3/c1-4(2)6(10)7-3-5(8)9/h4H,3H2,1-2H3,(H,7,10)(H,8,9)
INCHIAUX=N/A
PUBMED=N/A
SUBMITUSER=mwang87
TAGS=
LIBRARYQUALITY=3
SPECTRUMID=CCMSLIB00000425217
SCANS=189
43.639 100.0 
END IONS

BEGIN IONS
PEPMASS=119.082
CHARGE=1+
MSLEVEL=2
SOURCE_INSTRUMENT=Positive-Quattro_QQQ:10eV
FILENAME=hmdb_intermediate.mgf
SEQ=*..*
IONMODE=Positive
ORGANISM=HMDB
NAME=HMDB:HMDB02362-2083 2,4-Diaminobutyric acid M+H
PI=HMDB
DATACOLLECTOR=HMDB
SMILES=NCCC(N)C(O)=O
INCHI=InChI=1S/C4H10N2O2/c5-2-1-3(6)4(7)8/h3H,1-2,5-6H2,(H,7,8)
INCHIAUX=N/A
PUBMED=N/A
SUBMITUSER=mwang87
TAGS=
LIBRARYQUALITY=3
SPECTRUMID=CCMSLIB00000425218
SCANS=190
101.0 100.0 
END IONS

BEGIN IONS
PEPMASS=131.071
CHARGE=1+
MSLEVEL=2
SOURCE_INSTRUMENT=Positive-Quattro_QQQ:40eV
FILENAME=hmdb_intermediate.mgf
SEQ=*..*
IONMODE=Positive
ORGANISM=HMDB
NAME=HMDB:HMDB01864-1746 2-Ketohexanoic acid M+H
PI=HMDB
DATACOLLECTOR=HMDB
SMILES=CCCCC(=O)C(O)=O
INCHI=InChI=1S/C6H10O3/c1-2-3-4-5(7)6(8)9/h2-4H2,1H3,(H,8,9)
INCHIAUX=N/A
PUBMED=N/A
SUBMITUSER=mwang87
TAGS=
LIBRARYQUALITY=3
SPECTRUMID=CCMSLIB00000425219
SCANS=191
48.904 73.211 
62.633 100.0 
68.748 55.036 
81.853 56.627 
82.727 56.152 
124.29 50.729 
END IONS

BEGIN IONS
PEPMASS=137.045
CHARGE=1+
MSLEVEL=2
SOURCE_INSTRUMENT=Positive-Quattro_QQQ:25eV
FILENAME=hmdb_intermediate.mgf
SEQ=*..*
IONMODE=Positive
ORGANISM=HMDB
NAME=HMDB:HMDB00943-1337 Threonic acid M+H
PI=HMDB
DATACOLLECTOR=HMDB
SMILES=OC[C@@H](O)[C@H](O)C(O)=O
INCHI=InChI=1S/C4H8O5/c5-1-2(6)3(7)4(8)9/h2-3,5-7H,1H2,(H,8,9)/t2-,3+/m1/s1
INCHIAUX=N/A
PUBMED=N/A
SUBMITUSER=mwang87
TAGS=
LIBRARYQUALITY=3
SPECTRUMID=CCMSLIB00000425220
SCANS=192
67.59 52.42 
80.675 52.333 
81.672 96.803 
96.128 100.0 
97.001 85.642 
END IONS

BEGIN IONS
PEPMASS=169.036
CHARGE=1+
MSLEVEL=2
SOURCE_INSTRUMENT=Positive-Quattro_QQQ:25eV
FILENAME=hmdb_intermediate.mgf
SEQ=*..*
IONMODE=Positive
ORGANISM=HMDB
NAME=HMDB:HMDB00289-490 Uric acid M+H
PI=HMDB
DATACOLLECTOR=HMDB
SMILES=O=C1NC2=C(N1)C(=O)NC(=O)N2
INCHI=InChI=1S/C5H4N4O3/c10-3-1-2(7-4(11)6-1)8-5(12)9-3/h(H4,6,7,8,9,10,11,12)
INCHIAUX=N/A
PUBMED=N/A
SUBMITUSER=mwang87
TAGS=
LIBRARYQUALITY=3
SPECTRUMID=CCMSLIB00000425221
SCANS=193
70.106 88.889 
95.989 100.0 
151.824 52.564 
END IONS

BEGIN IONS
PEPMASS=282.12
CHARGE=1+
MSLEVEL=2
SOURCE_INSTRUMENT=Positive-Quattro_QQQ:25eV
FILENAME=hmdb_intermediate.mgf
SEQ=*..*
IONMODE=Positive
ORGANISM=HMDB
NAME=HMDB:HMDB03331-2246 1-Methyladenosine M+H
PI=HMDB
DATACOLLECTOR=HMDB
SMILES=CN1C=NC2=C(N=CN2[C@@H]2O[C@H](CO)[C@@H](O)[C@H]2O)C1=N
INCHI=InChI=1S/C11H15N5O4/c1-15-3-14-10-6(9(15)12)13-4-16(10)11-8(19)7(18)5(2-17)20-11/h3-5,7-8,11-12,17-19H,2H2,1H3/t5-,7-,8-,11-/m1/s1
INCHIAUX=N/A
PUBMED=N/A
SUBMITUSER=mwang87
TAGS=
LIBRARYQUALITY=3
SPECTRUMID=CCMSLIB00000425222
SCANS=194
150.0 100.0 
END IONS

BEGIN IONS
PEPMASS=261.038
CHARGE=1+
MSLEVEL=2
SOURCE_INSTRUMENT=Positive-Quattro_QQQ:40eV
FILENAME=hmdb_intermediate.mgf
SEQ=*..*
IONMODE=Positive
ORGANISM=HMDB
NAME=HMDB:HMDB01078-1420 Mannose 6-phosphate M+H
PI=HMDB
DATACOLLECTOR=HMDB
SMILES=O[C@@H]1O[C@H](COP(O)(O)=O)[C@@H](O)[C@H](O)[C@@H]1O
INCHI=InChI=1S/C6H13O9P/c7-3-2(1-14-16(11,12)13)15-6(10)5(9)4(3)8/h2-10H,1H2,(H2,11,12,13)/t2-,3-,4+,5+,6-/m1/s1
INCHIAUX=N/A
PUBMED=N/A
SUBMITUSER=mwang87
TAGS=
LIBRARYQUALITY=3
SPECTRUMID=CCMSLIB00000425223
SCANS=195
69.0 60.045 
81.0 85.177 
99.0 100.0 
END IONS

BEGIN IONS
PEPMASS=132.066
CHARGE=1+
MSLEVEL=2
SOURCE_INSTRUMENT=Positive-Quattro_QQQ:10eV
FILENAME=hmdb_intermediate.mgf
SEQ=*..*
IONMODE=Positive
ORGANISM=HMDB
NAME=HMDB:HMDB01149-1433 5-Aminolevulinic acid M+H
PI=HMDB
DATACOLLECTOR=HMDB
SMILES=NCC(=O)CCC(O)=O
INCHI=InChI=1S/C5H9NO3/c6-3-4(7)1-2-5(8)9/h1-3,6H2,(H,8,9)
INCHIAUX=N/A
PUBMED=N/A
SUBMITUSER=mwang87
TAGS=
LIBRARYQUALITY=3
SPECTRUMID=CCMSLIB00000425224
SCANS=196
103.447 54.185 
103.944 100.0 
104.691 66.253 
END IONS

BEGIN IONS
PEPMASS=62.0606
CHARGE=1+
MSLEVEL=2
SOURCE_INSTRUMENT=Positive-Quattro_QQQ:10eV
FILENAME=hmdb_intermediate.mgf
SEQ=*..*
IONMODE=Positive
ORGANISM=HMDB
NAME=HMDB:HMDB00149-224 Ethanolamine M+H
PI=HMDB
DATACOLLECTOR=HMDB
SMILES=NCCO
INCHI=InChI=1S/C2H7NO/c3-1-2-4/h4H,1-3H2
INCHIAUX=N/A
PUBMED=N/A
SUBMITUSER=mwang87
TAGS=
LIBRARYQUALITY=3
SPECTRUMID=CCMSLIB00000425225
SCANS=197
44.0 93.904 
62.0 100.0 
END IONS

BEGIN IONS
PEPMASS=117.092
CHARGE=1+
MSLEVEL=2
SOURCE_INSTRUMENT=Positive-Quattro_QQQ:40eV
FILENAME=hmdb_intermediate.mgf
SEQ=*..*
IONMODE=Positive
ORGANISM=HMDB
NAME=HMDB:HMDB00689-957 Isocaproic acid M+H
PI=HMDB
DATACOLLECTOR=HMDB
SMILES=CC(C)CCC(O)=O
INCHI=InChI=1S/C6H12O2/c1-5(2)3-4-6(7)8/h5H,3-4H2,1-2H3,(H,7,8)
INCHIAUX=N/A
PUBMED=N/A
SUBMITUSER=mwang87
TAGS=
LIBRARYQUALITY=3
SPECTRUMID=CCMSLIB00000425226
SCANS=198
81.11 100.0 
85.34 56.098 
85.51 87.195 
90.53 93.902 
97.69 51.829 
98.96 72.561 
114.97 50.0 
122.22 50.0 
152.89 51.22 
159.28 53.049 
183.11 50.0 
END IONS

BEGIN IONS
PEPMASS=175.12
CHARGE=1+
MSLEVEL=2
SOURCE_INSTRUMENT=Positive-Quattro_QQQ:40eV
FILENAME=hmdb_intermediate.mgf
SEQ=*..*
IONMODE=Positive
ORGANISM=HMDB
NAME=HMDB:HMDB00517-742 L-Arginine M+H
PI=HMDB
DATACOLLECTOR=HMDB
SMILES=N[C@@H](CCCN=C(N)N)C(O)=O
INCHI=InChI=1S/C6H14N4O2/c7-4(5(11)12)2-1-3-10-6(8)9/h4H,1-3,7H2,(H,11,12)(H4,8,9,10)/t4-/m0/s1
INCHIAUX=N/A
PUBMED=N/A
SUBMITUSER=mwang87
TAGS=
LIBRARYQUALITY=3
SPECTRUMID=CCMSLIB00000425227
SCANS=199
70.143 100.0 
END IONS

BEGIN IONS
PEPMASS=107.05
CHARGE=1+
MSLEVEL=2
SOURCE_INSTRUMENT=Positive-Quattro_QQQ:40eV
FILENAME=hmdb_intermediate.mgf
SEQ=*..*
IONMODE=Positive
ORGANISM=HMDB
NAME=HMDB:HMDB06115-2474 Benzaldehyde M+H
PI=HMDB
DATACOLLECTOR=HMDB
SMILES=O=CC1=CC=CC=C1
INCHI=InChI=1S/C7H6O/c8-6-7-4-2-1-3-5-7/h1-6H
INCHIAUX=N/A
PUBMED=N/A
SUBMITUSER=mwang87
TAGS=
LIBRARYQUALITY=3
SPECTRUMID=CCMSLIB00000425228
SCANS=200
51.0 86.048 
77.0 100.0 
107.0 56.037 
END IONS

BEGIN IONS
PEPMASS=516.299
CHARGE=1+
MSLEVEL=2
SOURCE_INSTRUMENT=Positive-Quattro_QQQ:25eV
FILENAME=hmdb_intermediate.mgf
SEQ=*..*
IONMODE=Positive
ORGANISM=HMDB
NAME=HMDB:HMDB00036-61 Taurocholic acid M+H
PI=HMDB
DATACOLLECTOR=HMDB
SMILES=[H][C@@]12C[C@H](O)CCC1(C)C1C[C@H](O)C3(C)C(CCC3C1[C@H](O)C2)C(C)CCC(=O)NCCS(O)(=O)=O
INCHI=InChI=1S/C26H45NO7S/c1-15(4-7-23(31)27-10-11-35(32,33)34)18-5-6-19-24-20(14-22(30)26(18,19)3)25(2)9-8-17(28)12-16(25)13-21(24)29/h15-22,24,28-30H,4-14H2,1-3H3,(H,27,31)(H,32,33,34)/t15?,16-,17+,18?,19?,20?,21+,22-,24?,25?,26?/m0/s1
INCHIAUX=N/A
PUBMED=N/A
SUBMITUSER=mwang87
TAGS=
LIBRARYQUALITY=3
SPECTRUMID=CCMSLIB00000425229
SCANS=201
461.85 100.0 
END IONS

BEGIN IONS
PEPMASS=90.0555
CHARGE=1+
MSLEVEL=2
SOURCE_INSTRUMENT=Positive-Quattro_QQQ:25eV
FILENAME=hmdb_intermediate.mgf
SEQ=*..*
IONMODE=Positive
ORGANISM=HMDB
NAME=HMDB:HMDB01310-1511 D-Alanine M+H
PI=HMDB
DATACOLLECTOR=HMDB
SMILES=C[C@@H](N)C(O)=O
INCHI=InChI=1S/C3H7NO2/c1-2(4)3(5)6/h2H,4H2,1H3,(H,5,6)/t2-/m1/s1
INCHIAUX=N/A
PUBMED=N/A
SUBMITUSER=mwang87
TAGS=
LIBRARYQUALITY=3
SPECTRUMID=CCMSLIB00000425230
SCANS=202
44.0 100.0 
END IONS

BEGIN IONS
PEPMASS=233.129
CHARGE=1+
MSLEVEL=2
SOURCE_INSTRUMENT=Positive-Quattro_QQQ:25eV
FILENAME=hmdb_intermediate.mgf
SEQ=*..*
IONMODE=Positive
ORGANISM=HMDB
NAME=HMDB:HMDB01389-1548 Melatonin M+H
PI=HMDB
DATACOLLECTOR=HMDB
SMILES=COC1=CC2=C(NC=C2CCNC(C)=O)C=C1
INCHI=InChI=1S/C13H16N2O2/c1-9(16)14-6-5-10-8-15-13-4-3-11(17-2)7-12(10)13/h3-4,7-8,15H,5-6H2,1-2H3,(H,14,16)
INCHIAUX=N/A
PUBMED=N/A
SUBMITUSER=mwang87
TAGS=
LIBRARYQUALITY=3
SPECTRUMID=CCMSLIB00000425231
SCANS=203
158.0 87.221 
173.0 100.0 
END IONS

BEGIN IONS
PEPMASS=89.0603
CHARGE=1+
MSLEVEL=2
SOURCE_INSTRUMENT=Positive-Quattro_QQQ:40eV
FILENAME=hmdb_intermediate.mgf
SEQ=*..*
IONMODE=Positive
ORGANISM=HMDB
NAME=HMDB:HMDB03243-2220 Acetoin M+H
PI=HMDB
DATACOLLECTOR=HMDB
SMILES=CC(O)C(C)=O
INCHI=InChI=1S/C4H8O2/c1-3(5)4(2)6/h3,5H,1-2H3
INCHIAUX=N/A
PUBMED=N/A
SUBMITUSER=mwang87
TAGS=
LIBRARYQUALITY=3
SPECTRUMID=CCMSLIB00000425232
SCANS=204
43.0 100.0 
END IONS

BEGIN IONS
PEPMASS=162.077
CHARGE=1+
MSLEVEL=2
SOURCE_INSTRUMENT=Positive-Quattro_QQQ:10eV
FILENAME=hmdb_intermediate.mgf
SEQ=*..*
IONMODE=Positive
ORGANISM=HMDB
NAME=HMDB:HMDB00510-731 Aminoadipic acid M+H
PI=HMDB
DATACOLLECTOR=HMDB
SMILES=NC(CCCC(O)=O)C(O)=O
INCHI=InChI=1S/C6H11NO4/c7-4(6(10)11)2-1-3-5(8)9/h4H,1-3,7H2,(H,8,9)(H,10,11)
INCHIAUX=N/A
PUBMED=N/A
SUBMITUSER=mwang87
TAGS=
LIBRARYQUALITY=3
SPECTRUMID=CCMSLIB00000425233
SCANS=205
98.012 69.0 
115.959 63.5 
143.924 82.0 
161.898 100.0 
END IONS

BEGIN IONS
PEPMASS=104.071
CHARGE=1+
MSLEVEL=2
SOURCE_INSTRUMENT=Positive-Quattro_QQQ:25eV
FILENAME=hmdb_intermediate.mgf
SEQ=*..*
IONMODE=Positive
ORGANISM=HMDB
NAME=HMDB:HMDB01906-1826 2-Aminoisobutyric acid M+H
PI=HMDB
DATACOLLECTOR=HMDB
SMILES=CC(C)(N)C(O)=O
INCHI=InChI=1S/C4H9NO2/c1-4(2,5)3(6)7/h5H2,1-2H3,(H,6,7)
INCHIAUX=N/A
PUBMED=N/A
SUBMITUSER=mwang87
TAGS=
LIBRARYQUALITY=3
SPECTRUMID=CCMSLIB00000425234
SCANS=206
86.0 54.053 
104.0 100.0 
END IONS

BEGIN IONS
PEPMASS=170.022
CHARGE=1+
MSLEVEL=2
SOURCE_INSTRUMENT=Positive-Quattro_QQQ:25eV
FILENAME=hmdb_intermediate.mgf
SEQ=*..*
IONMODE=Positive
ORGANISM=HMDB
NAME=HMDB:HMDB00370-586 2-Amino-3-phosphonopropionic acid M+H
PI=HMDB
DATACOLLECTOR=HMDB
SMILES=NC(CP(O)(O)=O)C(O)=O
INCHI=InChI=1S/C3H8NO5P/c4-2(3(5)6)1-10(7,8)9/h2H,1,4H2,(H,5,6)(H2,7,8,9)
INCHIAUX=N/A
PUBMED=N/A
SUBMITUSER=mwang87
TAGS=
LIBRARYQUALITY=3
SPECTRUMID=CCMSLIB00000425235
SCANS=207
106.0 100.0 
END IONS

BEGIN IONS
PEPMASS=197.067
CHARGE=1+
MSLEVEL=2
SOURCE_INSTRUMENT=Positive-Quattro_QQQ:10eV
FILENAME=hmdb_intermediate.mgf
SEQ=*..*
IONMODE=Positive
ORGANISM=HMDB
NAME=HMDB:HMDB01982-1923 3,7-Dimethyluric acid M+H
PI=HMDB
DATACOLLECTOR=HMDB
SMILES=CN1C(=O)NC2=C1C(=O)NC(=O)N2C
INCHI=InChI=1S/C7H8N4O3/c1-10-3-4(8-6(10)13)11(2)7(14)9-5(3)12/h1-2H3,(H,8,13)(H,9,12,14)
INCHIAUX=N/A
PUBMED=N/A
SUBMITUSER=mwang87
TAGS=
LIBRARYQUALITY=3
SPECTRUMID=CCMSLIB00000425236
SCANS=208
197.0 100.0 
END IONS

BEGIN IONS
PEPMASS=164.094
CHARGE=1+
MSLEVEL=2
SOURCE_INSTRUMENT=Positive-Quattro_QQQ:10eV
FILENAME=hmdb_intermediate.mgf
SEQ=*..*
IONMODE=Positive
ORGANISM=HMDB
NAME=HMDB:HMDB00473-689 6-Dimethylaminopurine M+H
PI=HMDB
DATACOLLECTOR=HMDB
SMILES=CN(C)C1=NC=NC2=C1NC=N2
INCHI=InChI=1S/C7H9N5/c1-12(2)7-5-6(9-3-8-5)10-4-11-7/h3-4H,1-2H3,(H,8,9,10,11)
INCHIAUX=N/A
PUBMED=N/A
SUBMITUSER=mwang87
TAGS=
LIBRARYQUALITY=3
SPECTRUMID=CCMSLIB00000425237
SCANS=209
119.868 100.0 
163.961 93.605 
END IONS

BEGIN IONS
PEPMASS=159.041
CHARGE=1+
MSLEVEL=2
SOURCE_INSTRUMENT=Positive-Quattro_QQQ:25eV
FILENAME=hmdb_intermediate.mgf
SEQ=*..*
IONMODE=Positive
ORGANISM=HMDB
NAME=HMDB:HMDB03349-2257 L-Dihydroorotic acid M+H
PI=HMDB
DATACOLLECTOR=HMDB
SMILES=OC(=O)[C@@H]1CC(=O)NC(=O)N1
INCHI=InChI=1S/C5H6N2O4/c8-3-1-2(4(9)10)6-5(11)7-3/h2H,1H2,(H,9,10)(H2,6,7,8,11)/t2-/m0/s1
INCHIAUX=N/A
PUBMED=N/A
SUBMITUSER=mwang87
TAGS=
LIBRARYQUALITY=3
SPECTRUMID=CCMSLIB00000425238
SCANS=210
43.0 57.462 
70.0 100.0 
74.0 58.981 
END IONS

BEGIN IONS
PEPMASS=343.124
CHARGE=1+
MSLEVEL=2
SOURCE_INSTRUMENT=Positive-Quattro_QQQ:10eV
FILENAME=hmdb_intermediate.mgf
SEQ=*..*
IONMODE=Positive
ORGANISM=HMDB
NAME=HMDB:HMDB00975-1372 Trehalose M+H
PI=HMDB
DATACOLLECTOR=HMDB
SMILES=OC[C@H]1O[C@H](O[C@H]2O[C@H](CO)[C@@H](O)[C@H](O)[C@H]2O)[C@H](O)[C@@H](O)[C@@H]1O
INCHI=InChI=1S/C12H22O11/c13-1-3-5(15)7(17)9(19)11(21-3)23-12-10(20)8(18)6(16)4(2-14)22-12/h3-20H,1-2H2/t3-,4-,5-,6-,7+,8+,9-,10-,11-,12-/m1/s1
INCHIAUX=N/A
PUBMED=N/A
SUBMITUSER=mwang87
TAGS=
LIBRARYQUALITY=3
SPECTRUMID=CCMSLIB00000425239
SCANS=211
163.0 100.0 
END IONS

BEGIN IONS
PEPMASS=151.04
CHARGE=1+
MSLEVEL=2
SOURCE_INSTRUMENT=Positive-Quattro_QQQ:25eV
FILENAME=hmdb_intermediate.mgf
SEQ=*..*
IONMODE=Positive
ORGANISM=HMDB
NAME=HMDB:HMDB01587-1661 Phenylglyoxylic acid M+H
PI=HMDB
DATACOLLECTOR=HMDB
SMILES=OC(=O)C(=O)C1=CC=CC=C1
INCHI=InChI=1S/C8H6O3/c9-7(8(10)11)6-4-2-1-3-5-6/h1-5H,(H,10,11)
INCHIAUX=N/A
PUBMED=N/A
SUBMITUSER=mwang87
TAGS=
LIBRARYQUALITY=3
SPECTRUMID=CCMSLIB00000425240
SCANS=212
77.0 100.0 
END IONS

BEGIN IONS
PEPMASS=155.144
CHARGE=1+
MSLEVEL=2
SOURCE_INSTRUMENT=Positive-Quattro_QQQ:10eV
FILENAME=hmdb_intermediate.mgf
SEQ=*..*
IONMODE=Positive
ORGANISM=HMDB
NAME=HMDB:HMDB04472-2391 Eucalyptol M+H
PI=HMDB
DATACOLLECTOR=HMDB
SMILES=CC12CCC(CC1)C(C)(C)O2
INCHI=InChI=1S/C10H18O/c1-9(2)8-4-6-10(3,11-9)7-5-8/h8H,4-7H2,1-3H3
INCHIAUX=N/A
PUBMED=N/A
SUBMITUSER=mwang87
TAGS=
LIBRARYQUALITY=3
SPECTRUMID=CCMSLIB00000425241
SCANS=213
81.0 100.0 
END IONS

BEGIN IONS
PEPMASS=525.901
CHARGE=1+
MSLEVEL=2
SOURCE_INSTRUMENT=Positive-Quattro_QQQ:25eV
FILENAME=hmdb_intermediate.mgf
SEQ=*..*
IONMODE=Positive
ORGANISM=HMDB
NAME=HMDB:HMDB00582-811 3,5-Diiodothyronine M+H
PI=HMDB
DATACOLLECTOR=HMDB
SMILES=NC(CC1=CC(I)=C(OC2=CC=C(O)C=C2)C(I)=C1)C(O)=O
INCHI=InChI=1S/C15H13I2NO4/c16-11-5-8(7-13(18)15(20)21)6-12(17)14(11)22-10-3-1-9(19)2-4-10/h1-6,13,19H,7,18H2,(H,20,21)
INCHIAUX=N/A
PUBMED=N/A
SUBMITUSER=mwang87
TAGS=
LIBRARYQUALITY=3
SPECTRUMID=CCMSLIB00000425242
SCANS=214
480.0 100.0 
525.96 81.4430483705 
END IONS

BEGIN IONS
PEPMASS=209.081
CHARGE=1+
MSLEVEL=2
SOURCE_INSTRUMENT=Positive-Quattro_QQQ:40eV
FILENAME=hmdb_intermediate.mgf
SEQ=*..*
IONMODE=Positive
ORGANISM=HMDB
NAME=HMDB:HMDB12127-2507 (R)-2-Benzylsuccinate M+H
PI=HMDB
DATACOLLECTOR=HMDB
SMILES=OC(=O)C[C@H](CC1=CC=CC=C1)C(O)=O
INCHI=InChI=1S/C11H12O4/c12-10(13)7-9(11(14)15)6-8-4-2-1-3-5-8/h1-5,9H,6-7H2,(H,12,13)(H,14,15)/t9-/m0/s1
INCHIAUX=N/A
PUBMED=N/A
SUBMITUSER=mwang87
TAGS=
LIBRARYQUALITY=3
SPECTRUMID=CCMSLIB00000425243
SCANS=215
117.06 100.0 
END IONS

BEGIN IONS
PEPMASS=166.073
CHARGE=1+
MSLEVEL=2
SOURCE_INSTRUMENT=Positive-Quattro_QQQ:10eV
FILENAME=hmdb_intermediate.mgf
SEQ=*..*
IONMODE=Positive
ORGANISM=HMDB
NAME=HMDB:HMDB03282-2227 1-Methylguanine M+H
PI=HMDB
DATACOLLECTOR=HMDB
SMILES=CN1C(N)=NC2=C(NC=N2)C1=O
INCHI=InChI=1S/C6H7N5O/c1-11-5(12)3-4(9-2-8-3)10-6(11)7/h2H,1H3,(H2,7,10)(H,8,9)
INCHIAUX=N/A
PUBMED=N/A
SUBMITUSER=mwang87
TAGS=
LIBRARYQUALITY=3
SPECTRUMID=CCMSLIB00000425244
SCANS=216
165.857 100.0 
END IONS

BEGIN IONS
PEPMASS=190.072
CHARGE=1+
MSLEVEL=2
SOURCE_INSTRUMENT=Positive-Quattro_QQQ:25eV
FILENAME=hmdb_intermediate.mgf
SEQ=*..*
IONMODE=Positive
ORGANISM=HMDB
NAME=HMDB:HMDB00590-814 Glutarylglycine M+H
PI=HMDB
DATACOLLECTOR=HMDB
SMILES=OC(=O)CCCC(=O)NCC(O)=O
INCHI=InChI=1S/C7H11NO5/c9-5(8-4-7(12)13)2-1-3-6(10)11/h1-4H2,(H,8,9)(H,10,11)(H,12,13)
INCHIAUX=N/A
PUBMED=N/A
SUBMITUSER=mwang87
TAGS=
LIBRARYQUALITY=3
SPECTRUMID=CCMSLIB00000425245
SCANS=217
70.0 70.441 
77.0 59.565 
98.0 100.0 
END IONS

BEGIN IONS
PEPMASS=227.128
CHARGE=1+
MSLEVEL=2
SOURCE_INSTRUMENT=Negative-Quattro_QQQ:25eV
FILENAME=hmdb_intermediate.mgf
SEQ=*..*
IONMODE=Negative
ORGANISM=HMDB
NAME=HMDB:HMDB00933-1328 Traumatic acid M-H
PI=HMDB
DATACOLLECTOR=HMDB
SMILES=OC(=O)CCCCCCCC\C=C\C(O)=O
INCHI=InChI=1S/C12H20O4/c13-11(14)9-7-5-3-1-2-4-6-8-10-12(15)16/h7,9H,1-6,8,10H2,(H,13,14)(H,15,16)/b9-7+
INCHIAUX=N/A
PUBMED=N/A
SUBMITUSER=mwang87
TAGS=
LIBRARYQUALITY=3
SPECTRUMID=CCMSLIB00000425246
SCANS=218
67.8 79.126 
78.48 100.0 
84.95 72.33 
96.57 59.223 
107.2 64.078 
133.95 55.34 
186.1 68.447 
195.95 65.534 
204.8 71.359 
206.4 91.748 
END IONS

BEGIN IONS
PEPMASS=131.071
CHARGE=1+
MSLEVEL=2
SOURCE_INSTRUMENT=Negative-Quattro_QQQ:10eV
FILENAME=hmdb_intermediate.mgf
SEQ=*..*
IONMODE=Negative
ORGANISM=HMDB
NAME=HMDB:HMDB01624-1663 2-Hydroxycaproic acid M-H
PI=HMDB
DATACOLLECTOR=HMDB
SMILES=CCCCC(O)C(O)=O
INCHI=InChI=1S/C6H12O3/c1-2-3-4-5(7)6(8)9/h5,7H,2-4H2,1H3,(H,8,9)
INCHIAUX=N/A
PUBMED=N/A
SUBMITUSER=mwang87
TAGS=
LIBRARYQUALITY=3
SPECTRUMID=CCMSLIB00000425247
SCANS=219
85.386 100.0 
131.262 84.713 
END IONS

BEGIN IONS
PEPMASS=245.234
CHARGE=1+
MSLEVEL=2
SOURCE_INSTRUMENT=Positive-Quattro_QQQ:10eV
FILENAME=hmdb_intermediate.mgf
SEQ=*..*
IONMODE=Positive
ORGANISM=HMDB
NAME=HMDB:HMDB01186-1454 N1-Acetylspermine M+H
PI=HMDB
DATACOLLECTOR=HMDB
SMILES=CC(=O)NCCCNCCCCNCCCN
INCHI=InChI=1S/C12H28N4O/c1-12(17)16-11-5-10-15-8-3-2-7-14-9-4-6-13/h14-15H,2-11,13H2,1H3,(H,16,17)
INCHIAUX=N/A
PUBMED=N/A
SUBMITUSER=mwang87
TAGS=
LIBRARYQUALITY=3
SPECTRUMID=CCMSLIB00000425248
SCANS=220
128.0 70.044 
170.0 76.99 
244.0 100.0 
END IONS

BEGIN IONS
PEPMASS=164.038
CHARGE=1+
MSLEVEL=2
SOURCE_INSTRUMENT=Positive-Quattro_QQQ:25eV
FILENAME=hmdb_intermediate.mgf
SEQ=*..*
IONMODE=Positive
ORGANISM=HMDB
NAME=HMDB:HMDB01890-1796 Acetylcysteine M+H
PI=HMDB
DATACOLLECTOR=HMDB
SMILES=CC(=O)N[C@@H](CS)C(O)=O
INCHI=InChI=1S/C5H9NO3S/c1-3(7)6-4(2-10)5(8)9/h4,10H,2H2,1H3,(H,6,7)(H,8,9)/t4-/m0/s1
INCHIAUX=N/A
PUBMED=N/A
SUBMITUSER=mwang87
TAGS=
LIBRARYQUALITY=3
SPECTRUMID=CCMSLIB00000425249
SCANS=221
76.091 100.0 
END IONS

BEGIN IONS
PEPMASS=181.071
CHARGE=1+
MSLEVEL=2
SOURCE_INSTRUMENT=Positive-Quattro_QQQ:40eV
FILENAME=hmdb_intermediate.mgf
SEQ=*..*
IONMODE=Positive
ORGANISM=HMDB
NAME=HMDB:HMDB03449-2318 Beta-D-Galactose M+H
PI=HMDB
DATACOLLECTOR=HMDB
SMILES=OC[C@H]1O[C@@H](O)[C@H](O)[C@@H](O)[C@H]1O
INCHI=InChI=1S/C6H12O6/c7-1-2-3(8)4(9)5(10)6(11)12-2/h2-11H,1H2/t2-,3+,4+,5-,6-/m1/s1
INCHIAUX=N/A
PUBMED=N/A
SUBMITUSER=mwang87
TAGS=
LIBRARYQUALITY=3
SPECTRUMID=CCMSLIB00000425250
SCANS=222
55.0 98.773 
63.0 60.374 
67.0 100.0 
68.0 72.844 
77.0 64.344 
END IONS

BEGIN IONS
PEPMASS=171.066
CHARGE=1+
MSLEVEL=2
SOURCE_INSTRUMENT=Positive-Quattro_QQQ:40eV
FILENAME=hmdb_intermediate.mgf
SEQ=*..*
IONMODE=Positive
ORGANISM=HMDB
NAME=HMDB:HMDB00318-533 3,4-Dihydroxyphenylglycol M+H
PI=HMDB
DATACOLLECTOR=HMDB
SMILES=OCC(O)C1=CC(O)=C(O)C=C1
INCHI=InChI=1S/C8H10O4/c9-4-8(12)5-1-2-6(10)7(11)3-5/h1-3,8-12H,4H2
INCHIAUX=N/A
PUBMED=N/A
SUBMITUSER=mwang87
TAGS=
LIBRARYQUALITY=3
SPECTRUMID=CCMSLIB00000425251
SCANS=223
54.924 63.889 
55.751 100.0 
56.563 94.444 
61.097 76.389 
61.698 66.667 
66.169 83.333 
76.705 52.778 
79.475 88.889 
88.645 50.0 
90.308 62.5 
140.494 51.389 
148.807 55.556 
END IONS

BEGIN IONS
PEPMASS=343.124
CHARGE=1+
MSLEVEL=2
SOURCE_INSTRUMENT=Positive-Quattro_QQQ:40eV
FILENAME=hmdb_intermediate.mgf
SEQ=*..*
IONMODE=Positive
ORGANISM=HMDB
NAME=HMDB:HMDB00186-294 Alpha-Lactose M+H
PI=HMDB
DATACOLLECTOR=HMDB
SMILES=OC[C@H]1O[C@@H](O[C@H]2[C@H](O)[C@@H](O)[C@@H](O)O[C@@H]2CO)[C@H](O)[C@@H](O)[C@H]1O
INCHI=InChI=1S/C12H22O11/c13-1-3-5(15)6(16)9(19)12(22-3)23-10-4(2-14)21-11(20)8(18)7(10)17/h3-20H,1-2H2/t3-,4-,5+,6+,7-,8-,9-,10-,11+,12+/m1/s1
INCHIAUX=N/A
PUBMED=N/A
SUBMITUSER=mwang87
TAGS=
LIBRARYQUALITY=3
SPECTRUMID=CCMSLIB00000425252
SCANS=224
61.187 71.233 
85.067 100.0 
END IONS

BEGIN IONS
PEPMASS=151.076
CHARGE=1+
MSLEVEL=2
SOURCE_INSTRUMENT=Positive-Quattro_QQQ:40eV
FILENAME=hmdb_intermediate.mgf
SEQ=*..*
IONMODE=Positive
ORGANISM=HMDB
NAME=HMDB:HMDB02097-2003 4-Ethylbenzoic acid M+H
PI=HMDB
DATACOLLECTOR=HMDB
SMILES=CCC1=CC=C(C=C1)C(O)=O
INCHI=InChI=1S/C9H10O2/c1-2-7-3-5-8(6-4-7)9(10)11/h3-6H,2H2,1H3,(H,10,11)
INCHIAUX=N/A
PUBMED=N/A
SUBMITUSER=mwang87
TAGS=
LIBRARYQUALITY=3
SPECTRUMID=CCMSLIB00000425253
SCANS=225
76.0 100.0 
END IONS

BEGIN IONS
PEPMASS=206.082
CHARGE=1+
MSLEVEL=2
SOURCE_INSTRUMENT=Positive-Quattro_QQQ:10eV
FILENAME=hmdb_intermediate.mgf
SEQ=*..*
IONMODE=Positive
ORGANISM=HMDB
NAME=HMDB:HMDB00671-924 Indolelactic acid M+H
PI=HMDB
DATACOLLECTOR=HMDB
SMILES=OC(CC1=CNC2=C1C=CC=C2)C(O)=O
INCHI=InChI=1S/C11H11NO3/c13-10(11(14)15)5-7-6-12-9-4-2-1-3-8(7)9/h1-4,6,10,12-13H,5H2,(H,14,15)
INCHIAUX=N/A
PUBMED=N/A
SUBMITUSER=mwang87
TAGS=
LIBRARYQUALITY=3
SPECTRUMID=CCMSLIB00000425254
SCANS=226
160.017 51.907 
187.987 54.237 
205.979 100.0 
END IONS

BEGIN IONS
PEPMASS=175.12
CHARGE=1+
MSLEVEL=2
SOURCE_INSTRUMENT=Positive-Quattro_QQQ:10eV
FILENAME=hmdb_intermediate.mgf
SEQ=*..*
IONMODE=Positive
ORGANISM=HMDB
NAME=HMDB:HMDB03416-2292 D-Arginine M+H
PI=HMDB
DATACOLLECTOR=HMDB
SMILES=N[C@H](CCCNC(N)=N)C(O)=O
INCHI=InChI=1S/C6H14N4O2/c7-4(5(11)12)2-1-3-10-6(8)9/h4H,1-3,7H2,(H,11,12)(H4,8,9,10)/t4-/m1/s1
INCHIAUX=N/A
PUBMED=N/A
SUBMITUSER=mwang87
TAGS=
LIBRARYQUALITY=3
SPECTRUMID=CCMSLIB00000425255
SCANS=227
174.908 100.0 
END IONS

BEGIN IONS
PEPMASS=255.232
CHARGE=1+
MSLEVEL=2
SOURCE_INSTRUMENT=Negative-Quattro_QQQ:10eV
FILENAME=hmdb_intermediate.mgf
SEQ=*..*
IONMODE=Negative
ORGANISM=HMDB
NAME=HMDB:HMDB00220-358 Palmitic acid M-H
PI=HMDB
DATACOLLECTOR=HMDB
SMILES=CCCCCCCCCCCCCCCC(O)=O
INCHI=InChI=1S/C16H32O2/c1-2-3-4-5-6-7-8-9-10-11-12-13-14-15-16(17)18/h2-15H2,1H3,(H,17,18)
INCHIAUX=N/A
PUBMED=N/A
SUBMITUSER=mwang87
TAGS=
LIBRARYQUALITY=3
SPECTRUMID=CCMSLIB00000425256
SCANS=228
255.143 100.0 
END IONS

BEGIN IONS
PEPMASS=176.067
CHARGE=1+
MSLEVEL=2
SOURCE_INSTRUMENT=Positive-Quattro_QQQ:40eV
FILENAME=hmdb_intermediate.mgf
SEQ=*..*
IONMODE=Positive
ORGANISM=HMDB
NAME=HMDB:HMDB03157-2208 Guanidinosuccinic acid M+H
PI=HMDB
DATACOLLECTOR=HMDB
SMILES=NC(=N)N[C@@H](CC(O)=O)C(O)=O
INCHI=InChI=1S/C5H9N3O4/c6-5(7)8-2(4(11)12)1-3(9)10/h2H,1H2,(H,9,10)(H,11,12)(H4,6,7,8)/t2-/m0/s1
INCHIAUX=N/A
PUBMED=N/A
SUBMITUSER=mwang87
TAGS=
LIBRARYQUALITY=3
SPECTRUMID=CCMSLIB00000425257
SCANS=229
43.0 100.0 
END IONS

BEGIN IONS
PEPMASS=369.373
CHARGE=1+
MSLEVEL=2
SOURCE_INSTRUMENT=Positive-Quattro_QQQ:10eV
FILENAME=hmdb_intermediate.mgf
SEQ=*..*
IONMODE=Positive
ORGANISM=HMDB
NAME=HMDB:HMDB02003-1938 Tetracosanoic acid M+H
PI=HMDB
DATACOLLECTOR=HMDB
SMILES=CCCCCCCCCCCCCCCCCCCCCCCC(O)=O
INCHI=InChI=1S/C24H48O2/c1-2-3-4-5-6-7-8-9-10-11-12-13-14-15-16-17-18-19-20-21-22-23-24(25)26/h2-23H2,1H3,(H,25,26)
INCHIAUX=N/A
PUBMED=N/A
SUBMITUSER=mwang87
TAGS=
LIBRARYQUALITY=3
SPECTRUMID=CCMSLIB00000425258
SCANS=230
177.0 69.401 
178.0 50.783 
368.0 79.876 
369.0 100.0 
END IONS

BEGIN IONS
PEPMASS=148.061
CHARGE=1+
MSLEVEL=2
SOURCE_INSTRUMENT=Positive-Quattro_QQQ:25eV
FILENAME=hmdb_intermediate.mgf
SEQ=*..*
IONMODE=Positive
ORGANISM=HMDB
NAME=HMDB:HMDB00148-222 L-Glutamic acid M+H
PI=HMDB
DATACOLLECTOR=HMDB
SMILES=N[C@@H](CCC(O)=O)C(O)=O
INCHI=InChI=1S/C5H9NO4/c6-3(5(9)10)1-2-4(7)8/h3H,1-2,6H2,(H,7,8)(H,9,10)/t3-/m0/s1
INCHIAUX=N/A
PUBMED=N/A
SUBMITUSER=mwang87
TAGS=
LIBRARYQUALITY=3
SPECTRUMID=CCMSLIB00000425259
SCANS=231
84.062 100.0 
END IONS

BEGIN IONS
PEPMASS=189.124
CHARGE=1+
MSLEVEL=2
SOURCE_INSTRUMENT=Positive-Quattro_QQQ:10eV
FILENAME=hmdb_intermediate.mgf
SEQ=*..*
IONMODE=Positive
ORGANISM=HMDB
NAME=HMDB:HMDB00446-650 N-Alpha-acetyllysine M+H
PI=HMDB
DATACOLLECTOR=HMDB
SMILES=CC(=O)NC(CCCCN)C(O)=O
INCHI=InChI=1S/C8H16N2O3/c1-6(11)10-7(8(12)13)4-2-3-5-9/h7H,2-5,9H2,1H3,(H,10,11)(H,12,13)
INCHIAUX=N/A
PUBMED=N/A
SUBMITUSER=mwang87
TAGS=
LIBRARYQUALITY=3
SPECTRUMID=CCMSLIB00000425260
SCANS=232
129.0 80.737 
189.0 100.0 
END IONS

BEGIN IONS
PEPMASS=138.055
CHARGE=1+
MSLEVEL=2
SOURCE_INSTRUMENT=Positive-Quattro_QQQ:10eV
FILENAME=hmdb_intermediate.mgf
SEQ=*..*
IONMODE=Positive
ORGANISM=HMDB
NAME=HMDB:HMDB00875-1235 Trigonelline M+H
PI=HMDB
DATACOLLECTOR=HMDB
SMILES=C[N+]1=CC(=CC=C1)C([O-])=O
INCHI=InChI=1S/C7H7NO2/c1-8-4-2-3-6(5-8)7(9)10/h2-5H,1H3
INCHIAUX=N/A
PUBMED=N/A
SUBMITUSER=mwang87
TAGS=
LIBRARYQUALITY=3
SPECTRUMID=CCMSLIB00000425261
SCANS=233
137.396 54.344 
137.645 98.56 
138.519 100.0 
END IONS

BEGIN IONS
PEPMASS=441.163
CHARGE=1+
MSLEVEL=2
SOURCE_INSTRUMENT=Positive-Quattro_QQQ:10eV
FILENAME=hmdb_intermediate.mgf
SEQ=*..*
IONMODE=Positive
ORGANISM=HMDB
NAME=HMDB:HMDB01833-1687 Aminopterin M+H
PI=HMDB
DATACOLLECTOR=HMDB
SMILES=NC1=NC2=C(N=C(CNC3=CC=C(C=C3)C(=O)NC(CCC(O)=O)C(O)=O)C=N2)C(N)=N1
INCHI=InChI=1S/C19H20N8O5/c20-15-14-16(27-19(21)26-15)23-8-11(24-14)7-22-10-3-1-9(2-4-10)17(30)25-12(18(31)32)5-6-13(28)29/h1-4,8,12,22H,5-7H2,(H,25,30)(H,28,29)(H,31,32)(H4,20,21,23,26,27)
INCHIAUX=N/A
PUBMED=N/A
SUBMITUSER=mwang87
TAGS=
LIBRARYQUALITY=3
SPECTRUMID=CCMSLIB00000425262
SCANS=234
440.0 100.0 
441.0 73.854 
END IONS

BEGIN IONS
PEPMASS=75.0446
CHARGE=1+
MSLEVEL=2
SOURCE_INSTRUMENT=Positive-Quattro_QQQ:40eV
FILENAME=hmdb_intermediate.mgf
SEQ=*..*
IONMODE=Positive
ORGANISM=HMDB
NAME=HMDB:HMDB00237-399 Propionic acid M+H
PI=HMDB
DATACOLLECTOR=HMDB
SMILES=CCC(O)=O
INCHI=InChI=1S/C3H6O2/c1-2-3(4)5/h2H2,1H3,(H,4,5)
INCHIAUX=N/A
PUBMED=N/A
SUBMITUSER=mwang87
TAGS=
LIBRARYQUALITY=3
SPECTRUMID=CCMSLIB00000425263
SCANS=235
15.0 84.97 
42.0 100.0 
43.0 63.745 
44.0 54.285 
74.0 62.85 
END IONS

BEGIN IONS
PEPMASS=181.073
CHARGE=1+
MSLEVEL=2
SOURCE_INSTRUMENT=Positive-Quattro_QQQ:40eV
FILENAME=hmdb_intermediate.mgf
SEQ=*..*
IONMODE=Positive
ORGANISM=HMDB
NAME=HMDB:HMDB02825-2145 Theobromine M+H
PI=HMDB
DATACOLLECTOR=HMDB
SMILES=CN1C=NC2=C1C(=O)NC(=O)N2C
INCHI=InChI=1S/C7H8N4O2/c1-10-3-8-5-4(10)6(12)9-7(13)11(5)2/h3H,1-2H3,(H,9,12,13)
INCHIAUX=N/A
PUBMED=N/A
SUBMITUSER=mwang87
TAGS=
LIBRARYQUALITY=3
SPECTRUMID=CCMSLIB00000425264
SCANS=236
42.15 86.731 
67.0 100.0 
END IONS

BEGIN IONS
PEPMASS=80.05
CHARGE=1+
MSLEVEL=2
SOURCE_INSTRUMENT=Positive-Quattro_QQQ:25eV
FILENAME=hmdb_intermediate.mgf
SEQ=*..*
IONMODE=Positive
ORGANISM=HMDB
NAME=HMDB:HMDB00926-1316 Pyridine M+H
PI=HMDB
DATACOLLECTOR=HMDB
SMILES=C1=CC=NC=C1
INCHI=InChI=1S/C5H5N/c1-2-4-6-5-3-1/h1-5H
INCHIAUX=N/A
PUBMED=N/A
SUBMITUSER=mwang87
TAGS=
LIBRARYQUALITY=3
SPECTRUMID=CCMSLIB00000425265
SCANS=237
53.235 86.567 
80.07 100.0 
END IONS

BEGIN IONS
PEPMASS=143.107
CHARGE=1+
MSLEVEL=2
SOURCE_INSTRUMENT=Positive-Quattro_QQQ:40eV
FILENAME=hmdb_intermediate.mgf
SEQ=*..*
IONMODE=Positive
ORGANISM=HMDB
NAME=HMDB:HMDB00392-599 2-Octenoic acid M+H
PI=HMDB
DATACOLLECTOR=HMDB
SMILES=CCCCC\C=C/C(O)=O
INCHI=InChI=1S/C8H14O2/c1-2-3-4-5-6-7-8(9)10/h6-7H,2-5H2,1H3,(H,9,10)/b7-6-
INCHIAUX=N/A
PUBMED=N/A
SUBMITUSER=mwang87
TAGS=
LIBRARYQUALITY=3
SPECTRUMID=CCMSLIB00000425266
SCANS=238
54.0 100.0 
END IONS

BEGIN IONS
PEPMASS=269.063
CHARGE=1+
MSLEVEL=2
SOURCE_INSTRUMENT=Positive-Quattro_QQQ:10eV
FILENAME=hmdb_intermediate.mgf
SEQ=*..*
IONMODE=Positive
ORGANISM=HMDB
NAME=HMDB:HMDB00676-936 L-Homocystine M+H
PI=HMDB
DATACOLLECTOR=HMDB
SMILES=NC(CCSSCC[C@H](N)C(O)=O)C(O)=O
INCHI=InChI=1S/C8H16N2O4S2/c9-5(7(11)12)1-3-15-16-4-2-6(10)8(13)14/h5-6H,1-4,9-10H2,(H,11,12)(H,13,14)/t5-,6?/m0/s1
INCHIAUX=N/A
PUBMED=N/A
SUBMITUSER=mwang87
TAGS=
LIBRARYQUALITY=3
SPECTRUMID=CCMSLIB00000425267
SCANS=239
135.0 100.0 
136.0 76.176 
END IONS

BEGIN IONS
PEPMASS=343.124
CHARGE=1+
MSLEVEL=2
SOURCE_INSTRUMENT=Positive-Quattro_QQQ:40eV
FILENAME=hmdb_intermediate.mgf
SEQ=*..*
IONMODE=Positive
ORGANISM=HMDB
NAME=HMDB:HMDB11740-2498 Turanose M+H
PI=HMDB
DATACOLLECTOR=HMDB
SMILES=OC[C@@H](O)[C@@H](O)[C@H](O[C@H]1O[C@H](CO)[C@@H](O)[C@H](O)[C@H]1O)C(=O)CO
INCHI=InChI=1S/C12H22O11/c13-1-4(16)7(18)11(5(17)2-14)23-12-10(21)9(20)8(19)6(3-15)22-12/h4,6-16,18-21H,1-3H2/t4-,6-,7-,8-,9+,10-,11-,12-/m1/s1
INCHIAUX=N/A
PUBMED=N/A
SUBMITUSER=mwang87
TAGS=
LIBRARYQUALITY=3
SPECTRUMID=CCMSLIB00000425268
SCANS=240
85.02 100.0 
97.02 72.9222572858 
127.02 53.4852554252 
END IONS

BEGIN IONS
PEPMASS=749.516
CHARGE=1+
MSLEVEL=2
SOURCE_INSTRUMENT=Positive-Quattro_QQQ:25eV
FILENAME=hmdb_intermediate.mgf
SEQ=*..*
IONMODE=Positive
ORGANISM=HMDB
NAME=HMDB:HMDB01916-1832 Azythromycin M+H
PI=HMDB
DATACOLLECTOR=HMDB
SMILES=CC[C@@H]1OC(=O)[C@H](C)[C@@H](O[C@@H]2C[C@](C)(OC)[C@H](O)[C@@H](C)O2)[C@@H](C)[C@H](O[C@H]2O[C@@H](C)C[C@H]([C@@H]2O)N(C)C)[C@@](C)(O)C[C@H](C)CN(C)[C@@H](C)[C@@H](O)[C@]1(C)O
INCHI=InChI=1S/C38H72N2O12/c1-15-27-38(10,46)31(42)24(6)40(13)19-20(2)17-36(8,45)33(52-35-29(41)26(39(11)12)16-21(3)48-35)22(4)30(23(5)34(44)50-27)51-28-18-37(9,47-14)32(43)25(7)49-28/h20-33,35,41-43,45-46H,15-19H2,1-14H3/t20-,21-,22+,23+,24-,25+,26+,27-,28+,29-,30-,31+,32+,33-,35+,36-,37-,38+/m0/s1
INCHIAUX=N/A
PUBMED=N/A
SUBMITUSER=mwang87
TAGS=
LIBRARYQUALITY=3
SPECTRUMID=CCMSLIB00000425269
SCANS=241
114.904 57.472 
157.591 62.001 
158.587 66.597 
591.23 100.0 
591.853 81.537 
748.756 50.289 
END IONS

BEGIN IONS
PEPMASS=166.087
CHARGE=1+
MSLEVEL=2
SOURCE_INSTRUMENT=Positive-Quattro_QQQ:25eV
FILENAME=hmdb_intermediate.mgf
SEQ=*..*
IONMODE=Positive
ORGANISM=HMDB
NAME=HMDB:HMDB04992-2428 Benzocaine M+H
PI=HMDB
DATACOLLECTOR=HMDB
SMILES=CCOC(=O)C1=CC=C(N)C=C1
INCHI=InChI=1S/C9H11NO2/c1-2-12-9(11)7-3-5-8(10)6-4-7/h3-6H,2,10H2,1H3
INCHIAUX=N/A
PUBMED=N/A
SUBMITUSER=mwang87
TAGS=
LIBRARYQUALITY=3
SPECTRUMID=CCMSLIB00000425270
SCANS=242
119.75 100.0 
END IONS

BEGIN IONS
PEPMASS=191.019
CHARGE=1+
MSLEVEL=2
SOURCE_INSTRUMENT=Negative-Quattro_QQQ:10eV
FILENAME=hmdb_intermediate.mgf
SEQ=*..*
IONMODE=Negative
ORGANISM=HMDB
NAME=HMDB:HMDB01874-1765 D-threo-Isocitric acid M-H
PI=HMDB
DATACOLLECTOR=HMDB
SMILES=O[C@H]([C@H](CC(O)=O)C(O)=O)C(O)=O
INCHI=InChI=1S/C6H8O7/c7-3(8)1-2(5(10)11)4(9)6(12)13/h2,4,9H,1H2,(H,7,8)(H,10,11)(H,12,13)/t2-,4+/m0/s1
INCHIAUX=N/A
PUBMED=N/A
SUBMITUSER=mwang87
TAGS=
LIBRARYQUALITY=3
SPECTRUMID=CCMSLIB00000425271
SCANS=243
151.426 50.12 
151.925 100.0 
END IONS

BEGIN IONS
PEPMASS=131.034
CHARGE=1+
MSLEVEL=2
SOURCE_INSTRUMENT=Positive-Quattro_QQQ:10eV
FILENAME=hmdb_intermediate.mgf
SEQ=*..*
IONMODE=Positive
ORGANISM=HMDB
NAME=HMDB:HMDB00749-1068 Mesaconic acid M+H
PI=HMDB
DATACOLLECTOR=HMDB
SMILES=C\C(=C/C(O)=O)C(O)=O
INCHI=InChI=1S/C5H6O4/c1-3(5(8)9)2-4(6)7/h2H,1H3,(H,6,7)(H,8,9)/b3-2+
INCHIAUX=N/A
PUBMED=N/A
SUBMITUSER=mwang87
TAGS=
LIBRARYQUALITY=3
SPECTRUMID=CCMSLIB00000425272
SCANS=244
85.0 100.0 
99.0 60.149 
END IONS

BEGIN IONS
PEPMASS=181.071
CHARGE=1+
MSLEVEL=2
SOURCE_INSTRUMENT=Positive-Quattro_QQQ:40eV
FILENAME=hmdb_intermediate.mgf
SEQ=*..*
IONMODE=Positive
ORGANISM=HMDB
NAME=HMDB:HMDB03345-2255 Alpha-D-Glucose M+H
PI=HMDB
DATACOLLECTOR=HMDB
SMILES=OC[C@H]1O[C@H](O)[C@H](O)[C@@H](O)[C@@H]1O
INCHI=InChI=1S/C6H12O6/c7-1-2-3(8)4(9)5(10)6(11)12-2/h2-11H,1H2/t2-,3-,4+,5-,6+/m1/s1
INCHIAUX=N/A
PUBMED=N/A
SUBMITUSER=mwang87
TAGS=
LIBRARYQUALITY=3
SPECTRUMID=CCMSLIB00000425273
SCANS=245
73.0 78.769 
85.0 100.0 
END IONS

BEGIN IONS
PEPMASS=162.972
CHARGE=1+
MSLEVEL=2
SOURCE_INSTRUMENT=Positive-Quattro_QQQ:40eV
FILENAME=hmdb_intermediate.mgf
SEQ=*..*
IONMODE=Positive
ORGANISM=HMDB
NAME=HMDB:HMDB04811-2402 2,4-Dichlorophenol M+H
PI=HMDB
DATACOLLECTOR=HMDB
SMILES=OC1=CC=C(Cl)C=C1Cl
INCHI=InChI=1S/C6H4Cl2O/c7-4-1-2-6(9)5(8)3-4/h1-3,9H
INCHIAUX=N/A
PUBMED=N/A
SUBMITUSER=mwang87
TAGS=
LIBRARYQUALITY=3
SPECTRUMID=CCMSLIB00000425274
SCANS=246
76.0 61.442 
77.0 100.0 
END IONS

BEGIN IONS
PEPMASS=335.064
CHARGE=1+
MSLEVEL=2
SOURCE_INSTRUMENT=Positive-Quattro_QQQ:40eV
FILENAME=hmdb_intermediate.mgf
SEQ=*..*
IONMODE=Positive
ORGANISM=HMDB
NAME=HMDB:HMDB00229-384 Nicotinamide ribotide M+H
PI=HMDB
DATACOLLECTOR=HMDB
SMILES=NC(=O)C1=CC=C[N+](=C1)[C@@H]1O[C@H](COP(O)([O-])=O)[C@@H](O)[C@H]1O
INCHI=InChI=1S/C11H15N2O8P/c12-10(16)6-2-1-3-13(4-6)11-9(15)8(14)7(21-11)5-20-22(17,18)19/h1-4,7-9,11,14-15H,5H2,(H3-,12,16,17,18,19)/t7-,8-,9-,11-/m1/s1
INCHIAUX=N/A
PUBMED=N/A
SUBMITUSER=mwang87
TAGS=
LIBRARYQUALITY=3
SPECTRUMID=CCMSLIB00000425275
SCANS=247
98.186 100.0 
116.854 68.078 
177.501 75.234 
END IONS

BEGIN IONS
PEPMASS=385.347
CHARGE=1+
MSLEVEL=2
SOURCE_INSTRUMENT=Positive-Quattro_QQQ:25eV
FILENAME=hmdb_intermediate.mgf
SEQ=*..*
IONMODE=Positive
ORGANISM=HMDB
NAME=HMDB:HMDB00921-1310 Cholestenone M+H
PI=HMDB
DATACOLLECTOR=HMDB
SMILES=[H][C@@]12CC[C@H]([C@H](C)CCCC(C)C)[C@@]1(C)CC[C@@]1([H])[C@@]2([H])CCC2=CC(=O)CC[C@]12C
INCHI=InChI=1S/C27H44O/c1-18(2)7-6-8-19(3)23-11-12-24-22-10-9-20-17-21(28)13-15-26(20,4)25(22)14-16-27(23,24)5/h17-19,22-25H,6-16H2,1-5H3/t19-,22+,23-,24+,25+,26+,27-/m1/s1
INCHIAUX=N/A
PUBMED=N/A
SUBMITUSER=mwang87
TAGS=
LIBRARYQUALITY=3
SPECTRUMID=CCMSLIB00000425276
SCANS=248
81.0 65.233 
97.0 52.05 
384.0 100.0 
END IONS

BEGIN IONS
PEPMASS=43.0058
CHARGE=1+
MSLEVEL=2
SOURCE_INSTRUMENT=Positive-Quattro_QQQ:25eV
FILENAME=hmdb_intermediate.mgf
SEQ=*..*
IONMODE=Positive
ORGANISM=HMDB
NAME=HMDB:HMDB02078-1988 Cyanate M+H
PI=HMDB
DATACOLLECTOR=HMDB
SMILES=[O-]C#N
INCHI=InChI=1S/CHNO/c2-1-3/h3H/p-1
INCHIAUX=N/A
PUBMED=N/A
SUBMITUSER=mwang87
TAGS=
LIBRARYQUALITY=3
SPECTRUMID=CCMSLIB00000425277
SCANS=249
43.0 100.0 
44.0 76.657 
END IONS

BEGIN IONS
PEPMASS=260.186
CHARGE=1+
MSLEVEL=2
SOURCE_INSTRUMENT=Positive-Quattro_QQQ:40eV
FILENAME=hmdb_intermediate.mgf
SEQ=*..*
IONMODE=Positive
ORGANISM=HMDB
NAME=HMDB:HMDB00756-1088 L-Hexanoylcarnitine M+H
PI=HMDB
DATACOLLECTOR=HMDB
SMILES=CCCCCC(=O)O[C@H](CC([O-])=O)C[N+](C)(C)C
INCHI=InChI=1S/C13H25NO4/c1-5-6-7-8-13(17)18-11(9-12(15)16)10-14(2,3)4/h11H,5-10H2,1-4H3/t11-/m1/s1
INCHIAUX=N/A
PUBMED=N/A
SUBMITUSER=mwang87
TAGS=
LIBRARYQUALITY=3
SPECTRUMID=CCMSLIB00000425278
SCANS=250
85.201 100.0 
END IONS

BEGIN IONS
PEPMASS=161.045
CHARGE=1+
MSLEVEL=2
SOURCE_INSTRUMENT=Negative-Quattro_QQQ:25eV
FILENAME=hmdb_intermediate.mgf
SEQ=*..*
IONMODE=Negative
ORGANISM=HMDB
NAME=HMDB:HMDB00321-535 2-Hydroxyadipic acid M-H
PI=HMDB
DATACOLLECTOR=HMDB
SMILES=OC(CCCC(O)=O)C(O)=O
INCHI=InChI=1S/C6H10O5/c7-4(6(10)11)2-1-3-5(8)9/h4,7H,1-3H2,(H,8,9)(H,10,11)
INCHIAUX=N/A
PUBMED=N/A
SUBMITUSER=mwang87
TAGS=
LIBRARYQUALITY=3
SPECTRUMID=CCMSLIB00000425279
SCANS=251
59.446 100.0 
71.415 89.474 
END IONS

BEGIN IONS
PEPMASS=365.233
CHARGE=1+
MSLEVEL=2
SOURCE_INSTRUMENT=Positive-Quattro_QQQ:40eV
FILENAME=hmdb_intermediate.mgf
SEQ=*..*
IONMODE=Positive
ORGANISM=HMDB
NAME=HMDB:HMDB00903-1285 Tetrahydrocortisone M+H
PI=HMDB
DATACOLLECTOR=HMDB
SMILES=[H][C@@]12CC[C@](O)(C(=O)CO)[C@@]1(C)CC(=O)[C@@]1([H])[C@@]2([H])CC[C@@]2([H])C[C@@H](O)CC[C@]12C
INCHI=InChI=1S/C21H32O5/c1-19-7-5-13(23)9-12(19)3-4-14-15-6-8-21(26,17(25)11-22)20(15,2)10-16(24)18(14)19/h12-15,18,22-23,26H,3-11H2,1-2H3/t12-,13-,14-,15-,18+,19-,20-,21-/m0/s1
INCHIAUX=N/A
PUBMED=N/A
SUBMITUSER=mwang87
TAGS=
LIBRARYQUALITY=3
SPECTRUMID=CCMSLIB00000425280
SCANS=252
67.384 59.028 
79.32 51.736 
81.315 90.278 
91.28 60.069 
93.277 100.0 
95.281 50.347 
105.232 76.736 
107.228 59.375 
121.182 59.375 
145.147 59.028 
159.144 60.069 
END IONS

BEGIN IONS
PEPMASS=289.067
CHARGE=1+
MSLEVEL=2
SOURCE_INSTRUMENT=Positive-Quattro_QQQ:10eV
FILENAME=hmdb_intermediate.mgf
SEQ=*..*
IONMODE=Positive
ORGANISM=HMDB
NAME=HMDB:HMDB00788-1125 Orotidine M+H
PI=HMDB
DATACOLLECTOR=HMDB
SMILES=OC[C@H]1O[C@H]([C@H](O)[C@@H]1O)N1C(=O)NC(=O)C=C1C(O)=O
INCHI=InChI=1S/C10H12N2O8/c13-2-4-6(15)7(16)8(20-4)12-3(9(17)18)1-5(14)11-10(12)19/h1,4,6-8,13,15-16H,2H2,(H,17,18)(H,11,14,19)/t4-,6-,7-,8-/m1/s1
INCHIAUX=N/A
PUBMED=N/A
SUBMITUSER=mwang87
TAGS=
LIBRARYQUALITY=3
SPECTRUMID=CCMSLIB00000425281
SCANS=253
72.3 77.8103139743 
77.9 53.4895070766 
99.7 91.6056612982 
150.1 99.934927607 
157.2 95.1033024239 
210.6 72.9949568895 
229.1 54.3517162844 
248.5 100.0 
END IONS

BEGIN IONS
PEPMASS=61.0653
CHARGE=1+
MSLEVEL=2
SOURCE_INSTRUMENT=Positive-Quattro_QQQ:25eV
FILENAME=hmdb_intermediate.mgf
SEQ=*..*
IONMODE=Positive
ORGANISM=HMDB
NAME=HMDB:HMDB00820-1168 Propyl alcohol M+H
PI=HMDB
DATACOLLECTOR=HMDB
SMILES=CCCO
INCHI=InChI=1S/C3H8O/c1-2-3-4/h4H,2-3H2,1H3
INCHIAUX=N/A
PUBMED=N/A
SUBMITUSER=mwang87
TAGS=
LIBRARYQUALITY=3
SPECTRUMID=CCMSLIB00000425282
SCANS=254
42.0 54.047 
43.0 60.249 
60.0 100.0 
61.0 56.956 
END IONS

BEGIN IONS
PEPMASS=291.232
CHARGE=1+
MSLEVEL=2
SOURCE_INSTRUMENT=Positive-Quattro_QQQ:10eV
FILENAME=hmdb_intermediate.mgf
SEQ=*..*
IONMODE=Positive
ORGANISM=HMDB
NAME=HMDB:HMDB00365-582 Epiandrosterone M+H
PI=HMDB
DATACOLLECTOR=HMDB
SMILES=[H][C@@]12CCC(=O)[C@@]1(C)CC[C@@]1([H])[C@@]2([H])CCC2C[C@@H](O)CC[C@]12C
INCHI=InChI=1S/C19H30O2/c1-18-9-7-13(20)11-12(18)3-4-14-15-5-6-17(21)19(15,2)10-8-16(14)18/h12-16,20H,3-11H2,1-2H3/t12?,13-,14-,15-,16-,18-,19-/m0/s1
INCHIAUX=N/A
PUBMED=N/A
SUBMITUSER=mwang87
TAGS=
LIBRARYQUALITY=3
SPECTRUMID=CCMSLIB00000425283
SCANS=255
255.112 60.156 
273.135 100.0 
END IONS

BEGIN IONS
PEPMASS=389.378
CHARGE=1+
MSLEVEL=2
SOURCE_INSTRUMENT=Positive-Quattro_QQQ:25eV
FILENAME=hmdb_intermediate.mgf
SEQ=*..*
IONMODE=Positive
ORGANISM=HMDB
NAME=HMDB:HMDB00908-1296 5alpha-Cholestanol M+H
PI=HMDB
DATACOLLECTOR=HMDB
SMILES=[H][C@@]1(CC[C@@]2([H])[C@]3([H])CC[C@@]4([H])C[C@@H](O)CC[C@]4(C)[C@@]3([H])CC[C@]12C)[C@H](C)CCCC(C)C
INCHI=InChI=1S/C27H48O/c1-18(2)7-6-8-19(3)23-11-12-24-22-10-9-20-17-21(28)13-15-26(20,4)25(22)14-16-27(23,24)5/h18-25,28H,6-17H2,1-5H3/t19-,20+,21+,22+,23-,24+,25+,26+,27-/m1/s1
INCHIAUX=N/A
PUBMED=N/A
SUBMITUSER=mwang87
TAGS=
LIBRARYQUALITY=3
SPECTRUMID=CCMSLIB00000425284
SCANS=256
46.0 100.0 
73.0 67.749 
89.0 95.326 
388.0 67.286 
END IONS

BEGIN IONS
PEPMASS=130.05
CHARGE=1+
MSLEVEL=2
SOURCE_INSTRUMENT=Positive-Quattro_QQQ:10eV
FILENAME=hmdb_intermediate.mgf
SEQ=*..*
IONMODE=Positive
ORGANISM=HMDB
NAME=HMDB:HMDB00267-463 Pyroglutamic acid M+H
PI=HMDB
DATACOLLECTOR=HMDB
SMILES=OC(=O)[C@@H]1CCC(=O)N1
INCHI=InChI=1S/C5H7NO3/c7-4-2-1-3(6-4)5(8)9/h3H,1-2H2,(H,6,7)(H,8,9)/t3-/m0/s1
INCHIAUX=N/A
PUBMED=N/A
SUBMITUSER=mwang87
TAGS=
LIBRARYQUALITY=3
SPECTRUMID=CCMSLIB00000425285
SCANS=257
84.106 100.0 
130.016 56.863 
END IONS

BEGIN IONS
PEPMASS=185.154
CHARGE=1+
MSLEVEL=2
SOURCE_INSTRUMENT=Negative-Quattro_QQQ:40eV
FILENAME=hmdb_intermediate.mgf
SEQ=*..*
IONMODE=Negative
ORGANISM=HMDB
NAME=HMDB:HMDB00947-1344 Undecanoic acid M-H
PI=HMDB
DATACOLLECTOR=HMDB
SMILES=CCCCCCCCCCC(O)=O
INCHI=InChI=1S/C11H22O2/c1-2-3-4-5-6-7-8-9-10-11(12)13/h2-10H2,1H3,(H,12,13)
INCHIAUX=N/A
PUBMED=N/A
SUBMITUSER=mwang87
TAGS=
LIBRARYQUALITY=3
SPECTRUMID=CCMSLIB00000425286
SCANS=258
185.115 100.0 
END IONS

BEGIN IONS
PEPMASS=87.0446
CHARGE=1+
MSLEVEL=2
SOURCE_INSTRUMENT=Positive-Quattro_QQQ:40eV
FILENAME=hmdb_intermediate.mgf
SEQ=*..*
IONMODE=Positive
ORGANISM=HMDB
NAME=HMDB:HMDB03407-2288 Diacetyl M+H
PI=HMDB
DATACOLLECTOR=HMDB
SMILES=CC(=O)C(C)=O
INCHI=InChI=1S/C4H6O2/c1-3(5)4(2)6/h1-2H3
INCHIAUX=N/A
PUBMED=N/A
SUBMITUSER=mwang87
TAGS=
LIBRARYQUALITY=3
SPECTRUMID=CCMSLIB00000425287
SCANS=259
48.0 69.214 
49.0 56.082 
56.0 63.144 
68.0 51.087 
69.0 74.293 
73.0 100.0 
82.0 54.685 
END IONS

BEGIN IONS
PEPMASS=377.306
CHARGE=1+
MSLEVEL=2
SOURCE_INSTRUMENT=Positive-Quattro_QQQ:40eV
FILENAME=hmdb_intermediate.mgf
SEQ=*..*
IONMODE=Positive
ORGANISM=HMDB
NAME=HMDB:HMDB00761-1094 Lithocholic acid M+H
PI=HMDB
DATACOLLECTOR=HMDB
SMILES=[H][C@@]12CC[C@H]([C@H](C)CCC(O)=O)[C@@]1(C)CC[C@@]1([H])[C@@]2([H])CCC2C[C@H](O)CC[C@]12C
INCHI=InChI=1S/C24H40O3/c1-15(4-9-22(26)27)19-7-8-20-18-6-5-16-14-17(25)10-12-23(16,2)21(18)11-13-24(19,20)3/h15-21,25H,4-14H2,1-3H3,(H,26,27)/t15-,16?,17-,18+,19-,20+,21+,23+,24-/m1/s1
INCHIAUX=N/A
PUBMED=N/A
SUBMITUSER=mwang87
TAGS=
LIBRARYQUALITY=3
SPECTRUMID=CCMSLIB00000425288
SCANS=260
183.0 100.0 
END IONS

BEGIN IONS
PEPMASS=227.103
CHARGE=1+
MSLEVEL=2
SOURCE_INSTRUMENT=Positive-Quattro_QQQ:10eV
FILENAME=hmdb_intermediate.mgf
SEQ=*..*
IONMODE=Positive
ORGANISM=HMDB
NAME=HMDB:HMDB00245-415 Porphobilinogen M+H
PI=HMDB
DATACOLLECTOR=HMDB
SMILES=NCC1=C(CC(O)=O)C(CCC(O)=O)=CN1
INCHI=InChI=1S/C10H14N2O4/c11-4-8-7(3-10(15)16)6(5-12-8)1-2-9(13)14/h5,12H,1-4,11H2,(H,13,14)(H,15,16)
INCHIAUX=N/A
PUBMED=N/A
SUBMITUSER=mwang87
TAGS=
LIBRARYQUALITY=3
SPECTRUMID=CCMSLIB00000425289
SCANS=261
209.973 100.0 
END IONS

BEGIN IONS
PEPMASS=178.05
CHARGE=1+
MSLEVEL=2
SOURCE_INSTRUMENT=Negative-Quattro_QQQ:10eV
FILENAME=hmdb_intermediate.mgf
SEQ=*..*
IONMODE=Negative
ORGANISM=HMDB
NAME=HMDB:HMDB00714-996 Hippuric acid M-H
PI=HMDB
DATACOLLECTOR=HMDB
SMILES=OC(=O)CNC(=O)C1=CC=CC=C1
INCHI=InChI=1S/C9H9NO3/c11-8(12)6-10-9(13)7-4-2-1-3-5-7/h1-5H,6H2,(H,10,13)(H,11,12)
INCHIAUX=N/A
PUBMED=N/A
SUBMITUSER=mwang87
TAGS=
LIBRARYQUALITY=3
SPECTRUMID=CCMSLIB00000425290
SCANS=262
133.989 61.905 
177.934 100.0 
END IONS

BEGIN IONS
PEPMASS=299.123
CHARGE=1+
MSLEVEL=2
SOURCE_INSTRUMENT=Positive-Quattro_QQQ:25eV
FILENAME=hmdb_intermediate.mgf
SEQ=*..*
IONMODE=Positive
ORGANISM=HMDB
NAME=HMDB:HMDB01107-1425 7-Methylguanosine M+H
PI=HMDB
DATACOLLECTOR=HMDB
SMILES=CN1C=[N+]([C@@H]2O[C@H](CO)[C@@H](O)[C@H]2O)C2=C1C(=O)N=C(N)N2
INCHI=InChI=1S/C11H15N5O5/c1-15-3-16(8-5(15)9(20)14-11(12)13-8)10-7(19)6(18)4(2-17)21-10/h3-4,6-7,10,17-19H,2H2,1H3,(H2-,12,13,14,20)/p+1/t4-,6-,7-,10-/m1/s1
INCHIAUX=N/A
PUBMED=N/A
SUBMITUSER=mwang87
TAGS=
LIBRARYQUALITY=3
SPECTRUMID=CCMSLIB00000425291
SCANS=263
165.973 100.0 
END IONS

BEGIN IONS
PEPMASS=153.128
CHARGE=1+
MSLEVEL=2
SOURCE_INSTRUMENT=Positive-Quattro_QQQ:40eV
FILENAME=hmdb_intermediate.mgf
SEQ=*..*
IONMODE=Positive
ORGANISM=HMDB
NAME=HMDB:HMDB03634-2336 Perillyl alcohol M+H
PI=HMDB
DATACOLLECTOR=HMDB
SMILES=CC(=C)C1CCC(CO)=CC1
INCHI=InChI=1S/C10H16O/c1-8(2)10-5-3-9(7-11)4-6-10/h3,10-11H,1,4-7H2,2H3
INCHIAUX=N/A
PUBMED=N/A
SUBMITUSER=mwang87
TAGS=
LIBRARYQUALITY=3
SPECTRUMID=CCMSLIB00000425292
SCANS=264
45.0 74.481 
59.0 100.0 
61.0 78.521 
77.0 60.798 
END IONS

BEGIN IONS
PEPMASS=183.066
CHARGE=1+
MSLEVEL=2
SOURCE_INSTRUMENT=Positive-Quattro_QQQ:25eV
FILENAME=hmdb_intermediate.mgf
SEQ=*..*
IONMODE=Positive
ORGANISM=HMDB
NAME=HMDB:HMDB00755-1084 Hydroxyphenyllactic acid M+H
PI=HMDB
DATACOLLECTOR=HMDB
SMILES=OC(CC1=CC=C(O)C=C1)C(O)=O
INCHI=InChI=1S/C9H10O4/c10-7-3-1-6(2-4-7)5-8(11)9(12)13/h1-4,8,10-11H,5H2,(H,12,13)
INCHIAUX=N/A
PUBMED=N/A
SUBMITUSER=mwang87
TAGS=
LIBRARYQUALITY=3
SPECTRUMID=CCMSLIB00000425293
SCANS=265
58.702 52.499 
76.993 94.439 
91.753 53.749 
95.664 100.0 
97.808 78.194 
END IONS

BEGIN IONS
PEPMASS=131.034
CHARGE=1+
MSLEVEL=2
SOURCE_INSTRUMENT=Negative-Quattro_QQQ:10eV
FILENAME=hmdb_intermediate.mgf
SEQ=*..*
IONMODE=Negative
ORGANISM=HMDB
NAME=HMDB:HMDB00622-843 Ethylmalonic acid M-H
PI=HMDB
DATACOLLECTOR=HMDB
SMILES=CCC(C(O)=O)C(O)=O
INCHI=InChI=1S/C5H8O4/c1-2-3(4(6)7)5(8)9/h3H,2H2,1H3,(H,6,7)(H,8,9)
INCHIAUX=N/A
PUBMED=N/A
SUBMITUSER=mwang87
TAGS=
LIBRARYQUALITY=3
SPECTRUMID=CCMSLIB00000425294
SCANS=266
41.673 100.0 
87.374 100.0 
END IONS

BEGIN IONS
PEPMASS=91.0395
CHARGE=1+
MSLEVEL=2
SOURCE_INSTRUMENT=Positive-Quattro_QQQ:10eV
FILENAME=hmdb_intermediate.mgf
SEQ=*..*
IONMODE=Positive
ORGANISM=HMDB
NAME=HMDB:HMDB01051-1403 Glyceraldehyde M+H
PI=HMDB
DATACOLLECTOR=HMDB
SMILES=OCC(O)C=O
INCHI=InChI=1S/C3H6O3/c4-1-3(6)2-5/h1,3,5-6H,2H2
INCHIAUX=N/A
PUBMED=N/A
SUBMITUSER=mwang87
TAGS=
LIBRARYQUALITY=3
SPECTRUMID=CCMSLIB00000425295
SCANS=267
61.117 100.0 
END IONS

BEGIN IONS
PEPMASS=112.04
CHARGE=1+
MSLEVEL=2
SOURCE_INSTRUMENT=Positive-Quattro_QQQ:25eV
FILENAME=hmdb_intermediate.mgf
SEQ=*..*
IONMODE=Positive
ORGANISM=HMDB
NAME=HMDB:HMDB04230-2377 Pyrrole-2-carboxylic acid M+H
PI=HMDB
DATACOLLECTOR=HMDB
SMILES=OC(=O)C1=CC=CN1
INCHI=InChI=1S/C5H5NO2/c7-5(8)4-2-1-3-6-4/h1-3,6H,(H,7,8)
INCHIAUX=N/A
PUBMED=N/A
SUBMITUSER=mwang87
TAGS=
LIBRARYQUALITY=3
SPECTRUMID=CCMSLIB00000425296
SCANS=268
41.157 75.98 
66.007 100.0 
END IONS

BEGIN IONS
PEPMASS=397.405
CHARGE=1+
MSLEVEL=2
SOURCE_INSTRUMENT=Positive-Quattro_QQQ:40eV
FILENAME=hmdb_intermediate.mgf
SEQ=*..*
IONMODE=Positive
ORGANISM=HMDB
NAME=HMDB:HMDB02356-2078 Hexacosanoic acid M+H
PI=HMDB
DATACOLLECTOR=HMDB
SMILES=CCCCCCCCCCCCCCCCCCCCCCCCCC(O)=O
INCHI=InChI=1S/C26H52O2/c1-2-3-4-5-6-7-8-9-10-11-12-13-14-15-16-17-18-19-20-21-22-23-24-25-26(27)28/h2-25H2,1H3,(H,27,28)
INCHIAUX=N/A
PUBMED=N/A
SUBMITUSER=mwang87
TAGS=
LIBRARYQUALITY=3
SPECTRUMID=CCMSLIB00000425297
SCANS=269
82.51 71.566 
252.19 100.0 
310.57 75.02 
END IONS

BEGIN IONS
PEPMASS=159.139
CHARGE=1+
MSLEVEL=2
SOURCE_INSTRUMENT=Positive-Quattro_QQQ:10eV
FILENAME=hmdb_intermediate.mgf
SEQ=*..*
IONMODE=Positive
ORGANISM=HMDB
NAME=HMDB:HMDB00798-1135 Oenanthic ether M+H
PI=HMDB
DATACOLLECTOR=HMDB
SMILES=CCCCCCC(=O)OCC
INCHI=InChI=1S/C9H18O2/c1-3-5-6-7-8-9(10)11-4-2/h3-8H2,1-2H3
INCHIAUX=N/A
PUBMED=N/A
SUBMITUSER=mwang87
TAGS=
LIBRARYQUALITY=3
SPECTRUMID=CCMSLIB00000425298
SCANS=270
78.0 93.629 
80.0 100.0 
END IONS

BEGIN IONS
PEPMASS=331.227
CHARGE=1+
MSLEVEL=2
SOURCE_INSTRUMENT=Positive-Quattro_QQQ:40eV
FILENAME=hmdb_intermediate.mgf
SEQ=*..*
IONMODE=Positive
ORGANISM=HMDB
NAME=HMDB:HMDB00016-30 Deoxycorticosterone M+H
PI=HMDB
DATACOLLECTOR=HMDB
SMILES=[H][C@@]12CC[C@H](C(=O)CO)[C@@]1(C)CC[C@@]1([H])[C@@]2([H])CCC2=CC(=O)CC[C@]12C
INCHI=InChI=1S/C21H30O3/c1-20-9-7-14(23)11-13(20)3-4-15-16-5-6-18(19(24)12-22)21(16,2)10-8-17(15)20/h11,15-18,22H,3-10,12H2,1-2H3/t15-,16-,17-,18+,20-,21-/m0/s1
INCHIAUX=N/A
PUBMED=N/A
SUBMITUSER=mwang87
TAGS=
LIBRARYQUALITY=3
SPECTRUMID=CCMSLIB00000425299
SCANS=271
97.226 100.0 
109.173 93.913 
END IONS

BEGIN IONS
PEPMASS=155.009
CHARGE=1+
MSLEVEL=2
SOURCE_INSTRUMENT=Negative-Quattro_QQQ:25eV
FILENAME=hmdb_intermediate.mgf
SEQ=*..*
IONMODE=Negative
ORGANISM=HMDB
NAME=HMDB:HMDB00226-374 Orotic acid M-H
PI=HMDB
DATACOLLECTOR=HMDB
SMILES=OC(=O)C1=CC(=O)NC(=O)N1
INCHI=InChI=1S/C5H4N2O4/c8-3-1-2(4(9)10)6-5(11)7-3/h1H,(H,9,10)(H2,6,7,8,11)
INCHIAUX=N/A
PUBMED=N/A
SUBMITUSER=mwang87
TAGS=
LIBRARYQUALITY=3
SPECTRUMID=CCMSLIB00000425300
SCANS=272
42.31 100.0 
110.928 51.515 
END IONS

BEGIN IONS
PEPMASS=211.082
CHARGE=1+
MSLEVEL=2
SOURCE_INSTRUMENT=Positive-Quattro_QQQ:10eV
FILENAME=hmdb_intermediate.mgf
SEQ=*..*
IONMODE=Positive
ORGANISM=HMDB
NAME=HMDB:HMDB03219-2212 Sedoheptulose M+H
PI=HMDB
DATACOLLECTOR=HMDB
SMILES=OCC(O)C(O)C(O)C(O)C(=O)CO
INCHI=InChI=1S/C7H14O7/c8-1-3(10)5(12)7(14)6(13)4(11)2-9/h3,5-10,12-14H,1-2H2
INCHIAUX=N/A
PUBMED=N/A
SUBMITUSER=mwang87
TAGS=
LIBRARYQUALITY=3
SPECTRUMID=CCMSLIB00000425301
SCANS=273
211.0 100.0 
END IONS

BEGIN IONS
PEPMASS=313.217
CHARGE=1+
MSLEVEL=2
SOURCE_INSTRUMENT=Positive-Quattro_QQQ:10eV
FILENAME=hmdb_intermediate.mgf
SEQ=*..*
IONMODE=Positive
ORGANISM=HMDB
NAME=HMDB:HMDB00995-1384 16-Dehydroprogesterone M+H
PI=HMDB
DATACOLLECTOR=HMDB
SMILES=[H][C@@]12CC=C(C(C)=O)[C@@]1(C)CC[C@@]1([H])[C@@]2([H])CCC2=CC(=O)CC[C@]12C
INCHI=InChI=1S/C21H28O2/c1-13(22)17-6-7-18-16-5-4-14-12-15(23)8-10-20(14,2)19(16)9-11-21(17,18)3/h6,12,16,18-19H,4-5,7-11H2,1-3H3/t16-,18-,19-,20-,21+/m0/s1
INCHIAUX=N/A
PUBMED=N/A
SUBMITUSER=mwang87
TAGS=
LIBRARYQUALITY=3
SPECTRUMID=CCMSLIB00000425302
SCANS=274
313.258 100.0 
END IONS

BEGIN IONS
PEPMASS=173.154
CHARGE=1+
MSLEVEL=2
SOURCE_INSTRUMENT=Positive-Quattro_QQQ:40eV
FILENAME=hmdb_intermediate.mgf
SEQ=*..*
IONMODE=Positive
ORGANISM=HMDB
NAME=HMDB:HMDB00511-736 Capric acid M+H
PI=HMDB
DATACOLLECTOR=HMDB
SMILES=CCCCCCCCCC(O)=O
INCHI=InChI=1S/C10H20O2/c1-2-3-4-5-6-7-8-9-10(11)12/h2-9H2,1H3,(H,11,12)
INCHIAUX=N/A
PUBMED=N/A
SUBMITUSER=mwang87
TAGS=
LIBRARYQUALITY=3
SPECTRUMID=CCMSLIB00000425303
SCANS=275
97.08 52.6161134922 
125.1 100.0 
END IONS

BEGIN IONS
PEPMASS=203.224
CHARGE=1+
MSLEVEL=2
SOURCE_INSTRUMENT=Positive-Quattro_QQQ:40eV
FILENAME=hmdb_intermediate.mgf
SEQ=*..*
IONMODE=Positive
ORGANISM=HMDB
NAME=HMDB:HMDB01256-1489 Spermine M+H
PI=HMDB
DATACOLLECTOR=HMDB
SMILES=NCCCNCCCCNCCCN
INCHI=InChI=1S/C10H26N4/c11-5-3-9-13-7-1-2-8-14-10-4-6-12/h13-14H,1-12H2
INCHIAUX=N/A
PUBMED=N/A
SUBMITUSER=mwang87
TAGS=
LIBRARYQUALITY=3
SPECTRUMID=CCMSLIB00000425304
SCANS=276
84.414 100.0 
84.663 71.026 
END IONS

BEGIN IONS
PEPMASS=288.217
CHARGE=1+
MSLEVEL=2
SOURCE_INSTRUMENT=Positive-Quattro_QQQ:40eV
FILENAME=hmdb_intermediate.mgf
SEQ=*..*
IONMODE=Positive
ORGANISM=HMDB
NAME=HMDB:HMDB00791-1128 L-Octanoylcarnitine M+H
PI=HMDB
DATACOLLECTOR=HMDB
SMILES=CCCCCCCC(=O)O[C@H](CC([O-])=O)C[N+](C)(C)C
INCHI=InChI=1S/C15H29NO4/c1-5-6-7-8-9-10-15(19)20-13(11-14(17)18)12-16(2,3)4/h13H,5-12H2,1-4H3/t13-/m1/s1
INCHIAUX=N/A
PUBMED=N/A
SUBMITUSER=mwang87
TAGS=
LIBRARYQUALITY=3
SPECTRUMID=CCMSLIB00000425305
SCANS=277
85.22 100.0 
END IONS

BEGIN IONS
PEPMASS=308.111
CHARGE=1+
MSLEVEL=2
SOURCE_INSTRUMENT=Positive-Quattro_QQQ:40eV
FILENAME=hmdb_intermediate.mgf
SEQ=*..*
IONMODE=Positive
ORGANISM=HMDB
NAME=HMDB:HMDB05005-2438 Tolnaftate M+H
PI=HMDB
DATACOLLECTOR=HMDB
SMILES=CN(C(=S)OC1=CC2=CC=CC=C2C=C1)C1=CC=CC(C)=C1
INCHI=InChI=1S/C19H17NOS/c1-14-6-5-9-17(12-14)20(2)19(22)21-18-11-10-15-7-3-4-8-16(15)13-18/h3-13H,1-2H3
INCHIAUX=N/A
PUBMED=N/A
SUBMITUSER=mwang87
TAGS=
LIBRARYQUALITY=3
SPECTRUMID=CCMSLIB00000425306
SCANS=278
90.0 100.0 
119.0 69.931 
END IONS

BEGIN IONS
PEPMASS=109.065
CHARGE=1+
MSLEVEL=2
SOURCE_INSTRUMENT=Positive-Quattro_QQQ:40eV
FILENAME=hmdb_intermediate.mgf
SEQ=*..*
IONMODE=Positive
ORGANISM=HMDB
NAME=HMDB:HMDB02048-1970 m-Cresol M+H
PI=HMDB
DATACOLLECTOR=HMDB
SMILES=CC1=CC(O)=CC=C1
INCHI=InChI=1S/C7H8O/c1-6-3-2-4-7(8)5-6/h2-5,8H,1H3
INCHIAUX=N/A
PUBMED=N/A
SUBMITUSER=mwang87
TAGS=
LIBRARYQUALITY=3
SPECTRUMID=CCMSLIB00000425307
SCANS=279
39.0 76.808 
65.0 100.0 
66.0 61.691 
END IONS

BEGIN IONS
PEPMASS=185.082
CHARGE=1+
MSLEVEL=2
SOURCE_INSTRUMENT=Positive-Quattro_QQQ:10eV
FILENAME=hmdb_intermediate.mgf
SEQ=*..*
IONMODE=Positive
ORGANISM=HMDB
NAME=HMDB:HMDB01565-1651 Phosphorylcholine M+H
PI=HMDB
DATACOLLECTOR=HMDB
SMILES=C[N+](C)(C)CCOP(O)(O)=O
INCHI=InChI=1S/C5H14NO4P/c1-6(2,3)4-5-10-11(7,8)9/h4-5H2,1-3H3,(H-,7,8,9)/p+1
INCHIAUX=N/A
PUBMED=N/A
SUBMITUSER=mwang87
TAGS=
LIBRARYQUALITY=3
SPECTRUMID=CCMSLIB00000425308
SCANS=280
185.0 100.0 
END IONS

BEGIN IONS
PEPMASS=303.05
CHARGE=1+
MSLEVEL=2
SOURCE_INSTRUMENT=Positive-Quattro_QQQ:10eV
FILENAME=hmdb_intermediate.mgf
SEQ=*..*
IONMODE=Positive
ORGANISM=HMDB
NAME=HMDB:HMDB05794-2445 Quercetin M+H
PI=HMDB
DATACOLLECTOR=HMDB
SMILES=OC1=CC(O)=C2C(OC(=C(O)C2=O)C2=CC(O)=C(O)C=C2)=C1
INCHI=InChI=1S/C15H10O7/c16-7-4-10(19)12-11(5-7)22-15(14(21)13(12)20)6-1-2-8(17)9(18)3-6/h1-5,16-19,21H
INCHIAUX=N/A
PUBMED=N/A
SUBMITUSER=mwang87
TAGS=
LIBRARYQUALITY=3
SPECTRUMID=CCMSLIB00000425309
SCANS=281
302.0 100.0 
END IONS

BEGIN IONS
PEPMASS=122.061
CHARGE=1+
MSLEVEL=2
SOURCE_INSTRUMENT=Positive-Quattro_QQQ:10eV
FILENAME=hmdb_intermediate.mgf
SEQ=*..*
IONMODE=Positive
ORGANISM=HMDB
NAME=HMDB:HMDB04461-2388 Benzamide M+H
PI=HMDB
DATACOLLECTOR=HMDB
SMILES=NC(=O)C1=CC=CC=C1
INCHI=InChI=1S/C7H7NO/c8-7(9)6-4-2-1-3-5-6/h1-5H,(H2,8,9)
INCHIAUX=N/A
PUBMED=N/A
SUBMITUSER=mwang87
TAGS=
LIBRARYQUALITY=3
SPECTRUMID=CCMSLIB00000425310
SCANS=282
78.95 50.827 
121.86 100.0 
END IONS

BEGIN IONS
PEPMASS=165.076
CHARGE=1+
MSLEVEL=2
SOURCE_INSTRUMENT=Positive-Quattro_QQQ:10eV
FILENAME=hmdb_intermediate.mgf
SEQ=*..*
IONMODE=Positive
ORGANISM=HMDB
NAME=HMDB:HMDB00174-274 L-Fucose M+H
PI=HMDB
DATACOLLECTOR=HMDB
SMILES=C[C@@H]1OC(O)[C@@H](O)[C@H](O)[C@@H]1O
INCHI=InChI=1S/C6H12O5/c1-2-3(7)4(8)5(9)6(10)11-2/h2-10H,1H3/t2-,3+,4+,5-,6?/m0/s1
INCHIAUX=N/A
PUBMED=N/A
SUBMITUSER=mwang87
TAGS=
LIBRARYQUALITY=3
SPECTRUMID=CCMSLIB00000425311
SCANS=283
101.0 100.0 
123.0 60.747 
165.0 91.781 
END IONS

BEGIN IONS
PEPMASS=227.067
CHARGE=1+
MSLEVEL=2
SOURCE_INSTRUMENT=Positive-Quattro_QQQ:25eV
FILENAME=hmdb_intermediate.mgf
SEQ=*..*
IONMODE=Positive
ORGANISM=HMDB
NAME=HMDB:HMDB01904-1823 3-Nitrotyrosine M+H
PI=HMDB
DATACOLLECTOR=HMDB
SMILES=N[C@@H](CC1=CC(=C(O)C=C1)[N+]([O-])=O)C(O)=O
INCHI=InChI=1S/C9H10N2O5/c10-6(9(13)14)3-5-1-2-8(12)7(4-5)11(15)16/h1-2,4,6,12H,3,10H2,(H,13,14)/t6-/m0/s1
INCHIAUX=N/A
PUBMED=N/A
SUBMITUSER=mwang87
TAGS=
LIBRARYQUALITY=3
SPECTRUMID=CCMSLIB00000425312
SCANS=284
89.0 75.33 
105.0 78.678 
116.0 100.0 
180.0 79.992 
END IONS

BEGIN IONS
PEPMASS=786.601
CHARGE=1+
MSLEVEL=2
SOURCE_INSTRUMENT=Positive-Quattro_QQQ:10eV
FILENAME=hmdb_intermediate.mgf
SEQ=*..*
IONMODE=Positive
ORGANISM=HMDB
NAME=HMDB:HMDB00593-819 PC(18:1(9Z)/18:1(9Z))  M+H
PI=HMDB
DATACOLLECTOR=HMDB
SMILES=CCCCCCCC\C=C/CCCCCCCC(=O)OCC(COP([O-])(=O)OCC[N+](C)(C)C)OC(=O)CCCCCCC\C=C/CCCCCCCC
INCHI=InChI=1S/C44H84NO8P/c1-6-8-10-12-14-16-18-20-22-24-26-28-30-32-34-36-43(46)50-40-42(41-52-54(48,49)51-39-38-45(3,4)5)53-44(47)37-35-33-31-29-27-25-23-21-19-17-15-13-11-9-7-2/h20-23,42H,6-19,24-41H2,1-5H3/b22-20-,23-21-
INCHIAUX=N/A
PUBMED=N/A
SUBMITUSER=mwang87
TAGS=
LIBRARYQUALITY=3
SPECTRUMID=CCMSLIB00000425313
SCANS=285
786.0 100.0 
787.0 68.468 
END IONS

BEGIN IONS
PEPMASS=168.03
CHARGE=1+
MSLEVEL=2
SOURCE_INSTRUMENT=Positive-Quattro_QQQ:10eV
FILENAME=hmdb_intermediate.mgf
SEQ=*..*
IONMODE=Positive
ORGANISM=HMDB
NAME=HMDB:HMDB00232-388 Quinolinic acid M+H
PI=HMDB
DATACOLLECTOR=HMDB
SMILES=OC(=O)C1=CC=CN=C1C(O)=O
INCHI=InChI=1S/C7H5NO4/c9-6(10)4-2-1-3-8-5(4)7(11)12/h1-3H,(H,9,10)(H,11,12)
INCHIAUX=N/A
PUBMED=N/A
SUBMITUSER=mwang87
TAGS=
LIBRARYQUALITY=3
SPECTRUMID=CCMSLIB00000425314
SCANS=286
149.951 100.0 
END IONS

BEGIN IONS
PEPMASS=145.05
CHARGE=1+
MSLEVEL=2
SOURCE_INSTRUMENT=Positive-Quattro_QQQ:40eV
FILENAME=hmdb_intermediate.mgf
SEQ=*..*
IONMODE=Positive
ORGANISM=HMDB
NAME=HMDB:HMDB00393-602 3-Hexenedioic acid M+H
PI=HMDB
DATACOLLECTOR=HMDB
SMILES=OC(=O)C\C=C\CC(O)=O
INCHI=InChI=1S/C6H8O4/c7-5(8)3-1-2-4-6(9)10/h1-2H,3-4H2,(H,7,8)(H,9,10)/b2-1+
INCHIAUX=N/A
PUBMED=N/A
SUBMITUSER=mwang87
TAGS=
LIBRARYQUALITY=3
SPECTRUMID=CCMSLIB00000425315
SCANS=287
57.0 100.0 
END IONS

BEGIN IONS
PEPMASS=260.165
CHARGE=1+
MSLEVEL=2
SOURCE_INSTRUMENT=Positive-Quattro_QQQ:25eV
FILENAME=hmdb_intermediate.mgf
SEQ=*..*
IONMODE=Positive
ORGANISM=HMDB
NAME=HMDB:HMDB01849-1709 Propranolol M+H
PI=HMDB
DATACOLLECTOR=HMDB
SMILES=CC(C)NCC(O)COC1=CC=CC2=CC=CC=C12
INCHI=InChI=1S/C16H21NO2/c1-12(2)17-10-14(18)11-19-16-9-5-7-13-6-3-4-8-15(13)16/h3-9,12,14,17-18H,10-11H2,1-2H3
INCHIAUX=N/A
PUBMED=N/A
SUBMITUSER=mwang87
TAGS=
LIBRARYQUALITY=3
SPECTRUMID=CCMSLIB00000425316
SCANS=288
56.199 100.0 
56.572 67.168 
58.56 54.993 
71.857 76.718 
72.602 50.245 
74.093 98.17 
74.59 54.136 
END IONS

BEGIN IONS
PEPMASS=181.071
CHARGE=1+
MSLEVEL=2
SOURCE_INSTRUMENT=Positive-Quattro_QQQ:40eV
FILENAME=hmdb_intermediate.mgf
SEQ=*..*
IONMODE=Positive
ORGANISM=HMDB
NAME=HMDB:HMDB06088-2471 Scyllitol M+H
PI=HMDB
DATACOLLECTOR=HMDB
SMILES=O[C@H]1[C@H](O)[C@@H](O)[C@@H](O)[C@@H](O)[C@H]1O
INCHI=InChI=1S/C6H12O6/c7-1-2(8)4(10)6(12)5(11)3(1)9/h1-12H/t1-,2-,3-,4+,5-,6+
INCHIAUX=N/A
PUBMED=N/A
SUBMITUSER=mwang87
TAGS=
LIBRARYQUALITY=3
SPECTRUMID=CCMSLIB00000425317
SCANS=289
55.0 100.0 
57.78 52.852 
98.46 60.459 
98.8 84.074 
END IONS

BEGIN IONS
PEPMASS=61.0653
CHARGE=1+
MSLEVEL=2
SOURCE_INSTRUMENT=Positive-Quattro_QQQ:40eV
FILENAME=hmdb_intermediate.mgf
SEQ=*..*
IONMODE=Positive
ORGANISM=HMDB
NAME=HMDB:HMDB00820-1169 Propyl alcohol M+H
PI=HMDB
DATACOLLECTOR=HMDB
SMILES=CCCO
INCHI=InChI=1S/C3H8O/c1-2-3-4/h4H,2-3H2,1H3
INCHIAUX=N/A
PUBMED=N/A
SUBMITUSER=mwang87
TAGS=
LIBRARYQUALITY=3
SPECTRUMID=CCMSLIB00000425318
SCANS=290
15.0 51.943 
60.0 100.0 
61.0 58.936 
END IONS

BEGIN IONS
PEPMASS=232.155
CHARGE=1+
MSLEVEL=2
SOURCE_INSTRUMENT=Positive-Quattro_QQQ:40eV
FILENAME=hmdb_intermediate.mgf
SEQ=*..*
IONMODE=Positive
ORGANISM=HMDB
NAME=HMDB:HMDB00736-1046 Isobutyryl-L-carnitine M+H
PI=HMDB
DATACOLLECTOR=HMDB
SMILES=CC(C)C(=O)OC(CC([O-])=O)C[N+](C)(C)C
INCHI=InChI=1S/C11H21NO4/c1-8(2)11(15)16-9(6-10(13)14)7-12(3,4)5/h8-9H,6-7H2,1-5H3
INCHIAUX=N/A
PUBMED=N/A
SUBMITUSER=mwang87
TAGS=
LIBRARYQUALITY=3
SPECTRUMID=CCMSLIB00000425319
SCANS=291
84.0 100.0 
END IONS

BEGIN IONS
PEPMASS=181.071
CHARGE=1+
MSLEVEL=2
SOURCE_INSTRUMENT=Positive-Quattro_QQQ:25eV
FILENAME=hmdb_intermediate.mgf
SEQ=*..*
IONMODE=Positive
ORGANISM=HMDB
NAME=HMDB:HMDB00169-270 D-Mannose M+H
PI=HMDB
DATACOLLECTOR=HMDB
SMILES=OC[C@H]1OC(O)[C@@H](O)[C@@H](O)[C@@H]1O
INCHI=InChI=1S/C6H12O6/c7-1-2-3(8)4(9)5(10)6(11)12-2/h2-11H,1H2/t2-,3-,4+,5+,6?/m1/s1
INCHIAUX=N/A
PUBMED=N/A
SUBMITUSER=mwang87
TAGS=
LIBRARYQUALITY=3
SPECTRUMID=CCMSLIB00000425320
SCANS=292
69.133 65.049 
85.059 100.0 
END IONS

BEGIN IONS
PEPMASS=169.05
CHARGE=1+
MSLEVEL=2
SOURCE_INSTRUMENT=Positive-Quattro_QQQ:40eV
FILENAME=hmdb_intermediate.mgf
SEQ=*..*
IONMODE=Positive
ORGANISM=HMDB
NAME=HMDB:HMDB01868-1755 5-Methoxysalicylic acid M+H
PI=HMDB
DATACOLLECTOR=HMDB
SMILES=COC1=CC(C(O)=O)=C(O)C=C1
INCHI=InChI=1S/C8H8O4/c1-12-5-2-3-7(9)6(4-5)8(10)11/h2-4,9H,1H3,(H,10,11)
INCHIAUX=N/A
PUBMED=N/A
SUBMITUSER=mwang87
TAGS=
LIBRARYQUALITY=3
SPECTRUMID=CCMSLIB00000425321
SCANS=293
52.724 56.46 
65.505 100.0 
79.79 52.697 
91.82 62.26 
END IONS

BEGIN IONS
PEPMASS=246.171
CHARGE=1+
MSLEVEL=2
SOURCE_INSTRUMENT=Positive-Quattro_QQQ:25eV
FILENAME=hmdb_intermediate.mgf
SEQ=*..*
IONMODE=Positive
ORGANISM=HMDB
NAME=HMDB:HMDB00378-592 2-Methylbutyroylcarnitine M+H
PI=HMDB
DATACOLLECTOR=HMDB
SMILES=CCC(C)C(=O)OC(CC([O-])=O)C[N+](C)(C)C
INCHI=InChI=1S/C12H23NO4/c1-6-9(2)12(16)17-10(7-11(14)15)8-13(3,4)5/h9-10H,6-8H2,1-5H3
INCHIAUX=N/A
PUBMED=N/A
SUBMITUSER=mwang87
TAGS=
LIBRARYQUALITY=3
SPECTRUMID=CCMSLIB00000425322
SCANS=294
85.249 100.0 
END IONS

BEGIN IONS
PEPMASS=163.076
CHARGE=1+
MSLEVEL=2
SOURCE_INSTRUMENT=Negative-Quattro_QQQ:40eV
FILENAME=hmdb_intermediate.mgf
SEQ=*..*
IONMODE=Negative
ORGANISM=HMDB
NAME=HMDB:HMDB00543-763 Benzenebutanoic acid M-H
PI=HMDB
DATACOLLECTOR=HMDB
SMILES=OC(=O)CCCC1=CC=CC=C1
INCHI=InChI=1S/C10H12O2/c11-10(12)8-4-7-9-5-2-1-3-6-9/h1-3,5-6H,4,7-8H2,(H,11,12)
INCHIAUX=N/A
PUBMED=N/A
SUBMITUSER=mwang87
TAGS=
LIBRARYQUALITY=3
SPECTRUMID=CCMSLIB00000425323
SCANS=295
91.291 100.0 
END IONS

BEGIN IONS
PEPMASS=170.045
CHARGE=1+
MSLEVEL=2
SOURCE_INSTRUMENT=Positive-Quattro_QQQ:40eV
FILENAME=hmdb_intermediate.mgf
SEQ=*..*
IONMODE=Positive
ORGANISM=HMDB
NAME=HMDB:HMDB00439-640 2-Furoylglycine M+H
PI=HMDB
DATACOLLECTOR=HMDB
SMILES=OC(=O)CNC(=O)C1=CC=CO1
INCHI=InChI=1S/C7H7NO4/c9-6(10)4-8-7(11)5-2-1-3-12-5/h1-3H,4H2,(H,8,11)(H,9,10)
INCHIAUX=N/A
PUBMED=N/A
SUBMITUSER=mwang87
TAGS=
LIBRARYQUALITY=3
SPECTRUMID=CCMSLIB00000425324
SCANS=296
95.008 100.0 
END IONS

BEGIN IONS
PEPMASS=169.05
CHARGE=1+
MSLEVEL=2
SOURCE_INSTRUMENT=Positive-Quattro_QQQ:40eV
FILENAME=hmdb_intermediate.mgf
SEQ=*..*
IONMODE=Positive
ORGANISM=HMDB
NAME=HMDB:HMDB00130-199 Homogentisic acid M+H
PI=HMDB
DATACOLLECTOR=HMDB
SMILES=OC(=O)CC1=C(O)C=CC(O)=C1
INCHI=InChI=1S/C8H8O4/c9-6-1-2-7(10)5(3-6)4-8(11)12/h1-3,9-10H,4H2,(H,11,12)
INCHIAUX=N/A
PUBMED=N/A
SUBMITUSER=mwang87
TAGS=
LIBRARYQUALITY=3
SPECTRUMID=CCMSLIB00000425325
SCANS=297
41.0 74.227 
55.0 63.634 
65.0 56.889 
67.0 100.0 
END IONS

BEGIN IONS
PEPMASS=120.066
CHARGE=1+
MSLEVEL=2
SOURCE_INSTRUMENT=Positive-Quattro_QQQ:10eV
FILENAME=hmdb_intermediate.mgf
SEQ=*..*
IONMODE=Positive
ORGANISM=HMDB
NAME=HMDB:HMDB00719-1008 L-Homoserine M+H
PI=HMDB
DATACOLLECTOR=HMDB
SMILES=N[C@@H](CCO)C(O)=O
INCHI=InChI=1S/C4H9NO3/c5-3(1-2-6)4(7)8/h3,6H,1-2,5H2,(H,7,8)/t3-/m0/s1
INCHIAUX=N/A
PUBMED=N/A
SUBMITUSER=mwang87
TAGS=
LIBRARYQUALITY=3
SPECTRUMID=CCMSLIB00000425326
SCANS=298
74.125 100.0 
END IONS

BEGIN IONS
PEPMASS=159.041
CHARGE=1+
MSLEVEL=2
SOURCE_INSTRUMENT=Positive-Quattro_QQQ:10eV
FILENAME=hmdb_intermediate.mgf
SEQ=*..*
IONMODE=Positive
ORGANISM=HMDB
NAME=HMDB:HMDB00528-746 4,5-Dihydroorotic acid M+H
PI=HMDB
DATACOLLECTOR=HMDB
SMILES=OC(=O)C1CC(=O)NC(=O)N1
INCHI=InChI=1S/C5H6N2O4/c8-3-1-2(4(9)10)6-5(11)7-3/h2H,1H2,(H,9,10)(H2,6,7,8,11)
INCHIAUX=N/A
PUBMED=N/A
SUBMITUSER=mwang87
TAGS=
LIBRARYQUALITY=3
SPECTRUMID=CCMSLIB00000425327
SCANS=299
74.109 51.989 
87.194 89.773 
88.24 69.886 
113.068 58.807 
158.948 100.0 
END IONS

BEGIN IONS
PEPMASS=133.05
CHARGE=1+
MSLEVEL=2
SOURCE_INSTRUMENT=Positive-Quattro_QQQ:25eV
FILENAME=hmdb_intermediate.mgf
SEQ=*..*
IONMODE=Positive
ORGANISM=HMDB
NAME=HMDB:HMDB02001-1936 Dimethylmalonic acid M+H
PI=HMDB
DATACOLLECTOR=HMDB
SMILES=CC(C)(C(O)=O)C(O)=O
INCHI=InChI=1S/C5H8O4/c1-5(2,3(6)7)4(8)9/h1-2H3,(H,6,7)(H,8,9)
INCHIAUX=N/A
PUBMED=N/A
SUBMITUSER=mwang87
TAGS=
LIBRARYQUALITY=3
SPECTRUMID=CCMSLIB00000425328
SCANS=300
87.0 100.0 
END IONS

BEGIN IONS
PEPMASS=151.04
CHARGE=1+
MSLEVEL=2
SOURCE_INSTRUMENT=Negative-Quattro_QQQ:40eV
FILENAME=hmdb_intermediate.mgf
SEQ=*..*
IONMODE=Negative
ORGANISM=HMDB
NAME=HMDB:HMDB00020-35 p-Hydroxyphenylacetic acid M-H
PI=HMDB
DATACOLLECTOR=HMDB
SMILES=OC(=O)CC1=CC=C(O)C=C1
INCHI=InChI=1S/C8H8O3/c9-7-3-1-6(2-4-7)5-8(10)11/h1-4,9H,5H2,(H,10,11)
INCHIAUX=N/A
PUBMED=N/A
SUBMITUSER=mwang87
TAGS=
LIBRARYQUALITY=3
SPECTRUMID=CCMSLIB00000425329
SCANS=301
45.566 54.464 
77.389 95.238 
79.376 73.214 
93.298 100.0 
107.44 62.5 
151.279 50.893 
END IONS

BEGIN IONS
PEPMASS=101.06
CHARGE=1+
MSLEVEL=2
SOURCE_INSTRUMENT=Positive-Quattro_QQQ:25eV
FILENAME=hmdb_intermediate.mgf
SEQ=*..*
IONMODE=Positive
ORGANISM=HMDB
NAME=HMDB:HMDB01862-1742 2-Ethylacrylic acid M+H
PI=HMDB
DATACOLLECTOR=HMDB
SMILES=CCC(=C)C(O)=O
INCHI=InChI=1S/C5H8O2/c1-3-4(2)5(6)7/h2-3H2,1H3,(H,6,7)
INCHIAUX=N/A
PUBMED=N/A
SUBMITUSER=mwang87
TAGS=
LIBRARYQUALITY=3
SPECTRUMID=CCMSLIB00000425330
SCANS=302
44.0 68.316 
45.0 59.088 
54.0 100.0 
55.0 59.667 
END IONS

BEGIN IONS
PEPMASS=201.984
CHARGE=1+
MSLEVEL=2
SOURCE_INSTRUMENT=Positive-Quattro_QQQ:25eV
FILENAME=hmdb_intermediate.mgf
SEQ=*..*
IONMODE=Positive
ORGANISM=HMDB
NAME=HMDB:HMDB00731-1030 Cysteine-S-sulfate M+H
PI=HMDB
DATACOLLECTOR=HMDB
SMILES=N[C@@H](CSS(O)(=O)=O)C(O)=O
INCHI=InChI=1S/C3H7NO5S2/c4-2(3(5)6)1-10-11(7,8)9/h2H,1,4H2,(H,5,6)(H,7,8,9)/t2-/m0/s1
INCHIAUX=N/A
PUBMED=N/A
SUBMITUSER=mwang87
TAGS=
LIBRARYQUALITY=3
SPECTRUMID=CCMSLIB00000425331
SCANS=303
74.0 100.0 
END IONS

BEGIN IONS
PEPMASS=186.017
CHARGE=1+
MSLEVEL=2
SOURCE_INSTRUMENT=Positive-Quattro_QQQ:25eV
FILENAME=hmdb_intermediate.mgf
SEQ=*..*
IONMODE=Positive
ORGANISM=HMDB
NAME=HMDB:HMDB00272-476 Phosphoserine M+H
PI=HMDB
DATACOLLECTOR=HMDB
SMILES=N[C@@H](COP(O)(O)=O)C(O)=O
INCHI=InChI=1S/C3H8NO6P/c4-2(3(5)6)1-10-11(7,8)9/h2H,1,4H2,(H,5,6)(H2,7,8,9)/t2-/m0/s1
INCHIAUX=N/A
PUBMED=N/A
SUBMITUSER=mwang87
TAGS=
LIBRARYQUALITY=3
SPECTRUMID=CCMSLIB00000425332
SCANS=304
70.37 100.0 
88.282 64.423 
END IONS

BEGIN IONS
PEPMASS=198.077
CHARGE=1+
MSLEVEL=2
SOURCE_INSTRUMENT=Positive-Quattro_QQQ:25eV
FILENAME=hmdb_intermediate.mgf
SEQ=*..*
IONMODE=Positive
ORGANISM=HMDB
NAME=HMDB:HMDB00609-826 DL-Dopa M+H
PI=HMDB
DATACOLLECTOR=HMDB
SMILES=NC(CC1=CC=C(O)C(O)=C1)C(O)=O
INCHI=InChI=1S/C9H11NO4/c10-6(9(13)14)3-5-1-2-7(11)8(12)4-5/h1-2,4,6,11-12H,3,10H2,(H,13,14)
INCHIAUX=N/A
PUBMED=N/A
SUBMITUSER=mwang87
TAGS=
LIBRARYQUALITY=3
SPECTRUMID=CCMSLIB00000425333
SCANS=305
106.825 100.0 
END IONS

BEGIN IONS
PEPMASS=112.051
CHARGE=1+
MSLEVEL=2
SOURCE_INSTRUMENT=Positive-Quattro_QQQ:10eV
FILENAME=hmdb_intermediate.mgf
SEQ=*..*
IONMODE=Positive
ORGANISM=HMDB
NAME=HMDB:HMDB00630-858 Cytosine M+H
PI=HMDB
DATACOLLECTOR=HMDB
SMILES=NC1=CC=NC(=O)N1
INCHI=InChI=1S/C4H5N3O/c5-3-1-2-6-4(8)7-3/h1-2H,(H3,5,6,7,8)
INCHIAUX=N/A
PUBMED=N/A
SUBMITUSER=mwang87
TAGS=
LIBRARYQUALITY=3
SPECTRUMID=CCMSLIB00000425334
SCANS=306
111.968 100.0 
END IONS

BEGIN IONS
PEPMASS=156.077
CHARGE=1+
MSLEVEL=2
SOURCE_INSTRUMENT=Positive-Quattro_QQQ:25eV
FILENAME=hmdb_intermediate.mgf
SEQ=*..*
IONMODE=Positive
ORGANISM=HMDB
NAME=HMDB:HMDB00177-284 L-Histidine M+H
PI=HMDB
DATACOLLECTOR=HMDB
SMILES=N[C@@H](CC1=CNC=N1)C(O)=O
INCHI=InChI=1S/C6H9N3O2/c7-5(6(10)11)1-4-2-8-3-9-4/h2-3,5H,1,7H2,(H,8,9)(H,10,11)/t5-/m0/s1
INCHIAUX=N/A
PUBMED=N/A
SUBMITUSER=mwang87
TAGS=
LIBRARYQUALITY=3
SPECTRUMID=CCMSLIB00000425335
SCANS=307
82.654 100.0 
109.959 68.24 
END IONS

BEGIN IONS
PEPMASS=133.065
CHARGE=1+
MSLEVEL=2
SOURCE_INSTRUMENT=Positive-Quattro_QQQ:10eV
FILENAME=hmdb_intermediate.mgf
SEQ=*..*
IONMODE=Positive
ORGANISM=HMDB
NAME=HMDB:HMDB03441-2310 Cinnamaldehyde M+H
PI=HMDB
DATACOLLECTOR=HMDB
SMILES=O=C\C=C\C1=CC=CC=C1
INCHI=InChI=1S/C9H8O/c10-8-4-7-9-5-2-1-3-6-9/h1-8H/b7-4+
INCHIAUX=N/A
PUBMED=N/A
SUBMITUSER=mwang87
TAGS=
LIBRARYQUALITY=3
SPECTRUMID=CCMSLIB00000425336
SCANS=308
55.0 91.084 
115.0 50.796 
133.0 100.0 
END IONS

BEGIN IONS
PEPMASS=103.04
CHARGE=1+
MSLEVEL=2
SOURCE_INSTRUMENT=Negative-Quattro_QQQ:40eV
FILENAME=hmdb_intermediate.mgf
SEQ=*..*
IONMODE=Negative
ORGANISM=HMDB
NAME=HMDB:HMDB00023-44 (S)-3-Hydroxyisobutyric acid M-H
PI=HMDB
DATACOLLECTOR=HMDB
SMILES=C[C@@H](CO)C(O)=O
INCHI=InChI=1S/C4H8O3/c1-3(2-5)4(6)7/h3,5H,2H2,1H3,(H,6,7)/t3-/m0/s1
INCHIAUX=N/A
PUBMED=N/A
SUBMITUSER=mwang87
TAGS=
LIBRARYQUALITY=3
SPECTRUMID=CCMSLIB00000425337
SCANS=309
41.609 52.941 
45.442 100.0 
57.392 88.235 
103.225 92.437 
END IONS

BEGIN IONS
PEPMASS=183.066
CHARGE=1+
MSLEVEL=2
SOURCE_INSTRUMENT=Positive-Quattro_QQQ:10eV
FILENAME=hmdb_intermediate.mgf
SEQ=*..*
IONMODE=Positive
ORGANISM=HMDB
NAME=HMDB:HMDB00755-1083 Hydroxyphenyllactic acid M+H
PI=HMDB
DATACOLLECTOR=HMDB
SMILES=OC(CC1=CC=C(O)C=C1)C(O)=O
INCHI=InChI=1S/C9H10O4/c10-7-3-1-6(2-4-7)5-8(11)9(12)13/h1-4,8,10-11H,5H2,(H,12,13)
INCHIAUX=N/A
PUBMED=N/A
SUBMITUSER=mwang87
TAGS=
LIBRARYQUALITY=3
SPECTRUMID=CCMSLIB00000425338
SCANS=310
137.043 53.101 
182.716 100.0 
END IONS

BEGIN IONS
PEPMASS=205.098
CHARGE=1+
MSLEVEL=2
SOURCE_INSTRUMENT=Positive-Quattro_QQQ:25eV
FILENAME=hmdb_intermediate.mgf
SEQ=*..*
IONMODE=Positive
ORGANISM=HMDB
NAME=HMDB:HMDB00929-1322 L-Tryptophan M+H
PI=HMDB
DATACOLLECTOR=HMDB
SMILES=N[C@@H](CC1=CNC2=CC=CC=C12)C(O)=O
INCHI=InChI=1S/C11H12N2O2/c12-9(11(14)15)5-7-6-13-10-4-2-1-3-8(7)10/h1-4,6,9,13H,5,12H2,(H,14,15)/t9-/m0/s1
INCHIAUX=N/A
PUBMED=N/A
SUBMITUSER=mwang87
TAGS=
LIBRARYQUALITY=3
SPECTRUMID=CCMSLIB00000425339
SCANS=311
117.837 100.0 
145.913 60.465 
END IONS

BEGIN IONS
PEPMASS=163.061
CHARGE=1+
MSLEVEL=2
SOURCE_INSTRUMENT=Positive-Quattro_QQQ:25eV
FILENAME=hmdb_intermediate.mgf
SEQ=*..*
IONMODE=Positive
ORGANISM=HMDB
NAME=HMDB:HMDB00345-556 3-Hydroxyadipic acid M+H
PI=HMDB
DATACOLLECTOR=HMDB
SMILES=OC(CCC(O)=O)CC(O)=O
INCHI=InChI=1S/C6H10O5/c7-4(3-6(10)11)1-2-5(8)9/h4,7H,1-3H2,(H,8,9)(H,10,11)
INCHIAUX=N/A
PUBMED=N/A
SUBMITUSER=mwang87
TAGS=
LIBRARYQUALITY=3
SPECTRUMID=CCMSLIB00000425340
SCANS=312
100.0 66.641 
102.0 100.0 
END IONS

BEGIN IONS
PEPMASS=291.232
CHARGE=1+
MSLEVEL=2
SOURCE_INSTRUMENT=Positive-Quattro_QQQ:40eV
FILENAME=hmdb_intermediate.mgf
SEQ=*..*
IONMODE=Positive
ORGANISM=HMDB
NAME=HMDB:HMDB00365-584 Epiandrosterone M+H
PI=HMDB
DATACOLLECTOR=HMDB
SMILES=[H][C@@]12CCC(=O)[C@@]1(C)CC[C@@]1([H])[C@@]2([H])CCC2C[C@@H](O)CC[C@]12C
INCHI=InChI=1S/C19H30O2/c1-18-9-7-13(20)11-12(18)3-4-14-15-5-6-17(21)19(15,2)10-8-16(14)18/h12-16,20H,3-11H2,1-2H3/t12?,13-,14-,15-,16-,18-,19-/m0/s1
INCHIAUX=N/A
PUBMED=N/A
SUBMITUSER=mwang87
TAGS=
LIBRARYQUALITY=3
SPECTRUMID=CCMSLIB00000425341
SCANS=313
55.449 63.415 
67.405 73.659 
91.065 100.0 
93.163 68.78 
105.148 54.634 
END IONS

BEGIN IONS
PEPMASS=177.103
CHARGE=1+
MSLEVEL=2
SOURCE_INSTRUMENT=Positive-Quattro_QQQ:40eV
FILENAME=hmdb_intermediate.mgf
SEQ=*..*
IONMODE=Positive
ORGANISM=HMDB
NAME=HMDB:HMDB00259-453 Serotonin M+H
PI=HMDB
DATACOLLECTOR=HMDB
SMILES=NCCC1=CNC2=CC=C(O)C=C12
INCHI=InChI=1S/C10H12N2O/c11-4-3-7-6-12-10-2-1-8(13)5-9(7)10/h1-2,5-6,12-13H,3-4,11H2
INCHIAUX=N/A
PUBMED=N/A
SUBMITUSER=mwang87
TAGS=
LIBRARYQUALITY=3
SPECTRUMID=CCMSLIB00000425342
SCANS=314
77.136 65.766 
114.979 100.0 
116.938 55.405 
END IONS

BEGIN IONS
PEPMASS=147.126
CHARGE=1+
MSLEVEL=2
SOURCE_INSTRUMENT=Positive-Quattro_QQQ:25eV
FILENAME=hmdb_intermediate.mgf
SEQ=*..*
IONMODE=Positive
ORGANISM=HMDB
NAME=HMDB:HMDB00895-1263 Acetylcholine  M+H
PI=HMDB
DATACOLLECTOR=HMDB
SMILES=CC(=O)OCC[N+](C)(C)C
INCHI=InChI=1S/C7H16NO2/c1-7(9)10-6-5-8(2,3)4/h5-6H2,1-4H3/q+1
INCHIAUX=N/A
PUBMED=N/A
SUBMITUSER=mwang87
TAGS=
LIBRARYQUALITY=3
SPECTRUMID=CCMSLIB00000425343
SCANS=315
43.0 63.227 
87.0 100.0 
88.0 58.377 
END IONS

BEGIN IONS
PEPMASS=133.098
CHARGE=1+
MSLEVEL=2
SOURCE_INSTRUMENT=Positive-Quattro_QQQ:10eV
FILENAME=hmdb_intermediate.mgf
SEQ=*..*
IONMODE=Positive
ORGANISM=HMDB
NAME=HMDB:HMDB00214-349 Ornithine M+H
PI=HMDB
DATACOLLECTOR=HMDB
SMILES=NCCC[C@H](N)C(O)=O
INCHI=InChI=1S/C5H12N2O2/c6-3-1-2-4(7)5(8)9/h4H,1-3,6-7H2,(H,8,9)/t4-/m0/s1
INCHIAUX=N/A
PUBMED=N/A
SUBMITUSER=mwang87
TAGS=
LIBRARYQUALITY=3
SPECTRUMID=CCMSLIB00000425344
SCANS=316
70.133 83.495 
115.811 100.0 
END IONS

BEGIN IONS
PEPMASS=266.967
CHARGE=1+
MSLEVEL=2
SOURCE_INSTRUMENT=Positive-Quattro_QQQ:40eV
FILENAME=hmdb_intermediate.mgf
SEQ=*..*
IONMODE=Positive
ORGANISM=HMDB
NAME=HMDB:HMDB01294-1506 2,3-Diphosphoglyceric acid M+H
PI=HMDB
DATACOLLECTOR=HMDB
SMILES=OC(=O)[C@@H](COP(O)(O)=O)OP(O)(O)=O
INCHI=InChI=1S/C3H8O10P2/c4-3(5)2(13-15(9,10)11)1-12-14(6,7)8/h2H,1H2,(H,4,5)(H2,6,7,8)(H2,9,10,11)/t2-/m1/s1
INCHIAUX=N/A
PUBMED=N/A
SUBMITUSER=mwang87
TAGS=
LIBRARYQUALITY=3
SPECTRUMID=CCMSLIB00000425345
SCANS=317
65.0 71.281 
99.0 92.26 
123.0 100.0 
END IONS

BEGIN IONS
PEPMASS=132.102
CHARGE=1+
MSLEVEL=2
SOURCE_INSTRUMENT=Positive-Quattro_QQQ:40eV
FILENAME=hmdb_intermediate.mgf
SEQ=*..*
IONMODE=Positive
ORGANISM=HMDB
NAME=HMDB:HMDB00687-953 L-Leucine M+H
PI=HMDB
DATACOLLECTOR=HMDB
SMILES=CC(C)C[C@H](N)C(O)=O
INCHI=InChI=1S/C6H13NO2/c1-4(2)3-5(7)6(8)9/h4-5H,3,7H2,1-2H3,(H,8,9)/t5-/m0/s1
INCHIAUX=N/A
PUBMED=N/A
SUBMITUSER=mwang87
TAGS=
LIBRARYQUALITY=3
SPECTRUMID=CCMSLIB00000425346
SCANS=318
41.328 62.813 
43.318 100.0 
44.426 52.813 
END IONS

BEGIN IONS
PEPMASS=153.055
CHARGE=1+
MSLEVEL=2
SOURCE_INSTRUMENT=Positive-Quattro_QQQ:10eV
FILENAME=hmdb_intermediate.mgf
SEQ=*..*
IONMODE=Positive
ORGANISM=HMDB
NAME=HMDB:HMDB02390-2092 3-Cresotinic acid M+H
PI=HMDB
DATACOLLECTOR=HMDB
SMILES=CC1=C(O)C(=CC=C1)C(O)=O
INCHI=InChI=1S/C8H8O3/c1-5-3-2-4-6(7(5)9)8(10)11/h2-4,9H,1H3,(H,10,11)
INCHIAUX=N/A
PUBMED=N/A
SUBMITUSER=mwang87
TAGS=
LIBRARYQUALITY=3
SPECTRUMID=CCMSLIB00000425347
SCANS=319
135.0 100.0 
END IONS

BEGIN IONS
PEPMASS=667.23
CHARGE=1+
MSLEVEL=2
SOURCE_INSTRUMENT=Positive-Quattro_QQQ:25eV
FILENAME=hmdb_intermediate.mgf
SEQ=*..*
IONMODE=Positive
ORGANISM=HMDB
NAME=HMDB:HMDB03553-2329 Stachyose M+H
PI=HMDB
DATACOLLECTOR=HMDB
SMILES=OC[C@H]1O[C@@](CO)(O[C@H]2O[C@H](CO[C@H]3O[C@H](CO[C@H]4O[C@H](CO)[C@H](O)[C@H](O)[C@H]4O)[C@H](O)[C@H](O)[C@H]3O)[C@@H](O)[C@H](O)[C@H]2O)[C@@H](O)[C@@H]1O
INCHI=InChI=1S/C24H42O21/c25-1-6-10(28)14(32)17(35)21(41-6)39-3-8-11(29)15(33)18(36)22(42-8)40-4-9-12(30)16(34)19(37)23(43-9)45-24(5-27)20(38)13(31)7(2-26)44-24/h6-23,25-38H,1-5H2/t6-,7-,8-,9-,10+,11+,12-,13-,14+,15+,16+,17-,18-,19-,20+,21+,22+,23-,24+/m1/s1
INCHIAUX=N/A
PUBMED=N/A
SUBMITUSER=mwang87
TAGS=
LIBRARYQUALITY=3
SPECTRUMID=CCMSLIB00000425348
SCANS=320
178.0 59.45 
382.0 50.261 
383.0 50.3 
665.0 100.0 
END IONS

BEGIN IONS
PEPMASS=129.066
CHARGE=1+
MSLEVEL=2
SOURCE_INSTRUMENT=Positive-Quattro_QQQ:10eV
FILENAME=hmdb_intermediate.mgf
SEQ=*..*
IONMODE=Positive
ORGANISM=HMDB
NAME=HMDB:HMDB00079-129 Dihydrothymine M+H
PI=HMDB
DATACOLLECTOR=HMDB
SMILES=CC1CNC(=O)NC1=O
INCHI=InChI=1S/C5H8N2O2/c1-3-2-6-5(9)7-4(3)8/h3H,2H2,1H3,(H2,6,7,8,9)
INCHIAUX=N/A
PUBMED=N/A
SUBMITUSER=mwang87
TAGS=
LIBRARYQUALITY=3
SPECTRUMID=CCMSLIB00000425349
SCANS=321
129.01 100.0 
END IONS

BEGIN IONS
PEPMASS=72.9926
CHARGE=1+
MSLEVEL=2
SOURCE_INSTRUMENT=Negative-Quattro_QQQ:25eV
FILENAME=hmdb_intermediate.mgf
SEQ=*..*
IONMODE=Negative
ORGANISM=HMDB
NAME=HMDB:HMDB00119-172 Glyoxylic acid M-H
PI=HMDB
DATACOLLECTOR=HMDB
SMILES=OC(=O)C=O
INCHI=InChI=1S/C2H2O3/c3-1-2(4)5/h1H,(H,4,5)
INCHIAUX=N/A
PUBMED=N/A
SUBMITUSER=mwang87
TAGS=
LIBRARYQUALITY=3
SPECTRUMID=CCMSLIB00000425350
SCANS=322
72.829 100.0 
END IONS

BEGIN IONS
PEPMASS=428.374
CHARGE=1+
MSLEVEL=2
SOURCE_INSTRUMENT=Positive-Quattro_QQQ:25eV
FILENAME=hmdb_intermediate.mgf
SEQ=*..*
IONMODE=Positive
ORGANISM=HMDB
NAME=HMDB:HMDB00848-1197 Stearoylcarnitine M+H
PI=HMDB
DATACOLLECTOR=HMDB
SMILES=CCCCCCCCCCCCCCCCCC(=O)OC(CC([O-])=O)C[N+](C)(C)C
INCHI=InChI=1S/C25H49NO4/c1-5-6-7-8-9-10-11-12-13-14-15-16-17-18-19-20-25(29)30-23(21-24(27)28)22-26(2,3)4/h23H,5-22H2,1-4H3
INCHIAUX=N/A
PUBMED=N/A
SUBMITUSER=mwang87
TAGS=
LIBRARYQUALITY=3
SPECTRUMID=CCMSLIB00000425351
SCANS=323
85.0 100.0 
END IONS

BEGIN IONS
PEPMASS=171.029
CHARGE=1+
MSLEVEL=2
SOURCE_INSTRUMENT=Positive-Quattro_QQQ:25eV
FILENAME=hmdb_intermediate.mgf
SEQ=*..*
IONMODE=Positive
ORGANISM=HMDB
NAME=HMDB:HMDB05807-2455 Gallic acid M+H
PI=HMDB
DATACOLLECTOR=HMDB
SMILES=OC(=O)C1=CC(O)=C(O)C(O)=C1
INCHI=InChI=1S/C7H6O5/c8-4-1-3(7(11)12)2-5(9)6(4)10/h1-2,8-10H,(H,11,12)
INCHIAUX=N/A
PUBMED=N/A
SUBMITUSER=mwang87
TAGS=
LIBRARYQUALITY=3
SPECTRUMID=CCMSLIB00000425352
SCANS=324
81.0 100.0 
107.0 65.614 
END IONS

BEGIN IONS
PEPMASS=271.061
CHARGE=1+
MSLEVEL=2
SOURCE_INSTRUMENT=Negative-Quattro_QQQ:10eV
FILENAME=hmdb_intermediate.mgf
SEQ=*..*
IONMODE=Negative
ORGANISM=HMDB
NAME=HMDB:HMDB02670-2122 Naringenin M-H
PI=HMDB
DATACOLLECTOR=HMDB
SMILES=OC1=CC=C(C=C1)[C@@H]1CC(=O)C2=C(O)C=C(O)C=C2O1
INCHI=InChI=1S/C15H12O5/c16-9-3-1-8(2-4-9)13-7-12(19)15-11(18)5-10(17)6-14(15)20-13/h1-6,13,16-18H,7H2/t13-/m0/s1
INCHIAUX=N/A
PUBMED=N/A
SUBMITUSER=mwang87
TAGS=
LIBRARYQUALITY=3
SPECTRUMID=CCMSLIB00000425353
SCANS=325
271.0 100.0 
END IONS

BEGIN IONS
PEPMASS=151.061
CHARGE=1+
MSLEVEL=2
SOURCE_INSTRUMENT=Positive-Quattro_QQQ:40eV
FILENAME=hmdb_intermediate.mgf
SEQ=*..*
IONMODE=Positive
ORGANISM=HMDB
NAME=HMDB:HMDB00621-842 D-Ribulose M+H
PI=HMDB
DATACOLLECTOR=HMDB
SMILES=OC[C@@H](O)[C@@H](O)C(=O)CO
INCHI=InChI=1S/C5H10O5/c6-1-3(8)5(10)4(9)2-7/h3,5-8,10H,1-2H2/t3-,5-/m1/s1
INCHIAUX=N/A
PUBMED=N/A
SUBMITUSER=mwang87
TAGS=
LIBRARYQUALITY=3
SPECTRUMID=CCMSLIB00000425354
SCANS=326
72.9 62.553193153 
114.0 100.0 
122.9 71.0638343368 
END IONS

BEGIN IONS
PEPMASS=287.201
CHARGE=1+
MSLEVEL=2
SOURCE_INSTRUMENT=Positive-Quattro_QQQ:25eV
FILENAME=hmdb_intermediate.mgf
SEQ=*..*
IONMODE=Positive
ORGANISM=HMDB
NAME=HMDB:HMDB00053-85 Androstenedione M+H
PI=HMDB
DATACOLLECTOR=HMDB
SMILES=[H][C@@]12CCC(=O)[C@@]1(C)CC[C@@]1([H])[C@@]2([H])CCC2=CC(=O)CC[C@]12C
INCHI=InChI=1S/C19H26O2/c1-18-9-7-13(20)11-12(18)3-4-14-15-5-6-17(21)19(15,2)10-8-16(14)18/h11,14-16H,3-10H2,1-2H3/t14-,15-,16-,18-,19-/m0/s1
INCHIAUX=N/A
PUBMED=N/A
SUBMITUSER=mwang87
TAGS=
LIBRARYQUALITY=3
SPECTRUMID=CCMSLIB00000425355
SCANS=327
96.0 100.0 
108.0 62.68 
END IONS

BEGIN IONS
PEPMASS=215.128
CHARGE=1+
MSLEVEL=2
SOURCE_INSTRUMENT=Negative-Quattro_QQQ:10eV
FILENAME=hmdb_intermediate.mgf
SEQ=*..*
IONMODE=Negative
ORGANISM=HMDB
NAME=HMDB:HMDB00888-1250 Undecanedioic acid M-H
PI=HMDB
DATACOLLECTOR=HMDB
SMILES=OC(=O)CCCCCCCCCC(O)=O
INCHI=InChI=1S/C11H20O4/c12-10(13)8-6-4-2-1-3-5-7-9-11(14)15/h1-9H2,(H,12,13)(H,14,15)
INCHIAUX=N/A
PUBMED=N/A
SUBMITUSER=mwang87
TAGS=
LIBRARYQUALITY=3
SPECTRUMID=CCMSLIB00000425356
SCANS=328
215.199 100.0 
END IONS

BEGIN IONS
PEPMASS=105.115
CHARGE=1+
MSLEVEL=2
SOURCE_INSTRUMENT=Positive-Quattro_QQQ:10eV
FILENAME=hmdb_intermediate.mgf
SEQ=*..*
IONMODE=Positive
ORGANISM=HMDB
NAME=HMDB:HMDB00097-150 Choline M+H
PI=HMDB
DATACOLLECTOR=HMDB
SMILES=C[N+](C)(C)CCO
INCHI=InChI=1S/C5H14NO/c1-6(2,3)4-5-7/h7H,4-5H2,1-3H3/q+1
INCHIAUX=N/A
PUBMED=N/A
SUBMITUSER=mwang87
TAGS=
LIBRARYQUALITY=3
SPECTRUMID=CCMSLIB00000425357
SCANS=329
105.1 100.0 
END IONS

BEGIN IONS
PEPMASS=257.175
CHARGE=1+
MSLEVEL=2
SOURCE_INSTRUMENT=Negative-Quattro_QQQ:25eV
FILENAME=hmdb_intermediate.mgf
SEQ=*..*
IONMODE=Negative
ORGANISM=HMDB
NAME=HMDB:HMDB00872-1230 Tetradecanedioic acid M-H
PI=HMDB
DATACOLLECTOR=HMDB
SMILES=OC(=O)CCCCCCCCCCCCC(O)=O
INCHI=InChI=1S/C14H26O4/c15-13(16)11-9-7-5-3-1-2-4-6-8-10-12-14(17)18/h1-12H2,(H,15,16)(H,17,18)
INCHIAUX=N/A
PUBMED=N/A
SUBMITUSER=mwang87
TAGS=
LIBRARYQUALITY=3
SPECTRUMID=CCMSLIB00000425358
SCANS=330
195.073 60.149 
239.042 100.0 
END IONS

BEGIN IONS
PEPMASS=167.107
CHARGE=1+
MSLEVEL=2
SOURCE_INSTRUMENT=Positive-Quattro_QQQ:10eV
FILENAME=hmdb_intermediate.mgf
SEQ=*..*
IONMODE=Positive
ORGANISM=HMDB
NAME=HMDB:HMDB04586-2397 Perillic acid M+H
PI=HMDB
DATACOLLECTOR=HMDB
SMILES=CC(=C)C1CCC(=CC1)C(O)=O
INCHI=InChI=1S/C10H14O2/c1-7(2)8-3-5-9(6-4-8)10(11)12/h5,8H,1,3-4,6H2,2H3,(H,11,12)
INCHIAUX=N/A
PUBMED=N/A
SUBMITUSER=mwang87
TAGS=
LIBRARYQUALITY=3
SPECTRUMID=CCMSLIB00000425359
SCANS=331
111.0 58.8633007797 
121.0 100.0 
END IONS

BEGIN IONS
PEPMASS=355.103
CHARGE=1+
MSLEVEL=2
SOURCE_INSTRUMENT=Positive-Quattro_QQQ:10eV
FILENAME=hmdb_intermediate.mgf
SEQ=*..*
IONMODE=Positive
ORGANISM=HMDB
NAME=HMDB:HMDB03164-2209 Chlorogenic acid M+H
PI=HMDB
DATACOLLECTOR=HMDB
SMILES=O[C@@H]1C[C@](O)(C[C@@H](OC(=O)\C=C\C2=CC(O)=C(O)C=C2)[C@@H]1O)C(O)=O
INCHI=InChI=1S/C16H18O9/c17-9-3-1-8(5-10(9)18)2-4-13(20)25-12-7-16(24,15(22)23)6-11(19)14(12)21/h1-5,11-12,14,17-19,21,24H,6-7H2,(H,22,23)/b4-2+/t11-,12-,14-,16+/m1/s1
INCHIAUX=N/A
PUBMED=N/A
SUBMITUSER=mwang87
TAGS=
LIBRARYQUALITY=3
SPECTRUMID=CCMSLIB00000425360
SCANS=332
163.0 100.0 
END IONS

BEGIN IONS
PEPMASS=147.113
CHARGE=1+
MSLEVEL=2
SOURCE_INSTRUMENT=Positive-Quattro_QQQ:40eV
FILENAME=hmdb_intermediate.mgf
SEQ=*..*
IONMODE=Positive
ORGANISM=HMDB
NAME=HMDB:HMDB00182-291 L-Lysine M+H
PI=HMDB
DATACOLLECTOR=HMDB
SMILES=NCCCC[C@H](N)C(O)=O
INCHI=InChI=1S/C6H14N2O2/c7-4-2-1-3-5(8)6(9)10/h5H,1-4,7-8H2,(H,9,10)/t5-/m0/s1
INCHIAUX=N/A
PUBMED=N/A
SUBMITUSER=mwang87
TAGS=
LIBRARYQUALITY=3
SPECTRUMID=CCMSLIB00000425361
SCANS=333
56.082 100.0 
84.093 62.368 
END IONS

BEGIN IONS
PEPMASS=161.045
CHARGE=1+
MSLEVEL=2
SOURCE_INSTRUMENT=Positive-Quattro_QQQ:10eV
FILENAME=hmdb_intermediate.mgf
SEQ=*..*
IONMODE=Positive
ORGANISM=HMDB
NAME=HMDB:HMDB00398-606 3-Oxoadipic acid M+H
PI=HMDB
DATACOLLECTOR=HMDB
SMILES=OC(=O)CCC(=O)CC(O)=O
INCHI=InChI=1S/C6H8O5/c7-4(3-6(10)11)1-2-5(8)9/h1-3H2,(H,8,9)(H,10,11)
INCHIAUX=N/A
PUBMED=N/A
SUBMITUSER=mwang87
TAGS=
LIBRARYQUALITY=3
SPECTRUMID=CCMSLIB00000425362
SCANS=334
160.84 100.0 
END IONS

BEGIN IONS
PEPMASS=367.358
CHARGE=1+
MSLEVEL=2
SOURCE_INSTRUMENT=Positive-Quattro_QQQ:40eV
FILENAME=hmdb_intermediate.mgf
SEQ=*..*
IONMODE=Positive
ORGANISM=HMDB
NAME=HMDB:HMDB02368-2088 Nervonic acid M+H
PI=HMDB
DATACOLLECTOR=HMDB
SMILES=CCCCCCCC\C=C/CCCCCCCCCCCCCC(O)=O
INCHI=InChI=1S/C24H46O2/c1-2-3-4-5-6-7-8-9-10-11-12-13-14-15-16-17-18-19-20-21-22-23-24(25)26/h9-10H,2-8,11-23H2,1H3,(H,25,26)/b10-9-
INCHIAUX=N/A
PUBMED=N/A
SUBMITUSER=mwang87
TAGS=
LIBRARYQUALITY=3
SPECTRUMID=CCMSLIB00000425363
SCANS=335
54.0 51.168 
56.0 58.3 
57.0 85.6 
68.0 100.0 
80.0 50.875 
82.0 59.604 
END IONS

BEGIN IONS
PEPMASS=260.186
CHARGE=1+
MSLEVEL=2
SOURCE_INSTRUMENT=Positive-Quattro_QQQ:10eV
FILENAME=hmdb_intermediate.mgf
SEQ=*..*
IONMODE=Positive
ORGANISM=HMDB
NAME=HMDB:HMDB00756-1086 L-Hexanoylcarnitine M+H
PI=HMDB
DATACOLLECTOR=HMDB
SMILES=CCCCCC(=O)O[C@H](CC([O-])=O)C[N+](C)(C)C
INCHI=InChI=1S/C13H25NO4/c1-5-6-7-8-13(17)18-11(9-12(15)16)10-14(2,3)4/h11H,5-10H2,1-4H3/t11-/m1/s1
INCHIAUX=N/A
PUBMED=N/A
SUBMITUSER=mwang87
TAGS=
LIBRARYQUALITY=3
SPECTRUMID=CCMSLIB00000425364
SCANS=336
85.247 74.118 
260.119 100.0 
END IONS

BEGIN IONS
PEPMASS=167.107
CHARGE=1+
MSLEVEL=2
SOURCE_INSTRUMENT=Positive-Quattro_QQQ:40eV
FILENAME=hmdb_intermediate.mgf
SEQ=*..*
IONMODE=Positive
ORGANISM=HMDB
NAME=HMDB:HMDB04586-2399 Perillic acid M+H
PI=HMDB
DATACOLLECTOR=HMDB
SMILES=CC(=C)C1CCC(=CC1)C(O)=O
INCHI=InChI=1S/C10H14O2/c1-7(2)8-3-5-9(6-4-8)10(11)12/h5,8H,1,3-4,6H2,2H3,(H,11,12)
INCHIAUX=N/A
PUBMED=N/A
SUBMITUSER=mwang87
TAGS=
LIBRARYQUALITY=3
SPECTRUMID=CCMSLIB00000425365
SCANS=337
111.0 58.8633007797 
121.0 100.0 
END IONS

BEGIN IONS
PEPMASS=145.014
CHARGE=1+
MSLEVEL=2
SOURCE_INSTRUMENT=Negative-Quattro_QQQ:10eV
FILENAME=hmdb_intermediate.mgf
SEQ=*..*
IONMODE=Negative
ORGANISM=HMDB
NAME=HMDB:HMDB00208-337 Oxoglutaric acid M-H
PI=HMDB
DATACOLLECTOR=HMDB
SMILES=OC(=O)CCC(=O)C(O)=O
INCHI=InChI=1S/C5H6O5/c6-3(5(9)10)1-2-4(7)8/h1-2H2,(H,7,8)(H,9,10)
INCHIAUX=N/A
PUBMED=N/A
SUBMITUSER=mwang87
TAGS=
LIBRARYQUALITY=3
SPECTRUMID=CCMSLIB00000425366
SCANS=338
57.241 87.059 
101.021 100.0 
END IONS

BEGIN IONS
PEPMASS=431.389
CHARGE=1+
MSLEVEL=2
SOURCE_INSTRUMENT=Positive-Quattro_QQQ:40eV
FILENAME=hmdb_intermediate.mgf
SEQ=*..*
IONMODE=Positive
ORGANISM=HMDB
NAME=HMDB:HMDB01893-1806 Alpha-Tocopherol M+H
PI=HMDB
DATACOLLECTOR=HMDB
SMILES=CC(C)CCC[C@@H](C)CCC[C@@H](C)CCC[C@]1(C)CCC2=C(O1)C(C)=C(C)C(O)=C2C
INCHI=InChI=1S/C29H50O2/c1-20(2)12-9-13-21(3)14-10-15-22(4)16-11-18-29(8)19-17-26-25(7)27(30)23(5)24(6)28(26)31-29/h20-22,30H,9-19H2,1-8H3/t21-,22-,29-/m1/s1
INCHIAUX=N/A
PUBMED=N/A
SUBMITUSER=mwang87
TAGS=
LIBRARYQUALITY=3
SPECTRUMID=CCMSLIB00000425367
SCANS=339
53.124 68.085 
165.796 51.064 
177.58 57.447 
198.326 55.319 
203.359 55.319 
268.549 51.064 
273.951 53.191 
281.195 51.064 
288.807 51.064 
358.921 53.191 
387.903 57.447 
438.87 61.702 
465.522 53.191 
483.946 51.064 
485.543 100.0 
END IONS

BEGIN IONS
PEPMASS=179.056
CHARGE=1+
MSLEVEL=2
SOURCE_INSTRUMENT=Negative-Quattro_QQQ:25eV
FILENAME=hmdb_intermediate.mgf
SEQ=*..*
IONMODE=Negative
ORGANISM=HMDB
NAME=HMDB:HMDB01151-1437 Allose M-H
PI=HMDB
DATACOLLECTOR=HMDB
SMILES=[H][C@@]1(CO)OC(O)[C@@]([H])(O)[C@@]([H])(O)[C@@]1([H])O
INCHI=InChI=1S/C6H12O6/c7-1-2-3(8)4(9)5(10)6(11)12-2/h2-11H,1H2/t2-,3-,4-,5-,6?/m0/s1
INCHIAUX=N/A
PUBMED=N/A
SUBMITUSER=mwang87
TAGS=
LIBRARYQUALITY=3
SPECTRUMID=CCMSLIB00000425368
SCANS=340
59.0 100.0 
END IONS

BEGIN IONS
PEPMASS=267.171
CHARGE=1+
MSLEVEL=2
SOURCE_INSTRUMENT=Positive-Quattro_QQQ:40eV
FILENAME=hmdb_intermediate.mgf
SEQ=*..*
IONMODE=Positive
ORGANISM=HMDB
NAME=HMDB:HMDB01924-1854 Atenolol M+H
PI=HMDB
DATACOLLECTOR=HMDB
SMILES=CC(C)NCC(O)COC1=CC=C(CC(N)=O)C=C1
INCHI=InChI=1S/C14H22N2O3/c1-10(2)16-8-12(17)9-19-13-5-3-11(4-6-13)7-14(15)18/h3-6,10,12,16-17H,7-9H2,1-2H3,(H2,15,18)
INCHIAUX=N/A
PUBMED=N/A
SUBMITUSER=mwang87
TAGS=
LIBRARYQUALITY=3
SPECTRUMID=CCMSLIB00000425369
SCANS=341
56.079 100.0 
56.713 55.454 
74.338 52.094 
89.682 52.583 
90.95 59.304 
115.045 50.507 
133.053 51.262 
145.356 83.541 
END IONS

BEGIN IONS
PEPMASS=409.295
CHARGE=1+
MSLEVEL=2
SOURCE_INSTRUMENT=Positive-Quattro_QQQ:25eV
FILENAME=hmdb_intermediate.mgf
SEQ=*..*
IONMODE=Positive
ORGANISM=HMDB
NAME=HMDB:HMDB00364-580 3a,6a,7b-Trihydroxy-5b-cholanoic acid M+H
PI=HMDB
DATACOLLECTOR=HMDB
SMILES=[H][C@@]12CC[C@H]([C@H](C)CCC(O)=O)[C@@]1(C)CC[C@@]1([H])[C@@]2([H])[C@@H](O)[C@H](O)[C@]2([H])C[C@H](O)CC[C@]12C
INCHI=InChI=1S/C24H40O5/c1-13(4-7-19(26)27)15-5-6-16-20-17(9-11-23(15,16)2)24(3)10-8-14(25)12-18(24)21(28)22(20)29/h13-18,20-22,25,28-29H,4-12H2,1-3H3,(H,26,27)/t13-,14-,15-,16+,17+,18+,20+,21-,22-,23-,24-/m1/s1
INCHIAUX=N/A
PUBMED=N/A
SUBMITUSER=mwang87
TAGS=
LIBRARYQUALITY=3
SPECTRUMID=CCMSLIB00000425370
SCANS=342
409.09 100.0 
409.53 54.245 
END IONS

BEGIN IONS
PEPMASS=523.998
CHARGE=1+
MSLEVEL=2
SOURCE_INSTRUMENT=Positive-Quattro_QQQ:10eV
FILENAME=hmdb_intermediate.mgf
SEQ=*..*
IONMODE=Positive
ORGANISM=HMDB
NAME=HMDB:HMDB01273-1501 Guanosine triphosphate M+H
PI=HMDB
DATACOLLECTOR=HMDB
SMILES=NC1=NC2=C(N=CN2[C@@H]2O[C@H](COP(O)(=O)OP(O)(=O)OP(O)(O)=O)[C@@H](O)[C@H]2O)C(=O)N1
INCHI=InChI=1S/C10H16N5O14P3/c11-10-13-7-4(8(18)14-10)12-2-15(7)9-6(17)5(16)3(27-9)1-26-31(22,23)29-32(24,25)28-30(19,20)21/h2-3,5-6,9,16-17H,1H2,(H,22,23)(H,24,25)(H2,19,20,21)(H3,11,13,14,18)/t3-,5-,6-,9-/m1/s1
INCHIAUX=N/A
PUBMED=N/A
SUBMITUSER=mwang87
TAGS=
LIBRARYQUALITY=3
SPECTRUMID=CCMSLIB00000425371
SCANS=343
445.0 100.0 
446.0 76.776 
524.0 89.728 
END IONS

BEGIN IONS
PEPMASS=313.238
CHARGE=1+
MSLEVEL=2
SOURCE_INSTRUMENT=Negative-Quattro_QQQ:40eV
FILENAME=hmdb_intermediate.mgf
SEQ=*..*
IONMODE=Negative
ORGANISM=HMDB
NAME=HMDB:HMDB00782-1115 Octadecanedioic acid M-H
PI=HMDB
DATACOLLECTOR=HMDB
SMILES=OC(=O)CCCCCCCCCCCCCCCCC(O)=O
INCHI=InChI=1S/C18H34O4/c19-17(20)15-13-11-9-7-5-3-1-2-4-6-8-10-12-14-16-18(21)22/h1-16H2,(H,19,20)(H,21,22)
INCHIAUX=N/A
PUBMED=N/A
SUBMITUSER=mwang87
TAGS=
LIBRARYQUALITY=3
SPECTRUMID=CCMSLIB00000425372
SCANS=344
56.0 84.606 
57.0 59.501 
80.0 100.0 
END IONS

BEGIN IONS
PEPMASS=86.0606
CHARGE=1+
MSLEVEL=2
SOURCE_INSTRUMENT=Positive-Quattro_QQQ:25eV
FILENAME=hmdb_intermediate.mgf
SEQ=*..*
IONMODE=Positive
ORGANISM=HMDB
NAME=HMDB:HMDB02039-1960 2-Pyrrolidinone M+H
PI=HMDB
DATACOLLECTOR=HMDB
SMILES=O=C1CCCN1
INCHI=InChI=1S/C4H7NO/c6-4-2-1-3-5-4/h1-3H2,(H,5,6)
INCHIAUX=N/A
PUBMED=N/A
SUBMITUSER=mwang87
TAGS=
LIBRARYQUALITY=3
SPECTRUMID=CCMSLIB00000425373
SCANS=345
44.0 100.0 
86.0 60.72 
END IONS

BEGIN IONS
PEPMASS=634.219
CHARGE=1+
MSLEVEL=2
SOURCE_INSTRUMENT=Positive-Quattro_QQQ:10eV
FILENAME=hmdb_intermediate.mgf
SEQ=*..*
IONMODE=Positive
ORGANISM=HMDB
NAME=HMDB:HMDB00825-1173 3'-Sialyllactose M+H
PI=HMDB
DATACOLLECTOR=HMDB
SMILES=[H][C@]1(O[C@@](C[C@H](O)[C@H]1NC(C)=O)(O[C@H]1[C@@H](O)[C@@H](CO)O[C@@H](O[C@H]([C@H](O)CO)[C@H](O)[C@@H](O)C=O)[C@@H]1O)C(O)=O)[C@H](O)[C@H](O)CO
INCHI=InChI=1S/C23H39NO19/c1-7(29)24-13-8(30)2-23(22(38)39,42-19(13)15(35)10(32)4-26)43-20-16(36)12(6-28)40-21(17(20)37)41-18(11(33)5-27)14(34)9(31)3-25/h3,8-21,26-28,30-37H,2,4-6H2,1H3,(H,24,29)(H,38,39)/t8-,9-,10+,11+,12+,13+,14+,15+,16-,17+,18+,19+,20-,21-,23-/m0/s1
INCHIAUX=N/A
PUBMED=N/A
SUBMITUSER=mwang87
TAGS=
LIBRARYQUALITY=3
SPECTRUMID=CCMSLIB00000425374
SCANS=346
292.0 100.0 
END IONS

BEGIN IONS
PEPMASS=112.051
CHARGE=1+
MSLEVEL=2
SOURCE_INSTRUMENT=Positive-Quattro_QQQ:25eV
FILENAME=hmdb_intermediate.mgf
SEQ=*..*
IONMODE=Positive
ORGANISM=HMDB
NAME=HMDB:HMDB00630-859 Cytosine M+H
PI=HMDB
DATACOLLECTOR=HMDB
SMILES=NC1=CC=NC(=O)N1
INCHI=InChI=1S/C4H5N3O/c5-3-1-2-6-4(8)7-3/h1-2H,(H3,5,6,7,8)
INCHIAUX=N/A
PUBMED=N/A
SUBMITUSER=mwang87
TAGS=
LIBRARYQUALITY=3
SPECTRUMID=CCMSLIB00000425375
SCANS=347
94.835 100.0 
END IONS

BEGIN IONS
PEPMASS=138.092
CHARGE=1+
MSLEVEL=2
SOURCE_INSTRUMENT=Positive-Quattro_QQQ:40eV
FILENAME=hmdb_intermediate.mgf
SEQ=*..*
IONMODE=Positive
ORGANISM=HMDB
NAME=HMDB:HMDB01065-1411 2-Hydroxyphenethylamine M+H
PI=HMDB
DATACOLLECTOR=HMDB
SMILES=NCC(O)C1=CC=CC=C1
INCHI=InChI=1S/C8H11NO/c9-6-8(10)7-4-2-1-3-5-7/h1-5,8,10H,6,9H2
INCHIAUX=N/A
PUBMED=N/A
SUBMITUSER=mwang87
TAGS=
LIBRARYQUALITY=3
SPECTRUMID=CCMSLIB00000425376
SCANS=348
77.1 53.2262943329 
103.08 100.0 
END IONS

BEGIN IONS
PEPMASS=634.219
CHARGE=1+
MSLEVEL=2
SOURCE_INSTRUMENT=Positive-Quattro_QQQ:40eV
FILENAME=hmdb_intermediate.mgf
SEQ=*..*
IONMODE=Positive
ORGANISM=HMDB
NAME=HMDB:HMDB00825-1175 3'-Sialyllactose M+H
PI=HMDB
DATACOLLECTOR=HMDB
SMILES=[H][C@]1(O[C@@](C[C@H](O)[C@H]1NC(C)=O)(O[C@H]1[C@@H](O)[C@@H](CO)O[C@@H](O[C@H]([C@H](O)CO)[C@H](O)[C@@H](O)C=O)[C@@H]1O)C(O)=O)[C@H](O)[C@H](O)CO
INCHI=InChI=1S/C23H39NO19/c1-7(29)24-13-8(30)2-23(22(38)39,42-19(13)15(35)10(32)4-26)43-20-16(36)12(6-28)40-21(17(20)37)41-18(11(33)5-27)14(34)9(31)3-25/h3,8-21,26-28,30-37H,2,4-6H2,1H3,(H,24,29)(H,38,39)/t8-,9-,10+,11+,12+,13+,14+,15+,16-,17+,18+,19+,20-,21-,23-/m0/s1
INCHIAUX=N/A
PUBMED=N/A
SUBMITUSER=mwang87
TAGS=
LIBRARYQUALITY=3
SPECTRUMID=CCMSLIB00000425377
SCANS=349
163.0 67.195 
167.0 88.116 
197.0 51.238 
274.0 100.0 
END IONS

BEGIN IONS
PEPMASS=168.102
CHARGE=1+
MSLEVEL=2
SOURCE_INSTRUMENT=Positive-Quattro_QQQ:40eV
FILENAME=hmdb_intermediate.mgf
SEQ=*..*
IONMODE=Positive
ORGANISM=HMDB
NAME=HMDB:HMDB00022-41 3-Methoxytyramine M+H
PI=HMDB
DATACOLLECTOR=HMDB
SMILES=COC1=C(O)C=CC(CCN)=C1
INCHI=InChI=1S/C9H13NO2/c1-12-9-6-7(4-5-10)2-3-8(9)11/h2-3,6,11H,4-5,10H2,1H3
INCHIAUX=N/A
PUBMED=N/A
SUBMITUSER=mwang87
TAGS=
LIBRARYQUALITY=3
SPECTRUMID=CCMSLIB00000425378
SCANS=350
65.184 100.0 
91.049 83.105 
END IONS

BEGIN IONS
PEPMASS=117.019
CHARGE=1+
MSLEVEL=2
SOURCE_INSTRUMENT=Negative-Quattro_QQQ:10eV
FILENAME=hmdb_intermediate.mgf
SEQ=*..*
IONMODE=Negative
ORGANISM=HMDB
NAME=HMDB:HMDB00202-325 Methylmalonic acid M-H
PI=HMDB
DATACOLLECTOR=HMDB
SMILES=CC(C(O)=O)C(O)=O
INCHI=InChI=1S/C4H6O4/c1-2(3(5)6)4(7)8/h2H,1H3,(H,5,6)(H,7,8)
INCHIAUX=N/A
PUBMED=N/A
SUBMITUSER=mwang87
TAGS=
LIBRARYQUALITY=3
SPECTRUMID=CCMSLIB00000425379
SCANS=351
73.351 100.0 
END IONS

BEGIN IONS
PEPMASS=134.061
CHARGE=1+
MSLEVEL=2
SOURCE_INSTRUMENT=Positive-Quattro_QQQ:10eV
FILENAME=hmdb_intermediate.mgf
SEQ=*..*
IONMODE=Positive
ORGANISM=HMDB
NAME=HMDB:HMDB04094-2358 Indoxyl M+H
PI=HMDB
DATACOLLECTOR=HMDB
SMILES=OC1=CNC2=CC=CC=C12
INCHI=InChI=1S/C8H7NO/c10-8-5-9-7-4-2-1-3-6(7)8/h1-5,9-10H
INCHIAUX=N/A
PUBMED=N/A
SUBMITUSER=mwang87
TAGS=
LIBRARYQUALITY=3
SPECTRUMID=CCMSLIB00000425380
SCANS=352
134.0 100.0 
END IONS

BEGIN IONS
PEPMASS=155.034
CHARGE=1+
MSLEVEL=2
SOURCE_INSTRUMENT=Positive-Quattro_QQQ:40eV
FILENAME=hmdb_intermediate.mgf
SEQ=*..*
IONMODE=Positive
ORGANISM=HMDB
NAME=HMDB:HMDB01856-1725 Protocatechuic acid M+H
PI=HMDB
DATACOLLECTOR=HMDB
SMILES=OC(=O)C1=CC(O)=C(O)C=C1
INCHI=InChI=1S/C7H6O4/c8-5-2-1-4(7(10)11)3-6(5)9/h1-3,8-9H,(H,10,11)
INCHIAUX=N/A
PUBMED=N/A
SUBMITUSER=mwang87
TAGS=
LIBRARYQUALITY=3
SPECTRUMID=CCMSLIB00000425381
SCANS=353
65.217 100.0 
65.593 67.919 
END IONS

BEGIN IONS
PEPMASS=170.093
CHARGE=1+
MSLEVEL=2
SOURCE_INSTRUMENT=Positive-Quattro_QQQ:40eV
FILENAME=hmdb_intermediate.mgf
SEQ=*..*
IONMODE=Positive
ORGANISM=HMDB
NAME=HMDB:HMDB00001-3 1-Methylhistidine M+H
PI=HMDB
DATACOLLECTOR=HMDB
SMILES=CN1C=NC(C[C@H](N)C(O)=O)=C1
INCHI=InChI=1S/C7H11N3O2/c1-10-3-5(9-4-10)2-6(8)7(11)12/h3-4,6H,2,8H2,1H3,(H,11,12)/t6-/m0/s1
INCHIAUX=N/A
PUBMED=N/A
SUBMITUSER=mwang87
TAGS=
LIBRARYQUALITY=3
SPECTRUMID=CCMSLIB00000425382
SCANS=354
124.08 100.0 
END IONS

BEGIN IONS
PEPMASS=325.044
CHARGE=1+
MSLEVEL=2
SOURCE_INSTRUMENT=Positive-Quattro_QQQ:40eV
FILENAME=hmdb_intermediate.mgf
SEQ=*..*
IONMODE=Positive
ORGANISM=HMDB
NAME=HMDB:HMDB00288-488 Uridine 5'-monophosphate M+H
PI=HMDB
DATACOLLECTOR=HMDB
SMILES=O[C@H]1[C@@H](O)[C@@H](O[C@@H]1COP(O)(O)=O)N1C=CC(=O)NC1=O
INCHI=InChI=1S/C9H13N2O9P/c12-5-1-2-11(9(15)10-5)8-7(14)6(13)4(20-8)3-19-21(16,17)18/h1-2,4,6-8,13-14H,3H2,(H,10,12,15)(H2,16,17,18)/t4-,6-,7-,8-/m1/s1
INCHIAUX=N/A
PUBMED=N/A
SUBMITUSER=mwang87
TAGS=
LIBRARYQUALITY=3
SPECTRUMID=CCMSLIB00000425383
SCANS=355
113.0 100.0 
END IONS

BEGIN IONS
PEPMASS=117.019
CHARGE=1+
MSLEVEL=2
SOURCE_INSTRUMENT=Negative-Quattro_QQQ:25eV
FILENAME=hmdb_intermediate.mgf
SEQ=*..*
IONMODE=Negative
ORGANISM=HMDB
NAME=HMDB:HMDB00254-440 Succinic acid M-H
PI=HMDB
DATACOLLECTOR=HMDB
SMILES=OC(=O)CCC(O)=O
INCHI=InChI=1S/C4H6O4/c5-3(6)1-2-4(7)8/h1-2H2,(H,5,6)(H,7,8)
INCHIAUX=N/A
PUBMED=N/A
SUBMITUSER=mwang87
TAGS=
LIBRARYQUALITY=3
SPECTRUMID=CCMSLIB00000425384
SCANS=356
73.083 100.0 
END IONS

BEGIN IONS
PEPMASS=431.389
CHARGE=1+
MSLEVEL=2
SOURCE_INSTRUMENT=Positive-Quattro_QQQ:10eV
FILENAME=hmdb_intermediate.mgf
SEQ=*..*
IONMODE=Positive
ORGANISM=HMDB
NAME=HMDB:HMDB01893-1804 Alpha-Tocopherol M+H
PI=HMDB
DATACOLLECTOR=HMDB
SMILES=CC(C)CCC[C@@H](C)CCC[C@@H](C)CCC[C@]1(C)CCC2=C(O1)C(C)=C(C)C(O)=C2C
INCHI=InChI=1S/C29H50O2/c1-20(2)12-9-13-21(3)14-10-15-22(4)16-11-18-29(8)19-17-26-25(7)27(30)23(5)24(6)28(26)31-29/h20-22,30H,9-19H2,1-8H3/t21-,22-,29-/m1/s1
INCHIAUX=N/A
PUBMED=N/A
SUBMITUSER=mwang87
TAGS=
LIBRARYQUALITY=3
SPECTRUMID=CCMSLIB00000425385
SCANS=357
57.788 70.261 
83.56 54.261 
111.666 100.0 
164.2 95.478 
END IONS

BEGIN IONS
PEPMASS=89.0603
CHARGE=1+
MSLEVEL=2
SOURCE_INSTRUMENT=Positive-Quattro_QQQ:10eV
FILENAME=hmdb_intermediate.mgf
SEQ=*..*
IONMODE=Positive
ORGANISM=HMDB
NAME=HMDB:HMDB01873-1762 Isobutyric acid M+H
PI=HMDB
DATACOLLECTOR=HMDB
SMILES=CC(C)C(O)=O
INCHI=InChI=1S/C4H8O2/c1-3(2)4(5)6/h3H,1-2H3,(H,5,6)
INCHIAUX=N/A
PUBMED=N/A
SUBMITUSER=mwang87
TAGS=
LIBRARYQUALITY=3
SPECTRUMID=CCMSLIB00000425386
SCANS=358
71.183 68.513 
71.804 98.54 
72.675 69.032 
89.458 100.0 
89.582 75.705 
END IONS

BEGIN IONS
PEPMASS=255.066
CHARGE=1+
MSLEVEL=2
SOURCE_INSTRUMENT=Positive-Quattro_QQQ:10eV
FILENAME=hmdb_intermediate.mgf
SEQ=*..*
IONMODE=Positive
ORGANISM=HMDB
NAME=HMDB:HMDB03312-2236 Daidzein M+H
PI=HMDB
DATACOLLECTOR=HMDB
SMILES=OC1=CC=C(C=C1)C1=COC2=C(C=CC(O)=C2)C1=O
INCHI=InChI=1S/C15H10O4/c16-10-3-1-9(2-4-10)13-8-19-14-7-11(17)5-6-12(14)15(13)18/h1-8,16-17H
INCHIAUX=N/A
PUBMED=N/A
SUBMITUSER=mwang87
TAGS=
LIBRARYQUALITY=3
SPECTRUMID=CCMSLIB00000425387
SCANS=359
254.889 100.0 
END IONS

BEGIN IONS
PEPMASS=271.17
CHARGE=1+
MSLEVEL=2
SOURCE_INSTRUMENT=Positive-Quattro_QQQ:40eV
FILENAME=hmdb_intermediate.mgf
SEQ=*..*
IONMODE=Positive
ORGANISM=HMDB
NAME=HMDB:HMDB00145-220 Estrone M+H
PI=HMDB
DATACOLLECTOR=HMDB
SMILES=[H][C@@]12CCC(=O)[C@@]1(C)CC[C@]1([H])C3=C(CC[C@@]21[H])C=C(O)C=C3
INCHI=InChI=1S/C18H22O2/c1-18-9-8-14-13-5-3-12(19)10-11(13)2-4-15(14)16(18)6-7-17(18)20/h3,5,10,14-16,19H,2,4,6-9H2,1H3/t14-,15-,16+,18+/m1/s1
INCHIAUX=N/A
PUBMED=N/A
SUBMITUSER=mwang87
TAGS=
LIBRARYQUALITY=3
SPECTRUMID=CCMSLIB00000425388
SCANS=360
55.0 76.223 
67.0 63.682 
69.0 69.615 
79.0 68.087 
81.0 74.281 
91.0 93.79 
95.0 55.745 
105.0 100.0 
107.0 50.629 
119.0 83.393 
131.0 52.334 
END IONS

BEGIN IONS
PEPMASS=190.072
CHARGE=1+
MSLEVEL=2
SOURCE_INSTRUMENT=Positive-Quattro_QQQ:40eV
FILENAME=hmdb_intermediate.mgf
SEQ=*..*
IONMODE=Positive
ORGANISM=HMDB
NAME=HMDB:HMDB00590-815 Glutarylglycine M+H
PI=HMDB
DATACOLLECTOR=HMDB
SMILES=OC(=O)CCCC(=O)NCC(O)=O
INCHI=InChI=1S/C7H11NO5/c9-5(8-4-7(12)13)2-1-3-6(10)11/h1-4H2,(H,8,9)(H,10,11)(H,12,13)
INCHIAUX=N/A
PUBMED=N/A
SUBMITUSER=mwang87
TAGS=
LIBRARYQUALITY=3
SPECTRUMID=CCMSLIB00000425389
SCANS=361
77.0 100.0 
END IONS

BEGIN IONS
PEPMASS=112.087
CHARGE=1+
MSLEVEL=2
SOURCE_INSTRUMENT=Positive-Quattro_QQQ:40eV
FILENAME=hmdb_intermediate.mgf
SEQ=*..*
IONMODE=Positive
ORGANISM=HMDB
NAME=HMDB:HMDB00870-1225 Histamine M+H
PI=HMDB
DATACOLLECTOR=HMDB
SMILES=NCCC1=CNC=N1
INCHI=InChI=1S/C5H9N3/c6-2-1-5-3-7-4-8-5/h3-4H,1-2,6H2,(H,7,8)
INCHIAUX=N/A
PUBMED=N/A
SUBMITUSER=mwang87
TAGS=
LIBRARYQUALITY=3
SPECTRUMID=CCMSLIB00000425390
SCANS=362
41.316 100.0 
54.229 51.736 
67.854 50.0 
81.111 68.403 
END IONS

BEGIN IONS
PEPMASS=364.066
CHARGE=1+
MSLEVEL=2
SOURCE_INSTRUMENT=Positive-Quattro_QQQ:25eV
FILENAME=hmdb_intermediate.mgf
SEQ=*..*
IONMODE=Positive
ORGANISM=HMDB
NAME=HMDB:HMDB01397-1554 Guanosine monophosphate M+H
PI=HMDB
DATACOLLECTOR=HMDB
SMILES=NC1=NC2=C(N=CN2[C@@H]2O[C@H](COP(O)(O)=O)[C@@H](O)[C@H]2O)C(=O)N1
INCHI=InChI=1S/C10H14N5O8P/c11-10-13-7-4(8(18)14-10)12-2-15(7)9-6(17)5(16)3(23-9)1-22-24(19,20)21/h2-3,5-6,9,16-17H,1H2,(H2,19,20,21)(H3,11,13,14,18)/t3-,5-,6-,9-/m1/s1
INCHIAUX=N/A
PUBMED=N/A
SUBMITUSER=mwang87
TAGS=
LIBRARYQUALITY=3
SPECTRUMID=CCMSLIB00000425391
SCANS=363
152.0 100.0 
END IONS

BEGIN IONS
PEPMASS=59.0497
CHARGE=1+
MSLEVEL=2
SOURCE_INSTRUMENT=Positive-Quattro_QQQ:10eV
FILENAME=hmdb_intermediate.mgf
SEQ=*..*
IONMODE=Positive
ORGANISM=HMDB
NAME=HMDB:HMDB03366-2271 Propanal M+H
PI=HMDB
DATACOLLECTOR=HMDB
SMILES=CCC=O
INCHI=InChI=1S/C3H6O/c1-2-3-4/h3H,2H2,1H3
INCHIAUX=N/A
PUBMED=N/A
SUBMITUSER=mwang87
TAGS=
LIBRARYQUALITY=3
SPECTRUMID=CCMSLIB00000425392
SCANS=364
58.0 100.0 
END IONS

BEGIN IONS
PEPMASS=168.03
CHARGE=1+
MSLEVEL=2
SOURCE_INSTRUMENT=Positive-Quattro_QQQ:40eV
FILENAME=hmdb_intermediate.mgf
SEQ=*..*
IONMODE=Positive
ORGANISM=HMDB
NAME=HMDB:HMDB00232-390 Quinolinic acid M+H
PI=HMDB
DATACOLLECTOR=HMDB
SMILES=OC(=O)C1=CC=CN=C1C(O)=O
INCHI=InChI=1S/C7H5NO4/c9-6(10)4-2-1-3-8-5(4)7(11)12/h1-3H,(H,9,10)(H,11,12)
INCHIAUX=N/A
PUBMED=N/A
SUBMITUSER=mwang87
TAGS=
LIBRARYQUALITY=3
SPECTRUMID=CCMSLIB00000425393
SCANS=365
78.081 100.0 
END IONS

BEGIN IONS
PEPMASS=163.076
CHARGE=1+
MSLEVEL=2
SOURCE_INSTRUMENT=Negative-Quattro_QQQ:40eV
FILENAME=hmdb_intermediate.mgf
SEQ=*..*
IONMODE=Negative
ORGANISM=HMDB
NAME=HMDB:HMDB00329-542 2-Phenylbutyric acid M-H
PI=HMDB
DATACOLLECTOR=HMDB
SMILES=CCC(C(O)=O)C1=CC=CC=C1
INCHI=InChI=1S/C10H12O2/c1-2-9(10(11)12)8-6-4-3-5-7-8/h3-7,9H,2H2,1H3,(H,11,12)
INCHIAUX=N/A
PUBMED=N/A
SUBMITUSER=mwang87
TAGS=
LIBRARYQUALITY=3
SPECTRUMID=CCMSLIB00000425394
SCANS=366
90.347 64.74 
119.328 100.0 
END IONS

BEGIN IONS
PEPMASS=146.082
CHARGE=1+
MSLEVEL=2
SOURCE_INSTRUMENT=Positive-Quattro_QQQ:10eV
FILENAME=hmdb_intermediate.mgf
SEQ=*..*
IONMODE=Positive
ORGANISM=HMDB
NAME=HMDB:HMDB00808-1155 N-Butyrylglycine M+H
PI=HMDB
DATACOLLECTOR=HMDB
SMILES=CCCC(=O)NCC(O)=O
INCHI=InChI=1S/C6H11NO3/c1-2-3-5(8)7-4-6(9)10/h2-4H2,1H3,(H,7,8)(H,9,10)
INCHIAUX=N/A
PUBMED=N/A
SUBMITUSER=mwang87
TAGS=
LIBRARYQUALITY=3
SPECTRUMID=CCMSLIB00000425395
SCANS=367
71.392 69.399 
76.349 100.0 
END IONS

BEGIN IONS
PEPMASS=397.405
CHARGE=1+
MSLEVEL=2
SOURCE_INSTRUMENT=Positive-Quattro_QQQ:40eV
FILENAME=hmdb_intermediate.mgf
SEQ=*..*
IONMODE=Positive
ORGANISM=HMDB
NAME=HMDB:HMDB60125-2078 Hexacosanoic acid M+H
PI=HMDB
DATACOLLECTOR=HMDB
SMILES=CCCCCCCCCCCCCCCCCCCCCCCCCC(O)=O
INCHI=InChI=1S/C26H52O2/c1-2-3-4-5-6-7-8-9-10-11-12-13-14-15-16-17-18-19-20-21-22-23-24-25-26(27)28/h2-25H2,1H3,(H,27,28)
INCHIAUX=N/A
PUBMED=N/A
SUBMITUSER=mwang87
TAGS=
LIBRARYQUALITY=3
SPECTRUMID=CCMSLIB00000425396
SCANS=368
82.51 71.566 
252.19 100.0 
310.57 75.02 
END IONS

BEGIN IONS
PEPMASS=196.061
CHARGE=1+
MSLEVEL=2
SOURCE_INSTRUMENT=Positive-Quattro_QQQ:40eV
FILENAME=hmdb_intermediate.mgf
SEQ=*..*
IONMODE=Positive
ORGANISM=HMDB
NAME=HMDB:HMDB02404-2103 Alpha-Hydroxyhippuric acid M+H
PI=HMDB
DATACOLLECTOR=HMDB
SMILES=OC(NC(=O)C1=CC=CC=C1)C(O)=O
INCHI=InChI=1S/C9H9NO4/c11-7(10-8(12)9(13)14)6-4-2-1-3-5-6/h1-5,8,12H,(H,10,11)(H,13,14)
INCHIAUX=N/A
PUBMED=N/A
SUBMITUSER=mwang87
TAGS=
LIBRARYQUALITY=3
SPECTRUMID=CCMSLIB00000425397
SCANS=369
77.0 100.0 
END IONS

BEGIN IONS
PEPMASS=75.0082
CHARGE=1+
MSLEVEL=2
SOURCE_INSTRUMENT=Negative-Quattro_QQQ:10eV
FILENAME=hmdb_intermediate.mgf
SEQ=*..*
IONMODE=Negative
ORGANISM=HMDB
NAME=HMDB:HMDB00115-165 Glycolic acid M-H
PI=HMDB
DATACOLLECTOR=HMDB
SMILES=OCC(O)=O
INCHI=InChI=1S/C2H4O3/c3-1-2(4)5/h3H,1H2,(H,4,5)
INCHIAUX=N/A
PUBMED=N/A
SUBMITUSER=mwang87
TAGS=
LIBRARYQUALITY=3
SPECTRUMID=CCMSLIB00000425398
SCANS=370
75.111 100.0 
END IONS

BEGIN IONS
PEPMASS=132.102
CHARGE=1+
MSLEVEL=2
SOURCE_INSTRUMENT=Positive-Quattro_QQQ:10eV
FILENAME=hmdb_intermediate.mgf
SEQ=*..*
IONMODE=Positive
ORGANISM=HMDB
NAME=HMDB:HMDB01645-1669 L-Norleucine M+H
PI=HMDB
DATACOLLECTOR=HMDB
SMILES=CCCC[C@H](N)C(O)=O
INCHI=InChI=1S/C6H13NO2/c1-2-3-4-5(7)6(8)9/h5H,2-4,7H2,1H3,(H,8,9)/t5-/m0/s1
INCHIAUX=N/A
PUBMED=N/A
SUBMITUSER=mwang87
TAGS=
LIBRARYQUALITY=3
SPECTRUMID=CCMSLIB00000425399
SCANS=371
86.032 100.0 
END IONS

BEGIN IONS
PEPMASS=100.022
CHARGE=1+
MSLEVEL=2
SOURCE_INSTRUMENT=Positive-Quattro_QQQ:10eV
FILENAME=hmdb_intermediate.mgf
SEQ=*..*
IONMODE=Positive
ORGANISM=HMDB
NAME=HMDB:HMDB05843-2460 Allyl isothiocyanate M+H
PI=HMDB
DATACOLLECTOR=HMDB
SMILES=C=CCN=C=S
INCHI=InChI=1S/C4H5NS/c1-2-3-5-4-6/h2H,1,3H2
INCHIAUX=N/A
PUBMED=N/A
SUBMITUSER=mwang87
TAGS=
LIBRARYQUALITY=3
SPECTRUMID=CCMSLIB00000425400
SCANS=372
41.24 89.408 
99.69 100.0 
END IONS

BEGIN IONS
PEPMASS=87.0446
CHARGE=1+
MSLEVEL=2
SOURCE_INSTRUMENT=Positive-Quattro_QQQ:25eV
FILENAME=hmdb_intermediate.mgf
SEQ=*..*
IONMODE=Positive
ORGANISM=HMDB
NAME=HMDB:HMDB00549-774 Gamma-Butyrolactone M+H
PI=HMDB
DATACOLLECTOR=HMDB
SMILES=O=C1CCCO1
INCHI=InChI=1S/C4H6O2/c5-4-2-1-3-6-4/h1-3H2
INCHIAUX=N/A
PUBMED=N/A
SUBMITUSER=mwang87
TAGS=
LIBRARYQUALITY=3
SPECTRUMID=CCMSLIB00000425401
SCANS=373
87.1 100.0 
END IONS

BEGIN IONS
PEPMASS=177.103
CHARGE=1+
MSLEVEL=2
SOURCE_INSTRUMENT=Positive-Quattro_QQQ:10eV
FILENAME=hmdb_intermediate.mgf
SEQ=*..*
IONMODE=Positive
ORGANISM=HMDB
NAME=HMDB:HMDB00259-451 Serotonin M+H
PI=HMDB
DATACOLLECTOR=HMDB
SMILES=NCCC1=CNC2=CC=C(O)C=C12
INCHI=InChI=1S/C10H12N2O/c11-4-3-7-6-12-10-2-1-8(13)5-9(7)10/h1-2,5-6,12-13H,3-4,11H2
INCHIAUX=N/A
PUBMED=N/A
SUBMITUSER=mwang87
TAGS=
LIBRARYQUALITY=3
SPECTRUMID=CCMSLIB00000425402
SCANS=374
159.992 100.0 
END IONS

BEGIN IONS
PEPMASS=173.093
CHARGE=1+
MSLEVEL=2
SOURCE_INSTRUMENT=Positive-Quattro_QQQ:10eV
FILENAME=hmdb_intermediate.mgf
SEQ=*..*
IONMODE=Positive
ORGANISM=HMDB
NAME=HMDB:HMDB00721-1014 Glycylproline M+H
PI=HMDB
DATACOLLECTOR=HMDB
SMILES=NCC(=O)N1CCCC1C(O)=O
INCHI=InChI=1S/C7H12N2O3/c8-4-6(10)9-3-1-2-5(9)7(11)12/h5H,1-4,8H2,(H,11,12)
INCHIAUX=N/A
PUBMED=N/A
SUBMITUSER=mwang87
TAGS=
LIBRARYQUALITY=3
SPECTRUMID=CCMSLIB00000425403
SCANS=375
116.743 53.774 
173.089 100.0 
END IONS

BEGIN IONS
PEPMASS=170.022
CHARGE=1+
MSLEVEL=2
SOURCE_INSTRUMENT=Positive-Quattro_QQQ:40eV
FILENAME=hmdb_intermediate.mgf
SEQ=*..*
IONMODE=Positive
ORGANISM=HMDB
NAME=HMDB:HMDB00370-587 2-Amino-3-phosphonopropionic acid M+H
PI=HMDB
DATACOLLECTOR=HMDB
SMILES=NC(CP(O)(O)=O)C(O)=O
INCHI=InChI=1S/C3H8NO5P/c4-2(3(5)6)1-10(7,8)9/h2H,1,4H2,(H,5,6)(H2,7,8,9)
INCHIAUX=N/A
PUBMED=N/A
SUBMITUSER=mwang87
TAGS=
LIBRARYQUALITY=3
SPECTRUMID=CCMSLIB00000425404
SCANS=376
80.0 100.0 
END IONS

BEGIN IONS
PEPMASS=135.029
CHARGE=1+
MSLEVEL=2
SOURCE_INSTRUMENT=Positive-Quattro_QQQ:10eV
FILENAME=hmdb_intermediate.mgf
SEQ=*..*
IONMODE=Positive
ORGANISM=HMDB
NAME=HMDB:HMDB00156-239 L-Malic acid M+H
PI=HMDB
DATACOLLECTOR=HMDB
SMILES=O[C@@H](CC(O)=O)C(O)=O
INCHI=InChI=1S/C4H6O5/c5-2(4(8)9)1-3(6)7/h2,5H,1H2,(H,6,7)(H,8,9)/t2-/m0/s1
INCHIAUX=N/A
PUBMED=N/A
SUBMITUSER=mwang87
TAGS=
LIBRARYQUALITY=3
SPECTRUMID=CCMSLIB00000425405
SCANS=377
71.0 76.751 
89.0 100.0 
END IONS

BEGIN IONS
PEPMASS=255.232
CHARGE=1+
MSLEVEL=2
SOURCE_INSTRUMENT=Negative-Quattro_QQQ:40eV
FILENAME=hmdb_intermediate.mgf
SEQ=*..*
IONMODE=Negative
ORGANISM=HMDB
NAME=HMDB:HMDB60083-360 Palmitic acid M-H
PI=HMDB
DATACOLLECTOR=HMDB
SMILES=CCCCCCCCCCCCCCCC(O)=O
INCHI=InChI=1S/C16H32O2/c1-2-3-4-5-6-7-8-9-10-11-12-13-14-15-16(17)18/h2-15H2,1H3,(H,17,18)
INCHIAUX=N/A
PUBMED=N/A
SUBMITUSER=mwang87
TAGS=
LIBRARYQUALITY=3
SPECTRUMID=CCMSLIB00000425406
SCANS=378
45.359 77.931 
54.305 82.069 
75.123 100.0 
148.891 54.483 
END IONS

BEGIN IONS
PEPMASS=132.066
CHARGE=1+
MSLEVEL=2
SOURCE_INSTRUMENT=Positive-Quattro_QQQ:25eV
FILENAME=hmdb_intermediate.mgf
SEQ=*..*
IONMODE=Positive
ORGANISM=HMDB
NAME=HMDB:HMDB00766-1105 N-Acetyl-L-alanine M+H
PI=HMDB
DATACOLLECTOR=HMDB
SMILES=C[C@H](NC(C)=O)C(O)=O
INCHI=InChI=1S/C5H9NO3/c1-3(5(8)9)6-4(2)7/h3H,1-2H3,(H,6,7)(H,8,9)/t3-/m0/s1
INCHIAUX=N/A
PUBMED=N/A
SUBMITUSER=mwang87
TAGS=
LIBRARYQUALITY=3
SPECTRUMID=CCMSLIB00000425407
SCANS=379
43.242 57.927 
44.327 100.0 
END IONS

BEGIN IONS
PEPMASS=145.086
CHARGE=1+
MSLEVEL=2
SOURCE_INSTRUMENT=Positive-Quattro_QQQ:40eV
FILENAME=hmdb_intermediate.mgf
SEQ=*..*
IONMODE=Positive
ORGANISM=HMDB
NAME=HMDB:HMDB01988-1931 4-Hydroxycyclohexylcarboxylic acid M+H
PI=HMDB
DATACOLLECTOR=HMDB
SMILES=OC1CCC(CC1)C(O)=O
INCHI=InChI=1S/C7H12O3/c8-6-3-1-5(2-4-6)7(9)10/h5-6,8H,1-4H2,(H,9,10)
INCHIAUX=N/A
PUBMED=N/A
SUBMITUSER=mwang87
TAGS=
LIBRARYQUALITY=3
SPECTRUMID=CCMSLIB00000425408
SCANS=380
79.0 92.057 
81.0 100.0 
END IONS

BEGIN IONS
PEPMASS=61.0653
CHARGE=1+
MSLEVEL=2
SOURCE_INSTRUMENT=Positive-Quattro_QQQ:25eV
FILENAME=hmdb_intermediate.mgf
SEQ=*..*
IONMODE=Positive
ORGANISM=HMDB
NAME=HMDB:HMDB00863-1218 Isopropyl alcohol M+H
PI=HMDB
DATACOLLECTOR=HMDB
SMILES=CC(C)O
INCHI=InChI=1S/C3H8O/c1-3(2)4/h3-4H,1-2H3
INCHIAUX=N/A
PUBMED=N/A
SUBMITUSER=mwang87
TAGS=
LIBRARYQUALITY=3
SPECTRUMID=CCMSLIB00000425409
SCANS=381
42.0 68.177 
43.0 53.251 
60.0 100.0 
61.0 55.098 
END IONS

BEGIN IONS
PEPMASS=232.155
CHARGE=1+
MSLEVEL=2
SOURCE_INSTRUMENT=Positive-Quattro_QQQ:10eV
FILENAME=hmdb_intermediate.mgf
SEQ=*..*
IONMODE=Positive
ORGANISM=HMDB
NAME=HMDB:HMDB00736-1044 Isobutyryl-L-carnitine M+H
PI=HMDB
DATACOLLECTOR=HMDB
SMILES=CC(C)C(=O)OC(CC([O-])=O)C[N+](C)(C)C
INCHI=InChI=1S/C11H21NO4/c1-8(2)11(15)16-9(6-10(13)14)7-12(3,4)5/h8-9H,6-7H2,1-5H3
INCHIAUX=N/A
PUBMED=N/A
SUBMITUSER=mwang87
TAGS=
LIBRARYQUALITY=3
SPECTRUMID=CCMSLIB00000425410
SCANS=382
231.0 100.0 
END IONS

BEGIN IONS
PEPMASS=72.0449
CHARGE=1+
MSLEVEL=2
SOURCE_INSTRUMENT=Positive-Quattro_QQQ:10eV
FILENAME=hmdb_intermediate.mgf
SEQ=*..*
IONMODE=Positive
ORGANISM=HMDB
NAME=HMDB:HMDB04296-2379 Acrylamide M+H
PI=HMDB
DATACOLLECTOR=HMDB
SMILES=NC(=O)C=C
INCHI=InChI=1S/C3H5NO/c1-2-3(4)5/h2H,1H2,(H2,4,5)
INCHIAUX=N/A
PUBMED=N/A
SUBMITUSER=mwang87
TAGS=
LIBRARYQUALITY=3
SPECTRUMID=CCMSLIB00000425411
SCANS=383
55.02 92.682 
71.96 100.0 
END IONS

BEGIN IONS
PEPMASS=338.212
CHARGE=1+
MSLEVEL=2
SOURCE_INSTRUMENT=Positive-Quattro_QQQ:10eV
FILENAME=hmdb_intermediate.mgf
SEQ=*..*
IONMODE=Positive
ORGANISM=HMDB
NAME=HMDB:HMDB02835-2146 Danazol M+H
PI=HMDB
DATACOLLECTOR=HMDB
SMILES=[H][C@@]12CC[C@@](O)(C#C)[C@@]1(C)CC[C@@]1([H])[C@@]2([H])CCC2=CC3=C(C[C@]12C)C=NO3
INCHI=InChI=1S/C22H27NO2/c1-4-22(24)10-8-18-16-6-5-15-11-19-14(13-23-25-19)12-20(15,2)17(16)7-9-21(18,22)3/h1,11,13,16-18,24H,5-10,12H2,2-3H3/t16-,17+,18+,20+,21+,22+/m1/s1
INCHIAUX=N/A
PUBMED=N/A
SUBMITUSER=mwang87
TAGS=
LIBRARYQUALITY=3
SPECTRUMID=CCMSLIB00000425412
SCANS=384
338.06 100.0 
END IONS

BEGIN IONS
PEPMASS=105.115
CHARGE=1+
MSLEVEL=2
SOURCE_INSTRUMENT=Positive-Quattro_QQQ:25eV
FILENAME=hmdb_intermediate.mgf
SEQ=*..*
IONMODE=Positive
ORGANISM=HMDB
NAME=HMDB:HMDB00097-151 Choline M+H
PI=HMDB
DATACOLLECTOR=HMDB
SMILES=C[N+](C)(C)CCO
INCHI=InChI=1S/C5H14NO/c1-6(2,3)4-5-7/h7H,4-5H2,1-3H3/q+1
INCHIAUX=N/A
PUBMED=N/A
SUBMITUSER=mwang87
TAGS=
LIBRARYQUALITY=3
SPECTRUMID=CCMSLIB00000425413
SCANS=385
105.1 100.0 
END IONS

BEGIN IONS
PEPMASS=176.104
CHARGE=1+
MSLEVEL=2
SOURCE_INSTRUMENT=Positive-Quattro_QQQ:10eV
FILENAME=hmdb_intermediate.mgf
SEQ=*..*
IONMODE=Positive
ORGANISM=HMDB
NAME=HMDB:HMDB00904-1286 Citrulline M+H
PI=HMDB
DATACOLLECTOR=HMDB
SMILES=N[C@@H](CCCNC(N)=O)C(O)=O
INCHI=InChI=1S/C6H13N3O3/c7-4(5(10)11)2-1-3-9-6(8)12/h4H,1-3,7H2,(H,10,11)(H3,8,9,12)/t4-/m0/s1
INCHIAUX=N/A
PUBMED=N/A
SUBMITUSER=mwang87
TAGS=
LIBRARYQUALITY=3
SPECTRUMID=CCMSLIB00000425414
SCANS=386
158.913 100.0 
END IONS

BEGIN IONS
PEPMASS=72.9926
CHARGE=1+
MSLEVEL=2
SOURCE_INSTRUMENT=Negative-Quattro_QQQ:10eV
FILENAME=hmdb_intermediate.mgf
SEQ=*..*
IONMODE=Negative
ORGANISM=HMDB
NAME=HMDB:HMDB00119-171 Glyoxylic acid M-H
PI=HMDB
DATACOLLECTOR=HMDB
SMILES=OC(=O)C=O
INCHI=InChI=1S/C2H2O3/c3-1-2(4)5/h1H,(H,4,5)
INCHIAUX=N/A
PUBMED=N/A
SUBMITUSER=mwang87
TAGS=
LIBRARYQUALITY=3
SPECTRUMID=CCMSLIB00000425415
SCANS=387
73.068 100.0 
END IONS

BEGIN IONS
PEPMASS=302.055
CHARGE=1+
MSLEVEL=2
SOURCE_INSTRUMENT=Positive-Quattro_QQQ:40eV
FILENAME=hmdb_intermediate.mgf
SEQ=*..*
IONMODE=Positive
ORGANISM=HMDB
NAME=HMDB:HMDB00781-1112 N-Acetylgalactosamine 4-sulphate M+H
PI=HMDB
DATACOLLECTOR=HMDB
SMILES=CC(=O)N[C@H]1[C@H](O)O[C@H](CO)[C@H](OS(O)(=O)=O)[C@@H]1O
INCHI=InChI=1S/C8H15NO9S/c1-3(11)9-5-6(12)7(18-19(14,15)16)4(2-10)17-8(5)13/h4-8,10,12-13H,2H2,1H3,(H,9,11)(H,14,15,16)/t4-,5-,6-,7+,8-/m1/s1
INCHIAUX=N/A
PUBMED=N/A
SUBMITUSER=mwang87
TAGS=
LIBRARYQUALITY=3
SPECTRUMID=CCMSLIB00000425416
SCANS=388
84.0 100.0 
END IONS

BEGIN IONS
PEPMASS=78.0377
CHARGE=1+
MSLEVEL=2
SOURCE_INSTRUMENT=Positive-Quattro_QQQ:10eV
FILENAME=hmdb_intermediate.mgf
SEQ=*..*
IONMODE=Positive
ORGANISM=HMDB
NAME=HMDB:HMDB60150-2176 Cysteamine M+H
PI=HMDB
DATACOLLECTOR=HMDB
SMILES=NCCS
INCHI=InChI=1S/C2H7NS/c3-1-2-4/h4H,1-3H2
INCHIAUX=N/A
PUBMED=N/A
SUBMITUSER=mwang87
TAGS=
LIBRARYQUALITY=3
SPECTRUMID=CCMSLIB00000425417
SCANS=389
61.0 100.0 
END IONS

BEGIN IONS
PEPMASS=106.05
CHARGE=1+
MSLEVEL=2
SOURCE_INSTRUMENT=Positive-Quattro_QQQ:40eV
FILENAME=hmdb_intermediate.mgf
SEQ=*..*
IONMODE=Positive
ORGANISM=HMDB
NAME=HMDB:HMDB03406-2285 D-Serine M+H
PI=HMDB
DATACOLLECTOR=HMDB
SMILES=N[C@H](CO)C(O)=O
INCHI=InChI=1S/C3H7NO3/c4-2(1-5)3(6)7/h2,5H,1,4H2,(H,6,7)/t2-/m1/s1
INCHIAUX=N/A
PUBMED=N/A
SUBMITUSER=mwang87
TAGS=
LIBRARYQUALITY=3
SPECTRUMID=CCMSLIB00000425418
SCANS=390
42.18 100.0 
END IONS

BEGIN IONS
PEPMASS=160.134
CHARGE=1+
MSLEVEL=2
SOURCE_INSTRUMENT=Positive-Quattro_QQQ:10eV
FILENAME=hmdb_intermediate.mgf
SEQ=*..*
IONMODE=Positive
ORGANISM=HMDB
NAME=HMDB:HMDB00991-1381 DL-2-Aminooctanoic acid M+H
PI=HMDB
DATACOLLECTOR=HMDB
SMILES=CCCCCCC(N)C(O)=O
INCHI=InChI=1S/C8H17NO2/c1-2-3-4-5-6-7(9)8(10)11/h7H,2-6,9H2,1H3,(H,10,11)
INCHIAUX=N/A
PUBMED=N/A
SUBMITUSER=mwang87
TAGS=
LIBRARYQUALITY=3
SPECTRUMID=CCMSLIB00000425419
SCANS=391
160.048 100.0 
END IONS

BEGIN IONS
PEPMASS=126.103
CHARGE=1+
MSLEVEL=2
SOURCE_INSTRUMENT=Positive-Quattro_QQQ:25eV
FILENAME=hmdb_intermediate.mgf
SEQ=*..*
IONMODE=Positive
ORGANISM=HMDB
NAME=HMDB:HMDB01861-1739 3-Methylhistamine M+H
PI=HMDB
DATACOLLECTOR=HMDB
SMILES=CN1C=NC=C1CCN
INCHI=InChI=1S/C6H11N3/c1-9-5-8-4-6(9)2-3-7/h4-5H,2-3,7H2,1H3
INCHIAUX=N/A
PUBMED=N/A
SUBMITUSER=mwang87
TAGS=
LIBRARYQUALITY=3
SPECTRUMID=CCMSLIB00000425420
SCANS=392
95.465 54.065 
96.458 100.0 
96.582 96.563 
END IONS

BEGIN IONS
PEPMASS=185.045
CHARGE=1+
MSLEVEL=2
SOURCE_INSTRUMENT=Positive-Quattro_QQQ:10eV
FILENAME=hmdb_intermediate.mgf
SEQ=*..*
IONMODE=Positive
ORGANISM=HMDB
NAME=HMDB:HMDB01866-1747 3,4-Dihydroxymandelic acid M+H
PI=HMDB
DATACOLLECTOR=HMDB
SMILES=OC(C(O)=O)C1=CC=C(O)C(O)=C1
INCHI=InChI=1S/C8H8O5/c9-5-2-1-4(3-6(5)10)7(11)8(12)13/h1-3,7,9-11H,(H,12,13)
INCHIAUX=N/A
PUBMED=N/A
SUBMITUSER=mwang87
TAGS=
LIBRARYQUALITY=3
SPECTRUMID=CCMSLIB00000425421
SCANS=393
139.212 100.0 
184.581 69.955 
END IONS

BEGIN IONS
PEPMASS=149.06
CHARGE=1+
MSLEVEL=2
SOURCE_INSTRUMENT=Positive-Quattro_QQQ:25eV
FILENAME=hmdb_intermediate.mgf
SEQ=*..*
IONMODE=Positive
ORGANISM=HMDB
NAME=HMDB:HMDB00930-1325 trans-Cinnamic acid M+H
PI=HMDB
DATACOLLECTOR=HMDB
SMILES=OC(=O)\C=C\C1=CC=CC=C1
INCHI=InChI=1S/C9H8O2/c10-9(11)7-6-8-4-2-1-3-5-8/h1-7H,(H,10,11)/b7-6+
INCHIAUX=N/A
PUBMED=N/A
SUBMITUSER=mwang87
TAGS=
LIBRARYQUALITY=3
SPECTRUMID=CCMSLIB00000425422
SCANS=394
76.0 77.433 
102.0 100.0 
END IONS

BEGIN IONS
PEPMASS=465.304
CHARGE=1+
MSLEVEL=2
SOURCE_INSTRUMENT=Negative-Quattro_QQQ:25eV
FILENAME=hmdb_intermediate.mgf
SEQ=*..*
IONMODE=Negative
ORGANISM=HMDB
NAME=HMDB:HMDB00653-892 Cholesterol sulfate M-H
PI=HMDB
DATACOLLECTOR=HMDB
SMILES=[H][C@@]12CC[C@H]([C@H](C)CCCC(C)C)[C@@]1(C)CC[C@@]1([H])[C@@]2([H])CC=C2C[C@H](CC[C@]12C)OS(O)(=O)=O
INCHI=InChI=1S/C27H46O4S/c1-18(2)7-6-8-19(3)23-11-12-24-22-10-9-20-17-21(31-32(28,29)30)13-15-26(20,4)25(22)14-16-27(23,24)5/h9,18-19,21-25H,6-8,10-17H2,1-5H3,(H,28,29,30)/t19-,21+,22+,23-,24+,25+,26+,27-/m1/s1
INCHIAUX=N/A
PUBMED=N/A
SUBMITUSER=mwang87
TAGS=
LIBRARYQUALITY=3
SPECTRUMID=CCMSLIB00000425423
SCANS=395
465.48 93.3570604982 
465.66 100.0 
END IONS

BEGIN IONS
PEPMASS=137.024
CHARGE=1+
MSLEVEL=2
SOURCE_INSTRUMENT=Negative-Quattro_QQQ:10eV
FILENAME=hmdb_intermediate.mgf
SEQ=*..*
IONMODE=Negative
ORGANISM=HMDB
NAME=HMDB:HMDB01895-1810 Salicylic acid M-H
PI=HMDB
DATACOLLECTOR=HMDB
SMILES=OC(=O)C1=CC=CC=C1O
INCHI=InChI=1S/C7H6O3/c8-6-4-2-1-3-5(6)7(9)10/h1-4,8H,(H,9,10)
INCHIAUX=N/A
PUBMED=N/A
SUBMITUSER=mwang87
TAGS=
LIBRARYQUALITY=3
SPECTRUMID=CCMSLIB00000425424
SCANS=396
57.015 53.54 
98.467 76.838 
98.592 62.456 
139.424 100.0 
END IONS

BEGIN IONS
PEPMASS=133.061
CHARGE=1+
MSLEVEL=2
SOURCE_INSTRUMENT=Positive-Quattro_QQQ:40eV
FILENAME=hmdb_intermediate.mgf
SEQ=*..*
IONMODE=Positive
ORGANISM=HMDB
NAME=HMDB:HMDB00168-268 L-Asparagine M+H
PI=HMDB
DATACOLLECTOR=HMDB
SMILES=N[C@@H](CC(N)=O)C(O)=O
INCHI=InChI=1S/C4H8N2O3/c5-2(4(8)9)1-3(6)7/h2H,1,5H2,(H2,6,7)(H,8,9)/t2-/m0/s1
INCHIAUX=N/A
PUBMED=N/A
SUBMITUSER=mwang87
TAGS=
LIBRARYQUALITY=3
SPECTRUMID=CCMSLIB00000425425
SCANS=397
73.903 100.0 
END IONS

BEGIN IONS
PEPMASS=106.05
CHARGE=1+
MSLEVEL=2
SOURCE_INSTRUMENT=Positive-Quattro_QQQ:25eV
FILENAME=hmdb_intermediate.mgf
SEQ=*..*
IONMODE=Positive
ORGANISM=HMDB
NAME=HMDB:HMDB03406-2284 D-Serine M+H
PI=HMDB
DATACOLLECTOR=HMDB
SMILES=N[C@H](CO)C(O)=O
INCHI=InChI=1S/C3H7NO3/c4-2(1-5)3(6)7/h2,5H,1,4H2,(H,6,7)/t2-/m1/s1
INCHIAUX=N/A
PUBMED=N/A
SUBMITUSER=mwang87
TAGS=
LIBRARYQUALITY=3
SPECTRUMID=CCMSLIB00000425426
SCANS=398
60.01 100.0 
END IONS

BEGIN IONS
PEPMASS=177.103
CHARGE=1+
MSLEVEL=2
SOURCE_INSTRUMENT=Positive-Quattro_QQQ:10eV
FILENAME=hmdb_intermediate.mgf
SEQ=*..*
IONMODE=Positive
ORGANISM=HMDB
NAME=HMDB:HMDB01046-1397 Cotinine M+H
PI=HMDB
DATACOLLECTOR=HMDB
SMILES=CN1C(CCC1=O)C1=CN=CC=C1
INCHI=InChI=1S/C10H12N2O/c1-12-9(4-5-10(12)13)8-3-2-6-11-7-8/h2-3,6-7,9H,4-5H2,1H3
INCHIAUX=N/A
PUBMED=N/A
SUBMITUSER=mwang87
TAGS=
LIBRARYQUALITY=3
SPECTRUMID=CCMSLIB00000425427
SCANS=399
177.0 100.0 
END IONS

BEGIN IONS
PEPMASS=167.071
CHARGE=1+
MSLEVEL=2
SOURCE_INSTRUMENT=Positive-Quattro_QQQ:10eV
FILENAME=hmdb_intermediate.mgf
SEQ=*..*
IONMODE=Positive
ORGANISM=HMDB
NAME=HMDB:HMDB02072-1981 4-Methoxyphenylacetic acid M+H
PI=HMDB
DATACOLLECTOR=HMDB
SMILES=COC1=CC=C(CC(O)=O)C=C1
INCHI=InChI=1S/C9H10O3/c1-12-8-4-2-7(3-5-8)6-9(10)11/h2-5H,6H2,1H3,(H,10,11)
INCHIAUX=N/A
PUBMED=N/A
SUBMITUSER=mwang87
TAGS=
LIBRARYQUALITY=3
SPECTRUMID=CCMSLIB00000425428
SCANS=400
121.0 100.0 
END IONS

BEGIN IONS
PEPMASS=221.093
CHARGE=1+
MSLEVEL=2
SOURCE_INSTRUMENT=Positive-Quattro_QQQ:40eV
FILENAME=hmdb_intermediate.mgf
SEQ=*..*
IONMODE=Positive
ORGANISM=HMDB
NAME=HMDB:HMDB00472-688 5-Hydroxy-L-tryptophan M+H
PI=HMDB
DATACOLLECTOR=HMDB
SMILES=NC(CC1=CNC2=C1C=C(O)C=C2)C(O)=O
INCHI=InChI=1S/C11H12N2O3/c12-9(11(15)16)3-6-5-13-10-2-1-7(14)4-8(6)10/h1-2,4-5,9,13-14H,3,12H2,(H,15,16)
INCHIAUX=N/A
PUBMED=N/A
SUBMITUSER=mwang87
TAGS=
LIBRARYQUALITY=3
SPECTRUMID=CCMSLIB00000425429
SCANS=401
102.0 95.102 
105.0 50.069 
106.0 68.497 
129.0 52.32 
130.0 74.856 
131.0 53.781 
132.0 61.049 
133.0 100.0 
145.0 63.588 
146.0 52.16 
158.0 89.89 
END IONS

BEGIN IONS
PEPMASS=80.9646
CHARGE=1+
MSLEVEL=2
SOURCE_INSTRUMENT=Positive-Quattro_QQQ:10eV
FILENAME=hmdb_intermediate.mgf
SEQ=*..*
IONMODE=Positive
ORGANISM=HMDB
NAME=HMDB:HMDB00240-406 Sulfite M+H
PI=HMDB
DATACOLLECTOR=HMDB
SMILES=[O-]S([O-])=O
INCHI=InChI=1S/H2O3S/c1-4(2)3/h(H2,1,2,3)/p-2
INCHIAUX=N/A
PUBMED=N/A
SUBMITUSER=mwang87
TAGS=
LIBRARYQUALITY=3
SPECTRUMID=CCMSLIB00000425430
SCANS=402
54.152 100.0 
54.525 54.099 
81.253 53.08 
END IONS

BEGIN IONS
PEPMASS=222.098
CHARGE=1+
MSLEVEL=2
SOURCE_INSTRUMENT=Positive-Quattro_QQQ:40eV
FILENAME=hmdb_intermediate.mgf
SEQ=*..*
IONMODE=Positive
ORGANISM=HMDB
NAME=HMDB:HMDB00803-1146 Beta-N-Acetylglucosamine M+H
PI=HMDB
DATACOLLECTOR=HMDB
SMILES=CC(=O)N[C@H]1[C@H](O)O[C@H](CO)[C@@H](O)[C@@H]1O
INCHI=InChI=1S/C8H15NO6/c1-3(11)9-5-7(13)6(12)4(2-10)15-8(5)14/h4-8,10,12-14H,2H2,1H3,(H,9,11)/t4-,5-,6-,7-,8-/m1/s1
INCHIAUX=N/A
PUBMED=N/A
SUBMITUSER=mwang87
TAGS=
LIBRARYQUALITY=3
SPECTRUMID=CCMSLIB00000425431
SCANS=403
84.045 60.163 
96.1 100.0 
END IONS

BEGIN IONS
PEPMASS=167.034
CHARGE=1+
MSLEVEL=2
SOURCE_INSTRUMENT=Negative-Quattro_QQQ:25eV
FILENAME=hmdb_intermediate.mgf
SEQ=*..*
IONMODE=Negative
ORGANISM=HMDB
NAME=HMDB:HMDB00750-1072 3-Hydroxymandelic acid M-H
PI=HMDB
DATACOLLECTOR=HMDB
SMILES=OC(C(O)=O)C1=CC(O)=CC=C1
INCHI=InChI=1S/C8H8O4/c9-6-3-1-2-5(4-6)7(10)8(11)12/h1-4,7,9-10H,(H,11,12)
INCHIAUX=N/A
PUBMED=N/A
SUBMITUSER=mwang87
TAGS=
LIBRARYQUALITY=3
SPECTRUMID=CCMSLIB00000425432
SCANS=404
121.114 100.0 
END IONS

BEGIN IONS
PEPMASS=160.097
CHARGE=1+
MSLEVEL=2
SOURCE_INSTRUMENT=Positive-Quattro_QQQ:40eV
FILENAME=hmdb_intermediate.mgf
SEQ=*..*
IONMODE=Positive
ORGANISM=HMDB
NAME=HMDB:HMDB00927-1320 Valerylglycine M+H
PI=HMDB
DATACOLLECTOR=HMDB
SMILES=CCCCC(=O)NCC(O)=O
INCHI=InChI=1S/C7H13NO3/c1-2-3-4-6(9)8-5-7(10)11/h2-5H2,1H3,(H,8,9)(H,10,11)
INCHIAUX=N/A
PUBMED=N/A
SUBMITUSER=mwang87
TAGS=
LIBRARYQUALITY=3
SPECTRUMID=CCMSLIB00000425433
SCANS=405
41.667 100.0 
57.536 89.011 
END IONS

BEGIN IONS
PEPMASS=268.105
CHARGE=1+
MSLEVEL=2
SOURCE_INSTRUMENT=Positive-Quattro_QQQ:10eV
FILENAME=hmdb_intermediate.mgf
SEQ=*..*
IONMODE=Positive
ORGANISM=HMDB
NAME=HMDB:HMDB00050-81 Adenosine M+H
PI=HMDB
DATACOLLECTOR=HMDB
SMILES=NC1=NC=NC2=C1N=CN2[C@@H]1O[C@H](CO)[C@@H](O)[C@H]1O
INCHI=InChI=1S/C10H13N5O4/c11-8-5-9(13-2-12-8)15(3-14-5)10-7(18)6(17)4(1-16)19-10/h2-4,6-7,10,16-18H,1H2,(H2,11,12,13)/t4-,6-,7-,10-/m1/s1
INCHIAUX=N/A
PUBMED=N/A
SUBMITUSER=mwang87
TAGS=
LIBRARYQUALITY=3
SPECTRUMID=CCMSLIB00000425434
SCANS=406
135.965 97.368 
267.984 100.0 
END IONS

BEGIN IONS
PEPMASS=215.165
CHARGE=1+
MSLEVEL=2
SOURCE_INSTRUMENT=Negative-Quattro_QQQ:40eV
FILENAME=hmdb_intermediate.mgf
SEQ=*..*
IONMODE=Negative
ORGANISM=HMDB
NAME=HMDB:HMDB00387-596 3-Hydroxydodecanoic acid M-H
PI=HMDB
DATACOLLECTOR=HMDB
SMILES=CCCCCCCCCC(O)CC(O)=O
INCHI=InChI=1S/C12H24O3/c1-2-3-4-5-6-7-8-9-11(13)10-12(14)15/h11,13H,2-10H2,1H3,(H,14,15)
INCHIAUX=N/A
PUBMED=N/A
SUBMITUSER=mwang87
TAGS=
LIBRARYQUALITY=3
SPECTRUMID=CCMSLIB00000425435
SCANS=407
59.428 100.0 
END IONS

BEGIN IONS
PEPMASS=170.093
CHARGE=1+
MSLEVEL=2
SOURCE_INSTRUMENT=Positive-Quattro_QQQ:40eV
FILENAME=hmdb_intermediate.mgf
SEQ=*..*
IONMODE=Positive
ORGANISM=HMDB
NAME=HMDB:HMDB00479-697 3-Methylhistidine M+H
PI=HMDB
DATACOLLECTOR=HMDB
SMILES=CN1C=NC=C1C[C@H](N)C(O)=O
INCHI=InChI=1S/C7H11N3O2/c1-10-4-9-3-5(10)2-6(8)7(11)12/h3-4,6H,2,8H2,1H3,(H,11,12)/t6-/m0/s1
INCHIAUX=N/A
PUBMED=N/A
SUBMITUSER=mwang87
TAGS=
LIBRARYQUALITY=3
SPECTRUMID=CCMSLIB00000425436
SCANS=408
95.093 100.0 
END IONS

BEGIN IONS
PEPMASS=89.0239
CHARGE=1+
MSLEVEL=2
SOURCE_INSTRUMENT=Negative-Quattro_QQQ:40eV
FILENAME=hmdb_intermediate.mgf
SEQ=*..*
IONMODE=Negative
ORGANISM=HMDB
NAME=HMDB:HMDB00190-303 L-Lactic acid M-H
PI=HMDB
DATACOLLECTOR=HMDB
SMILES=C[C@H](O)C(O)=O
INCHI=InChI=1S/C3H6O3/c1-2(4)3(5)6/h2,4H,1H3,(H,5,6)/t2-/m0/s1
INCHIAUX=N/A
PUBMED=N/A
SUBMITUSER=mwang87
TAGS=
LIBRARYQUALITY=3
SPECTRUMID=CCMSLIB00000425437
SCANS=409
43.564 50.725 
45.48 54.71 
89.153 100.0 
END IONS

BEGIN IONS
PEPMASS=171.024
CHARGE=1+
MSLEVEL=2
SOURCE_INSTRUMENT=Positive-Quattro_QQQ:25eV
FILENAME=hmdb_intermediate.mgf
SEQ=*..*
IONMODE=Positive
ORGANISM=HMDB
NAME=HMDB:HMDB01460-1587 Diethylthiophosphate M+H
PI=HMDB
DATACOLLECTOR=HMDB
SMILES=CCOP(O)(=S)OCC
INCHI=InChI=1S/C4H11O3PS/c1-3-6-8(5,9)7-4-2/h3-4H2,1-2H3,(H,5,9)
INCHIAUX=N/A
PUBMED=N/A
SUBMITUSER=mwang87
TAGS=
LIBRARYQUALITY=3
SPECTRUMID=CCMSLIB00000425438
SCANS=410
97.0 100.0 
115.0 56.633 
END IONS

BEGIN IONS
PEPMASS=338.212
CHARGE=1+
MSLEVEL=2
SOURCE_INSTRUMENT=Positive-Quattro_QQQ:40eV
FILENAME=hmdb_intermediate.mgf
SEQ=*..*
IONMODE=Positive
ORGANISM=HMDB
NAME=HMDB:HMDB02835-2148 Danazol M+H
PI=HMDB
DATACOLLECTOR=HMDB
SMILES=[H][C@@]12CC[C@@](O)(C#C)[C@@]1(C)CC[C@@]1([H])[C@@]2([H])CCC2=CC3=C(C[C@]12C)C=NO3
INCHI=InChI=1S/C22H27NO2/c1-4-22(24)10-8-18-16-6-5-15-11-19-14(13-23-25-19)12-20(15,2)17(16)7-9-21(18,22)3/h1,11,13,16-18,24H,5-10,12H2,2-3H3/t16-,17+,18+,20+,21+,22+/m1/s1
INCHIAUX=N/A
PUBMED=N/A
SUBMITUSER=mwang87
TAGS=
LIBRARYQUALITY=3
SPECTRUMID=CCMSLIB00000425439
SCANS=411
90.971 100.0 
END IONS

BEGIN IONS
PEPMASS=90.0555
CHARGE=1+
MSLEVEL=2
SOURCE_INSTRUMENT=Positive-Quattro_QQQ:40eV
FILENAME=hmdb_intermediate.mgf
SEQ=*..*
IONMODE=Positive
ORGANISM=HMDB
NAME=HMDB:HMDB00056-92 Beta-Alanine M+H
PI=HMDB
DATACOLLECTOR=HMDB
SMILES=NCCC(O)=O
INCHI=InChI=1S/C3H7NO2/c4-2-1-3(5)6/h1-2,4H2,(H,5,6)
INCHIAUX=N/A
PUBMED=N/A
SUBMITUSER=mwang87
TAGS=
LIBRARYQUALITY=3
SPECTRUMID=CCMSLIB00000425440
SCANS=412
45.143 100.0 
END IONS

BEGIN IONS
PEPMASS=103.04
CHARGE=1+
MSLEVEL=2
SOURCE_INSTRUMENT=Negative-Quattro_QQQ:10eV
FILENAME=hmdb_intermediate.mgf
SEQ=*..*
IONMODE=Negative
ORGANISM=HMDB
NAME=HMDB:HMDB00008-10 2-Hydroxybutyric acid M-H
PI=HMDB
DATACOLLECTOR=HMDB
SMILES=CCC(O)C(O)=O
INCHI=InChI=1S/C4H8O3/c1-2-3(5)4(6)7/h3,5H,2H2,1H3,(H,6,7)
INCHIAUX=N/A
PUBMED=N/A
SUBMITUSER=mwang87
TAGS=
LIBRARYQUALITY=3
SPECTRUMID=CCMSLIB00000425441
SCANS=413
57.508 93.846 
103.272 100.0 
END IONS

BEGIN IONS
PEPMASS=147.126
CHARGE=1+
MSLEVEL=2
SOURCE_INSTRUMENT=Positive-Quattro_QQQ:40eV
FILENAME=hmdb_intermediate.mgf
SEQ=*..*
IONMODE=Positive
ORGANISM=HMDB
NAME=HMDB:HMDB00895-1264 Acetylcholine  M+H
PI=HMDB
DATACOLLECTOR=HMDB
SMILES=CC(=O)OCC[N+](C)(C)C
INCHI=InChI=1S/C7H16NO2/c1-7(9)10-6-5-8(2,3)4/h5-6H2,1-4H3/q+1
INCHIAUX=N/A
PUBMED=N/A
SUBMITUSER=mwang87
TAGS=
LIBRARYQUALITY=3
SPECTRUMID=CCMSLIB00000425442
SCANS=414
43.0 100.0 
END IONS

BEGIN IONS
PEPMASS=113.035
CHARGE=1+
MSLEVEL=2
SOURCE_INSTRUMENT=Positive-Quattro_QQQ:25eV
FILENAME=hmdb_intermediate.mgf
SEQ=*..*
IONMODE=Positive
ORGANISM=HMDB
NAME=HMDB:HMDB00300-511 Uracil M+H
PI=HMDB
DATACOLLECTOR=HMDB
SMILES=O=C1NC=CC(=O)N1
INCHI=InChI=1S/C4H4N2O2/c7-3-1-2-5-4(8)6-3/h1-2H,(H2,5,6,7,8)
INCHIAUX=N/A
PUBMED=N/A
SUBMITUSER=mwang87
TAGS=
LIBRARYQUALITY=3
SPECTRUMID=CCMSLIB00000425443
SCANS=415
70.086 100.0 
95.857 81.481 
END IONS

BEGIN IONS
PEPMASS=212.002
CHARGE=1+
MSLEVEL=2
SOURCE_INSTRUMENT=Negative-Quattro_QQQ:10eV
FILENAME=hmdb_intermediate.mgf
SEQ=*..*
IONMODE=Negative
ORGANISM=HMDB
NAME=HMDB:HMDB00682-945 Indoxyl sulfate M-H
PI=HMDB
DATACOLLECTOR=HMDB
SMILES=OS(=O)(=O)OC1=CNC2=CC=CC=C12
INCHI=InChI=1S/C8H7NO4S/c10-14(11,12)13-8-5-9-7-4-2-1-3-6(7)8/h1-5,9H,(H,10,11,12)
INCHIAUX=N/A
PUBMED=N/A
SUBMITUSER=mwang87
TAGS=
LIBRARYQUALITY=3
SPECTRUMID=CCMSLIB00000425444
SCANS=416
212.013 100.0 
END IONS

BEGIN IONS
PEPMASS=144.066
CHARGE=1+
MSLEVEL=2
SOURCE_INSTRUMENT=Positive-Quattro_QQQ:25eV
FILENAME=hmdb_intermediate.mgf
SEQ=*..*
IONMODE=Positive
ORGANISM=HMDB
NAME=HMDB:HMDB00894-1260 Vinylacetylglycine M+H
PI=HMDB
DATACOLLECTOR=HMDB
SMILES=OC(=O)CNC(=O)CC=C
INCHI=InChI=1S/C6H9NO3/c1-2-3-5(8)7-4-6(9)10/h2H,1,3-4H2,(H,7,8)(H,9,10)
INCHIAUX=N/A
PUBMED=N/A
SUBMITUSER=mwang87
TAGS=
LIBRARYQUALITY=3
SPECTRUMID=CCMSLIB00000425445
SCANS=417
68.99 100.0 
89.92 88.335 
END IONS

BEGIN IONS
PEPMASS=91.0031
CHARGE=1+
MSLEVEL=2
SOURCE_INSTRUMENT=Positive-Quattro_QQQ:25eV
FILENAME=hmdb_intermediate.mgf
SEQ=*..*
IONMODE=Positive
ORGANISM=HMDB
NAME=HMDB:HMDB02329-2062 Oxalic acid M+H
PI=HMDB
DATACOLLECTOR=HMDB
SMILES=OC(=O)C(O)=O
INCHI=InChI=1S/C2H2O4/c3-1(4)2(5)6/h(H,3,4)(H,5,6)
INCHIAUX=N/A
PUBMED=N/A
SUBMITUSER=mwang87
TAGS=
LIBRARYQUALITY=3
SPECTRUMID=CCMSLIB00000425446
SCANS=418
52.7 69.4444464699 
52.8 69.4444464699 
73.1 100.0 
END IONS

BEGIN IONS
PEPMASS=165.055
CHARGE=1+
MSLEVEL=2
SOURCE_INSTRUMENT=Positive-Quattro_QQQ:40eV
FILENAME=hmdb_intermediate.mgf
SEQ=*..*
IONMODE=Positive
ORGANISM=HMDB
NAME=HMDB:HMDB00205-330 Phenylpyruvic acid M+H
PI=HMDB
DATACOLLECTOR=HMDB
SMILES=OC(=O)C(=O)CC1=CC=CC=C1
INCHI=InChI=1S/C9H8O3/c10-8(9(11)12)6-7-4-2-1-3-5-7/h1-5H,6H2,(H,11,12)
INCHIAUX=N/A
PUBMED=N/A
SUBMITUSER=mwang87
TAGS=
LIBRARYQUALITY=3
SPECTRUMID=CCMSLIB00000425447
SCANS=419
77.0 100.0 
END IONS

BEGIN IONS
PEPMASS=159.041
CHARGE=1+
MSLEVEL=2
SOURCE_INSTRUMENT=Positive-Quattro_QQQ:40eV
FILENAME=hmdb_intermediate.mgf
SEQ=*..*
IONMODE=Positive
ORGANISM=HMDB
NAME=HMDB:HMDB00528-748 4,5-Dihydroorotic acid M+H
PI=HMDB
DATACOLLECTOR=HMDB
SMILES=OC(=O)C1CC(=O)NC(=O)N1
INCHI=InChI=1S/C5H6N2O4/c8-3-1-2(4(9)10)6-5(11)7-3/h2H,1H2,(H,9,10)(H2,6,7,8,11)
INCHIAUX=N/A
PUBMED=N/A
SUBMITUSER=mwang87
TAGS=
LIBRARYQUALITY=3
SPECTRUMID=CCMSLIB00000425448
SCANS=420
43.263 100.0 
44.402 60.714 
70.205 86.31 
END IONS

BEGIN IONS
PEPMASS=151.112
CHARGE=1+
MSLEVEL=2
SOURCE_INSTRUMENT=Positive-Quattro_QQQ:10eV
FILENAME=hmdb_intermediate.mgf
SEQ=*..*
IONMODE=Positive
ORGANISM=HMDB
NAME=HMDB:HMDB01878-1774 Thymol M+H
PI=HMDB
DATACOLLECTOR=HMDB
SMILES=CC(C)C1=C(O)C=C(C)C=C1
INCHI=InChI=1S/C10H14O/c1-7(2)9-5-4-8(3)6-10(9)11/h4-7,11H,1-3H3
INCHIAUX=N/A
PUBMED=N/A
SUBMITUSER=mwang87
TAGS=
LIBRARYQUALITY=3
SPECTRUMID=CCMSLIB00000425449
SCANS=421
89.474 100.0 
89.849 99.172 
110.443 59.716 
110.693 71.717 
150.76 51.555 
END IONS

BEGIN IONS
PEPMASS=201.113
CHARGE=1+
MSLEVEL=2
SOURCE_INSTRUMENT=Negative-Quattro_QQQ:40eV
FILENAME=hmdb_intermediate.mgf
SEQ=*..*
IONMODE=Negative
ORGANISM=HMDB
NAME=HMDB:HMDB00792-1131 Sebacic acid M-H
PI=HMDB
DATACOLLECTOR=HMDB
SMILES=OC(=O)CCCCCCCCC(O)=O
INCHI=InChI=1S/C10H18O4/c11-9(12)7-5-3-1-2-4-6-8-10(13)14/h1-8H2,(H,11,12)(H,13,14)
INCHIAUX=N/A
PUBMED=N/A
SUBMITUSER=mwang87
TAGS=
LIBRARYQUALITY=3
SPECTRUMID=CCMSLIB00000425450
SCANS=422
57.22 64.815 
183.076 61.728 
201.131 100.0 
END IONS

BEGIN IONS
PEPMASS=99.081
CHARGE=1+
MSLEVEL=2
SOURCE_INSTRUMENT=Positive-Quattro_QQQ:40eV
FILENAME=hmdb_intermediate.mgf
SEQ=*..*
IONMODE=Positive
ORGANISM=HMDB
NAME=HMDB:HMDB03315-2241 Cyclohexanone M+H
PI=HMDB
DATACOLLECTOR=HMDB
SMILES=O=C1CCCCC1
INCHI=InChI=1S/C6H10O/c7-6-4-2-1-3-5-6/h1-5H2
INCHIAUX=N/A
PUBMED=N/A
SUBMITUSER=mwang87
TAGS=
LIBRARYQUALITY=3
SPECTRUMID=CCMSLIB00000425451
SCANS=423
29.3 59.558 
31.23 64.306 
41.14 100.0 
END IONS

BEGIN IONS
PEPMASS=190.072
CHARGE=1+
MSLEVEL=2
SOURCE_INSTRUMENT=Positive-Quattro_QQQ:40eV
FILENAME=hmdb_intermediate.mgf
SEQ=*..*
IONMODE=Positive
ORGANISM=HMDB
NAME=HMDB:HMDB01138-1432 N-Acetylglutamic acid M+H
PI=HMDB
DATACOLLECTOR=HMDB
SMILES=CC(=O)NC(CCC(O)=O)C(O)=O
INCHI=InChI=1S/C7H11NO5/c1-4(9)8-5(7(12)13)2-3-6(10)11/h5H,2-3H2,1H3,(H,8,9)(H,10,11)(H,12,13)
INCHIAUX=N/A
PUBMED=N/A
SUBMITUSER=mwang87
TAGS=
LIBRARYQUALITY=3
SPECTRUMID=CCMSLIB00000425452
SCANS=424
56.198 75.394 
56.701 56.496 
84.38 100.0 
84.505 76.969 
END IONS

BEGIN IONS
PEPMASS=288.217
CHARGE=1+
MSLEVEL=2
SOURCE_INSTRUMENT=Positive-Quattro_QQQ:10eV
FILENAME=hmdb_intermediate.mgf
SEQ=*..*
IONMODE=Positive
ORGANISM=HMDB
NAME=HMDB:HMDB00791-1126 L-Octanoylcarnitine M+H
PI=HMDB
DATACOLLECTOR=HMDB
SMILES=CCCCCCCC(=O)O[C@H](CC([O-])=O)C[N+](C)(C)C
INCHI=InChI=1S/C15H29NO4/c1-5-6-7-8-9-10-15(19)20-13(11-14(17)18)12-16(2,3)4/h13H,5-12H2,1-4H3/t13-/m1/s1
INCHIAUX=N/A
PUBMED=N/A
SUBMITUSER=mwang87
TAGS=
LIBRARYQUALITY=3
SPECTRUMID=CCMSLIB00000425453
SCANS=425
85.267 79.681 
288.201 100.0 
END IONS

BEGIN IONS
PEPMASS=297.185
CHARGE=1+
MSLEVEL=2
SOURCE_INSTRUMENT=Positive-Quattro_QQQ:25eV
FILENAME=hmdb_intermediate.mgf
SEQ=*..*
IONMODE=Positive
ORGANISM=HMDB
NAME=HMDB:HMDB01926-1858 17a-Ethynylestradiol M+H
PI=HMDB
DATACOLLECTOR=HMDB
SMILES=[H][C@@]12CC[C@@](O)(C#C)[C@@]1(C)CC[C@]1([H])C3=CC=C(O)C=C3CC[C@@]21[H]
INCHI=InChI=1S/C20H24O2/c1-3-20(22)11-9-18-17-6-4-13-12-14(21)5-7-15(13)16(17)8-10-19(18,20)2/h1,5,7,12,16-18,21-22H,4,6,8-11H2,2H3/t16-,17-,18+,19+,20+/m1/s1
INCHIAUX=N/A
PUBMED=N/A
SUBMITUSER=mwang87
TAGS=
LIBRARYQUALITY=3
SPECTRUMID=CCMSLIB00000425454
SCANS=426
161.312 52.632 
184.505 100.0 
186.503 52.632 
188.51 77.632 
216.014 55.921 
251.157 50.0 
278.791 53.947 
END IONS

BEGIN IONS
PEPMASS=149.081
CHARGE=1+
MSLEVEL=2
SOURCE_INSTRUMENT=Positive-Quattro_QQQ:40eV
FILENAME=hmdb_intermediate.mgf
SEQ=*..*
IONMODE=Positive
ORGANISM=HMDB
NAME=HMDB:HMDB00227-378 Mevalonic acid M+H
PI=HMDB
DATACOLLECTOR=HMDB
SMILES=CC(O)(CCO)CC(O)=O
INCHI=InChI=1S/C6H12O4/c1-6(10,2-3-7)4-5(8)9/h7,10H,2-4H2,1H3,(H,8,9)
INCHIAUX=N/A
PUBMED=N/A
SUBMITUSER=mwang87
TAGS=
LIBRARYQUALITY=3
SPECTRUMID=CCMSLIB00000425455
SCANS=427
67.085 100.0 
END IONS

BEGIN IONS
PEPMASS=130.05
CHARGE=1+
MSLEVEL=2
SOURCE_INSTRUMENT=Positive-Quattro_QQQ:25eV
FILENAME=hmdb_intermediate.mgf
SEQ=*..*
IONMODE=Positive
ORGANISM=HMDB
NAME=HMDB:HMDB00267-464 Pyroglutamic acid M+H
PI=HMDB
DATACOLLECTOR=HMDB
SMILES=OC(=O)[C@@H]1CCC(=O)N1
INCHI=InChI=1S/C5H7NO3/c7-4-2-1-3(6-4)5(8)9/h3H,1-2H2,(H,6,7)(H,8,9)/t3-/m0/s1
INCHIAUX=N/A
PUBMED=N/A
SUBMITUSER=mwang87
TAGS=
LIBRARYQUALITY=3
SPECTRUMID=CCMSLIB00000425456
SCANS=428
56.226 53.614 
84.098 100.0 
END IONS

BEGIN IONS
PEPMASS=313.311
CHARGE=1+
MSLEVEL=2
SOURCE_INSTRUMENT=Positive-Quattro_QQQ:10eV
FILENAME=hmdb_intermediate.mgf
SEQ=*..*
IONMODE=Positive
ORGANISM=HMDB
NAME=HMDB:HMDB02212-2034 Arachidic acid M+H
PI=HMDB
DATACOLLECTOR=HMDB
SMILES=CCCCCCCCCCCCCCCCCCCC(O)=O
INCHI=InChI=1S/C20H40O2/c1-2-3-4-5-6-7-8-9-10-11-12-13-14-15-16-17-18-19-20(21)22/h2-19H2,1H3,(H,21,22)
INCHIAUX=N/A
PUBMED=N/A
SUBMITUSER=mwang87
TAGS=
LIBRARYQUALITY=3
SPECTRUMID=CCMSLIB00000425457
SCANS=429
312.0 100.0 
313.0 59.65 
END IONS

BEGIN IONS
PEPMASS=189.124
CHARGE=1+
MSLEVEL=2
SOURCE_INSTRUMENT=Positive-Quattro_QQQ:40eV
FILENAME=hmdb_intermediate.mgf
SEQ=*..*
IONMODE=Positive
ORGANISM=HMDB
NAME=HMDB:HMDB00446-652 N-Alpha-acetyllysine M+H
PI=HMDB
DATACOLLECTOR=HMDB
SMILES=CC(=O)NC(CCCCN)C(O)=O
INCHI=InChI=1S/C8H16N2O3/c1-6(11)10-7(8(12)13)4-2-3-5-9/h7H,2-5,9H2,1H3,(H,10,11)(H,12,13)
INCHIAUX=N/A
PUBMED=N/A
SUBMITUSER=mwang87
TAGS=
LIBRARYQUALITY=3
SPECTRUMID=CCMSLIB00000425458
SCANS=430
84.0 100.0 
END IONS

BEGIN IONS
PEPMASS=786.165
CHARGE=1+
MSLEVEL=2
SOURCE_INSTRUMENT=Positive-Quattro_QQQ:25eV
FILENAME=hmdb_intermediate.mgf
SEQ=*..*
IONMODE=Positive
ORGANISM=HMDB
NAME=HMDB:HMDB01248-1482 FAD M+H
PI=HMDB
DATACOLLECTOR=HMDB
SMILES=CC1=CC2=C(C=C1C)N(C[C@H](O)[C@H](O)[C@H](O)COP(O)(=O)OP(O)(=O)OC[C@H]1O[C@H]([C@H](O)[C@@H]1O)N1C=NC3=C1N=CN=C3N)C1=NC(=O)NC(=O)C1=N2
INCHI=InChI=1S/C27H33N9O15P2/c1-10-3-12-13(4-11(10)2)35(24-18(32-12)25(42)34-27(43)33-24)5-14(37)19(39)15(38)6-48-52(44,45)51-53(46,47)49-7-16-20(40)21(41)26(50-16)36-9-31-17-22(28)29-8-30-23(17)36/h3-4,8-9,14-16,19-21,26,37-41H,5-7H2,1-2H3,(H,44,45)(H,46,47)(H2,28,29,30)(H,34,42,43)/t14-,15+,16+,19-,20+,21+,26+/m0/s1
INCHIAUX=N/A
PUBMED=N/A
SUBMITUSER=mwang87
TAGS=
LIBRARYQUALITY=3
SPECTRUMID=CCMSLIB00000425459
SCANS=431
439.0 100.0 
440.0 78.954 
END IONS

BEGIN IONS
PEPMASS=115.003
CHARGE=1+
MSLEVEL=2
SOURCE_INSTRUMENT=Negative-Quattro_QQQ:40eV
FILENAME=hmdb_intermediate.mgf
SEQ=*..*
IONMODE=Negative
ORGANISM=HMDB
NAME=HMDB:HMDB00176-282 Maleic acid M-H
PI=HMDB
DATACOLLECTOR=HMDB
SMILES=OC(=O)\C=C/C(O)=O
INCHI=InChI=1S/C4H4O4/c5-3(6)1-2-4(7)8/h1-2H,(H,5,6)(H,7,8)/b2-1-
INCHIAUX=N/A
PUBMED=N/A
SUBMITUSER=mwang87
TAGS=
LIBRARYQUALITY=3
SPECTRUMID=CCMSLIB00000425460
SCANS=432
70.946 100.0 
114.927 59.615 
END IONS

BEGIN IONS
PEPMASS=77.0603
CHARGE=1+
MSLEVEL=2
SOURCE_INSTRUMENT=Positive-Quattro_QQQ:25eV
FILENAME=hmdb_intermediate.mgf
SEQ=*..*
IONMODE=Positive
ORGANISM=HMDB
NAME=HMDB:HMDB01881-1781 Propylene glycol M+H
PI=HMDB
DATACOLLECTOR=HMDB
SMILES=CC(O)CO
INCHI=InChI=1S/C3H8O2/c1-3(5)2-4/h3-5H,2H2,1H3
INCHIAUX=N/A
PUBMED=N/A
SUBMITUSER=mwang87
TAGS=
LIBRARYQUALITY=3
SPECTRUMID=CCMSLIB00000425461
SCANS=433
26.188 77.184 
29.774 62.661 
31.257 78.48 
32.493 60.589 
41.766 100.0 
43.497 56.7 
44.238 67.072 
45.351 65.254 
45.722 75.627 
59.074 74.591 
78.238 91.96 
END IONS

BEGIN IONS
PEPMASS=301.18
CHARGE=1+
MSLEVEL=2
SOURCE_INSTRUMENT=Positive-Quattro_QQQ:25eV
FILENAME=hmdb_intermediate.mgf
SEQ=*..*
IONMODE=Positive
ORGANISM=HMDB
NAME=HMDB:HMDB00010-14 2-Methoxyestrone M+H
PI=HMDB
DATACOLLECTOR=HMDB
SMILES=[H][C@@]12CCC(=O)[C@@]1(C)CC[C@]1([H])C3=C(CC[C@@]21[H])C=C(O)C(OC)=C3
INCHI=InChI=1S/C19H24O3/c1-19-8-7-12-13(15(19)5-6-18(19)21)4-3-11-9-16(20)17(22-2)10-14(11)12/h9-10,12-13,15,20H,3-8H2,1-2H3/t12-,13+,15-,19-/m0/s1
INCHIAUX=N/A
PUBMED=N/A
SUBMITUSER=mwang87
TAGS=
LIBRARYQUALITY=3
SPECTRUMID=CCMSLIB00000425462
SCANS=434
137.0 75.766 
163.0 98.421 
187.0 100.0 
189.0 89.309 
END IONS

BEGIN IONS
PEPMASS=167.034
CHARGE=1+
MSLEVEL=2
SOURCE_INSTRUMENT=Negative-Quattro_QQQ:25eV
FILENAME=hmdb_intermediate.mgf
SEQ=*..*
IONMODE=Negative
ORGANISM=HMDB
NAME=HMDB:HMDB00484-702 Vanillic acid M-H
PI=HMDB
DATACOLLECTOR=HMDB
SMILES=COC1=CC(=CC=C1O)C(O)=O
INCHI=InChI=1S/C8H8O4/c1-12-7-4-5(8(10)11)2-3-6(7)9/h2-4,9H,1H3,(H,10,11)
INCHIAUX=N/A
PUBMED=N/A
SUBMITUSER=mwang87
TAGS=
LIBRARYQUALITY=3
SPECTRUMID=CCMSLIB00000425463
SCANS=435
107.953 100.0 
END IONS

BEGIN IONS
PEPMASS=45.034
CHARGE=1+
MSLEVEL=2
SOURCE_INSTRUMENT=Positive-Quattro_QQQ:10eV
FILENAME=hmdb_intermediate.mgf
SEQ=*..*
IONMODE=Positive
ORGANISM=HMDB
NAME=HMDB:HMDB00990-1378 Acetaldehyde M+H
PI=HMDB
DATACOLLECTOR=HMDB
SMILES=CC=O
INCHI=InChI=1S/C2H4O/c1-2-3/h2H,1H3
INCHIAUX=N/A
PUBMED=N/A
SUBMITUSER=mwang87
TAGS=
LIBRARYQUALITY=3
SPECTRUMID=CCMSLIB00000425464
SCANS=436
30.661 54.056 
45.199 65.607 
45.826 100.0 
END IONS

BEGIN IONS
PEPMASS=115.051
CHARGE=1+
MSLEVEL=2
SOURCE_INSTRUMENT=Positive-Quattro_QQQ:25eV
FILENAME=hmdb_intermediate.mgf
SEQ=*..*
IONMODE=Positive
ORGANISM=HMDB
NAME=HMDB:HMDB00076-124 Dihydrouracil M+H
PI=HMDB
DATACOLLECTOR=HMDB
SMILES=O=C1CCNC(=O)N1
INCHI=InChI=1S/C4H6N2O2/c7-3-1-2-5-4(8)6-3/h1-2H2,(H2,5,6,7,8)
INCHIAUX=N/A
PUBMED=N/A
SUBMITUSER=mwang87
TAGS=
LIBRARYQUALITY=3
SPECTRUMID=CCMSLIB00000425465
SCANS=437
55.198 100.0 
END IONS

BEGIN IONS
PEPMASS=483.992
CHARGE=1+
MSLEVEL=2
SOURCE_INSTRUMENT=Positive-Quattro_QQQ:10eV
FILENAME=hmdb_intermediate.mgf
SEQ=*..*
IONMODE=Positive
ORGANISM=HMDB
NAME=HMDB:HMDB00082-132 Cytidine triphosphate M+H
PI=HMDB
DATACOLLECTOR=HMDB
SMILES=NC1=NC(=O)N(C=C1)[C@@H]1O[C@H](COP(O)(=O)OP(O)(=O)OP(O)(O)=O)[C@@H](O)[C@H]1O
INCHI=InChI=1S/C9H16N3O14P3/c10-5-1-2-12(9(15)11-5)8-7(14)6(13)4(24-8)3-23-28(19,20)26-29(21,22)25-27(16,17)18/h1-2,4,6-8,13-14H,3H2,(H,19,20)(H,21,22)(H2,10,11,15)(H2,16,17,18)/t4-,6-,7-,8-/m1/s1
INCHIAUX=N/A
PUBMED=N/A
SUBMITUSER=mwang87
TAGS=
LIBRARYQUALITY=3
SPECTRUMID=CCMSLIB00000425466
SCANS=438
126.149 57.143 
150.943 53.061 
225.947 55.102 
240.802 57.143 
260.936 51.02 
371.815 67.347 
376.113 71.429 
421.798 51.02 
425.851 51.02 
467.242 100.0 
END IONS

BEGIN IONS
PEPMASS=132.066
CHARGE=1+
MSLEVEL=2
SOURCE_INSTRUMENT=Positive-Quattro_QQQ:25eV
FILENAME=hmdb_intermediate.mgf
SEQ=*..*
IONMODE=Positive
ORGANISM=HMDB
NAME=HMDB:HMDB00725-1018 4-Hydroxyproline M+H
PI=HMDB
DATACOLLECTOR=HMDB
SMILES=O[C@H]1CN[C@@H](C1)C(O)=O
INCHI=InChI=1S/C5H9NO3/c7-3-1-4(5(8)9)6-2-3/h3-4,6-7H,1-2H2,(H,8,9)/t3-,4+/m1/s1
INCHIAUX=N/A
PUBMED=N/A
SUBMITUSER=mwang87
TAGS=
LIBRARYQUALITY=3
SPECTRUMID=CCMSLIB00000425467
SCANS=439
68.114 100.0 
86.026 65.774 
END IONS

BEGIN IONS
PEPMASS=406.234
CHARGE=1+
MSLEVEL=2
SOURCE_INSTRUMENT=Positive-Quattro_QQQ:25eV
FILENAME=hmdb_intermediate.mgf
SEQ=*..*
IONMODE=Positive
ORGANISM=HMDB
NAME=HMDB:HMDB01938-1891 Lisinopril M+H
PI=HMDB
DATACOLLECTOR=HMDB
SMILES=NCCCC[C@H](N[C@@H](CCC1=CC=CC=C1)C(O)=O)C(=O)N1CCC[C@H]1C(O)=O
INCHI=InChI=1S/C21H31N3O5/c22-13-5-4-9-16(19(25)24-14-6-10-18(24)21(28)29)23-17(20(26)27)12-11-15-7-2-1-3-8-15/h1-3,7-8,16-18,23H,4-6,9-14,22H2,(H,26,27)(H,28,29)/t16-,17-,18-/m0/s1
INCHIAUX=N/A
PUBMED=N/A
SUBMITUSER=mwang87
TAGS=
LIBRARYQUALITY=3
SPECTRUMID=CCMSLIB00000425468
SCANS=440
83.851 100.0 
84.592 76.471 
END IONS

BEGIN IONS
PEPMASS=159.139
CHARGE=1+
MSLEVEL=2
SOURCE_INSTRUMENT=Positive-Quattro_QQQ:40eV
FILENAME=hmdb_intermediate.mgf
SEQ=*..*
IONMODE=Positive
ORGANISM=HMDB
NAME=HMDB:HMDB00847-1195 Pelargonic acid M+H
PI=HMDB
DATACOLLECTOR=HMDB
SMILES=CCCCCCCCC(O)=O
INCHI=InChI=1S/C9H18O2/c1-2-3-4-5-6-7-8-9(10)11/h2-8H2,1H3,(H,10,11)
INCHIAUX=N/A
PUBMED=N/A
SUBMITUSER=mwang87
TAGS=
LIBRARYQUALITY=3
SPECTRUMID=CCMSLIB00000425469
SCANS=441
29.0 54.564 
41.0 100.0 
43.0 78.628 
END IONS

BEGIN IONS
PEPMASS=194.082
CHARGE=1+
MSLEVEL=2
SOURCE_INSTRUMENT=Positive-Quattro_QQQ:10eV
FILENAME=hmdb_intermediate.mgf
SEQ=*..*
IONMODE=Positive
ORGANISM=HMDB
NAME=HMDB:HMDB00821-1170 Phenylacetylglycine M+H
PI=HMDB
DATACOLLECTOR=HMDB
SMILES=OC(=O)CNC(=O)CC1=CC=CC=C1
INCHI=InChI=1S/C10H11NO3/c12-9(11-7-10(13)14)6-8-4-2-1-3-5-8/h1-5H,6-7H2,(H,11,12)(H,13,14)
INCHIAUX=N/A
PUBMED=N/A
SUBMITUSER=mwang87
TAGS=
LIBRARYQUALITY=3
SPECTRUMID=CCMSLIB00000425470
SCANS=442
76.0 100.0 
END IONS

BEGIN IONS
PEPMASS=291.232
CHARGE=1+
MSLEVEL=2
SOURCE_INSTRUMENT=Positive-Quattro_QQQ:10eV
FILENAME=hmdb_intermediate.mgf
SEQ=*..*
IONMODE=Positive
ORGANISM=HMDB
NAME=HMDB:HMDB00490-707 Etiocholanolone M+H
PI=HMDB
DATACOLLECTOR=HMDB
SMILES=[H][C@@]12CCC(=O)[C@@]1(C)CC[C@@]1([H])[C@@]2([H])CC[C@]2([H])C[C@H](O)CC[C@]12C
INCHI=InChI=1S/C19H30O2/c1-18-9-7-13(20)11-12(18)3-4-14-15-5-6-17(21)19(15,2)10-8-16(14)18/h12-16,20H,3-11H2,1-2H3/t12-,13-,14+,15+,16+,18+,19+/m1/s1
INCHIAUX=N/A
PUBMED=N/A
SUBMITUSER=mwang87
TAGS=
LIBRARYQUALITY=3
SPECTRUMID=CCMSLIB00000425471
SCANS=443
246.281 100.0 
249.742 69.659 
259.138 57.467 
291.902 58.821 
END IONS

BEGIN IONS
PEPMASS=167.034
CHARGE=1+
MSLEVEL=2
SOURCE_INSTRUMENT=Positive-Quattro_QQQ:25eV
FILENAME=hmdb_intermediate.mgf
SEQ=*..*
IONMODE=Positive
ORGANISM=HMDB
NAME=HMDB:HMDB02107-2005 Phthalic acid M+H
PI=HMDB
DATACOLLECTOR=HMDB
SMILES=OC(=O)C1=CC=CC=C1C(O)=O
INCHI=InChI=1S/C8H6O4/c9-7(10)5-3-1-2-4-6(5)8(11)12/h1-4H,(H,9,10)(H,11,12)
INCHIAUX=N/A
PUBMED=N/A
SUBMITUSER=mwang87
TAGS=
LIBRARYQUALITY=3
SPECTRUMID=CCMSLIB00000425472
SCANS=444
65.0 89.389 
93.0 100.0 
END IONS

BEGIN IONS
PEPMASS=227.128
CHARGE=1+
MSLEVEL=2
SOURCE_INSTRUMENT=Negative-Quattro_QQQ:40eV
FILENAME=hmdb_intermediate.mgf
SEQ=*..*
IONMODE=Negative
ORGANISM=HMDB
NAME=HMDB:HMDB00933-1329 Traumatic acid M-H
PI=HMDB
DATACOLLECTOR=HMDB
SMILES=OC(=O)CCCCCCCC\C=C\C(O)=O
INCHI=InChI=1S/C12H20O4/c13-11(14)9-7-5-3-1-2-4-6-8-10-12(15)16/h7,9H,1-6,8,10H2,(H,13,14)(H,15,16)/b9-7+
INCHIAUX=N/A
PUBMED=N/A
SUBMITUSER=mwang87
TAGS=
LIBRARYQUALITY=3
SPECTRUMID=CCMSLIB00000425473
SCANS=445
56.23 86.962 
68.35 85.256 
127.88 50.813 
157.55 100.0 
196.83 80.482 
END IONS

BEGIN IONS
PEPMASS=81.0453
CHARGE=1+
MSLEVEL=2
SOURCE_INSTRUMENT=Positive-Quattro_QQQ:25eV
FILENAME=hmdb_intermediate.mgf
SEQ=*..*
IONMODE=Positive
ORGANISM=HMDB
NAME=HMDB:HMDB03361-2266 Pyrimidine M+H
PI=HMDB
DATACOLLECTOR=HMDB
SMILES=C1=CN=CN=C1
INCHI=InChI=1S/C4H4N2/c1-2-5-4-6-3-1/h1-4H
INCHIAUX=N/A
PUBMED=N/A
SUBMITUSER=mwang87
TAGS=
LIBRARYQUALITY=3
SPECTRUMID=CCMSLIB00000425474
SCANS=446
54.05 100.0 
END IONS

BEGIN IONS
PEPMASS=134.045
CHARGE=1+
MSLEVEL=2
SOURCE_INSTRUMENT=Positive-Quattro_QQQ:40eV
FILENAME=hmdb_intermediate.mgf
SEQ=*..*
IONMODE=Positive
ORGANISM=HMDB
NAME=HMDB:HMDB06483-2489 D-Aspartic acid M+H
PI=HMDB
DATACOLLECTOR=HMDB
SMILES=N[C@H](CC(O)=O)C(O)=O
INCHI=InChI=1S/C4H7NO4/c5-2(4(8)9)1-3(6)7/h2H,1,5H2,(H,6,7)(H,8,9)/t2-/m1/s1
INCHIAUX=N/A
PUBMED=N/A
SUBMITUSER=mwang87
TAGS=
LIBRARYQUALITY=3
SPECTRUMID=CCMSLIB00000425475
SCANS=447
74.04 100.0 
END IONS

BEGIN IONS
PEPMASS=129.019
CHARGE=1+
MSLEVEL=2
SOURCE_INSTRUMENT=Negative-Quattro_QQQ:10eV
FILENAME=hmdb_intermediate.mgf
SEQ=*..*
IONMODE=Negative
ORGANISM=HMDB
NAME=HMDB:HMDB00634-864 Citraconic acid M-H
PI=HMDB
DATACOLLECTOR=HMDB
SMILES=C\C(=C\C(O)=O)C(O)=O
INCHI=InChI=1S/C5H6O4/c1-3(5(8)9)2-4(6)7/h2H,1H3,(H,6,7)(H,8,9)/b3-2-
INCHIAUX=N/A
PUBMED=N/A
SUBMITUSER=mwang87
TAGS=
LIBRARYQUALITY=3
SPECTRUMID=CCMSLIB00000425476
SCANS=448
85.326 100.0 
END IONS

BEGIN IONS
PEPMASS=111.008
CHARGE=1+
MSLEVEL=2
SOURCE_INSTRUMENT=Negative-Quattro_QQQ:25eV
FILENAME=hmdb_intermediate.mgf
SEQ=*..*
IONMODE=Negative
ORGANISM=HMDB
NAME=HMDB:HMDB00617-832 2-Furoic acid M-H
PI=HMDB
DATACOLLECTOR=HMDB
SMILES=OC(=O)C1=CC=CO1
INCHI=InChI=1S/C5H4O3/c6-5(7)4-2-1-3-8-4/h1-3H,(H,6,7)
INCHIAUX=N/A
PUBMED=N/A
SUBMITUSER=mwang87
TAGS=
LIBRARYQUALITY=3
SPECTRUMID=CCMSLIB00000425477
SCANS=449
67.065 100.0 
END IONS

BEGIN IONS
PEPMASS=100.022
CHARGE=1+
MSLEVEL=2
SOURCE_INSTRUMENT=Positive-Quattro_QQQ:40eV
FILENAME=hmdb_intermediate.mgf
SEQ=*..*
IONMODE=Positive
ORGANISM=HMDB
NAME=HMDB:HMDB05843-2462 Allyl isothiocyanate M+H
PI=HMDB
DATACOLLECTOR=HMDB
SMILES=C=CCN=C=S
INCHI=InChI=1S/C4H5NS/c1-2-3-5-4-6/h2H,1,3H2
INCHIAUX=N/A
PUBMED=N/A
SUBMITUSER=mwang87
TAGS=
LIBRARYQUALITY=3
SPECTRUMID=CCMSLIB00000425478
SCANS=450
39.21 79.407 
39.5 87.69 
41.1 100.0 
END IONS

BEGIN IONS
PEPMASS=159.066
CHARGE=1+
MSLEVEL=2
SOURCE_INSTRUMENT=Positive-Quattro_QQQ:40eV
FILENAME=hmdb_intermediate.mgf
SEQ=*..*
IONMODE=Positive
ORGANISM=HMDB
NAME=HMDB:HMDB00635-869 Succinylacetone M+H
PI=HMDB
DATACOLLECTOR=HMDB
SMILES=CC(=O)CC(=O)CCC(O)=O
INCHI=InChI=1S/C7H10O4/c1-5(8)4-6(9)2-3-7(10)11/h2-4H2,1H3,(H,10,11)
INCHIAUX=N/A
PUBMED=N/A
SUBMITUSER=mwang87
TAGS=
LIBRARYQUALITY=3
SPECTRUMID=CCMSLIB00000425479
SCANS=451
158.69 100.0 
END IONS

BEGIN IONS
PEPMASS=389.378
CHARGE=1+
MSLEVEL=2
SOURCE_INSTRUMENT=Positive-Quattro_QQQ:10eV
FILENAME=hmdb_intermediate.mgf
SEQ=*..*
IONMODE=Positive
ORGANISM=HMDB
NAME=HMDB:HMDB00908-1295 5alpha-Cholestanol M+H
PI=HMDB
DATACOLLECTOR=HMDB
SMILES=[H][C@@]1(CC[C@@]2([H])[C@]3([H])CC[C@@]4([H])C[C@@H](O)CC[C@]4(C)[C@@]3([H])CC[C@]12C)[C@H](C)CCCC(C)C
INCHI=InChI=1S/C27H48O/c1-18(2)7-6-8-19(3)23-11-12-24-22-10-9-20-17-21(28)13-15-26(20,4)25(22)14-16-27(23,24)5/h18-25,28H,6-17H2,1-5H3/t19-,20+,21+,22+,23-,24+,25+,26+,27-/m1/s1
INCHIAUX=N/A
PUBMED=N/A
SUBMITUSER=mwang87
TAGS=
LIBRARYQUALITY=3
SPECTRUMID=CCMSLIB00000425480
SCANS=452
387.0 62.506 
388.0 100.0 
END IONS

BEGIN IONS
PEPMASS=442.147
CHARGE=1+
MSLEVEL=2
SOURCE_INSTRUMENT=Positive-Quattro_QQQ:25eV
FILENAME=hmdb_intermediate.mgf
SEQ=*..*
IONMODE=Positive
ORGANISM=HMDB
NAME=HMDB:HMDB00121-175 Folic acid M+H
PI=HMDB
DATACOLLECTOR=HMDB
SMILES=NC1=NC(=O)C2=NC(CNC3=CC=C(C=C3)C(=O)N[C@@H](CCC(O)=O)C(O)=O)=CN=C2N1
INCHI=InChI=1S/C19H19N7O6/c20-19-25-15-14(17(30)26-19)23-11(8-22-15)7-21-10-3-1-9(2-4-10)16(29)24-12(18(31)32)5-6-13(27)28/h1-4,8,12,21H,5-7H2,(H,24,29)(H,27,28)(H,31,32)(H3,20,22,25,26,30)/t12-/m0/s1
INCHIAUX=N/A
PUBMED=N/A
SUBMITUSER=mwang87
TAGS=
LIBRARYQUALITY=3
SPECTRUMID=CCMSLIB00000425481
SCANS=453
294.76 83.346 
441.8 77.355 
442.54 100.0 
END IONS

BEGIN IONS
PEPMASS=553.237
CHARGE=1+
MSLEVEL=2
SOURCE_INSTRUMENT=Negative-Quattro_QQQ:25eV
FILENAME=hmdb_intermediate.mgf
SEQ=*..*
IONMODE=Negative
ORGANISM=HMDB
NAME=HMDB:HMDB03828-2344 D-Pantethine M-H
PI=HMDB
DATACOLLECTOR=HMDB
SMILES=CC(C)(CO)[C@@H](O)C(=O)NCCC(=O)NCCSSCCNC(=O)CCNC(=O)[C@H](O)C(C)(C)CO
INCHI=InChI=1S/C22H42N4O8S2/c1-21(2,13-27)17(31)19(33)25-7-5-15(29)23-9-11-35-36-12-10-24-16(30)6-8-26-20(34)18(32)22(3,4)14-28/h17-18,27-28,31-32H,5-14H2,1-4H3,(H,23,29)(H,24,30)(H,25,33)(H,26,34)/t17-,18-/m0/s1
INCHIAUX=N/A
PUBMED=N/A
SUBMITUSER=mwang87
TAGS=
LIBRARYQUALITY=3
SPECTRUMID=CCMSLIB00000425482
SCANS=454
275.0 100.0 
277.0 79.035 
END IONS

BEGIN IONS
PEPMASS=201.113
CHARGE=1+
MSLEVEL=2
SOURCE_INSTRUMENT=Negative-Quattro_QQQ:25eV
FILENAME=hmdb_intermediate.mgf
SEQ=*..*
IONMODE=Negative
ORGANISM=HMDB
NAME=HMDB:HMDB00792-1130 Sebacic acid M-H
PI=HMDB
DATACOLLECTOR=HMDB
SMILES=OC(=O)CCCCCCCCC(O)=O
INCHI=InChI=1S/C10H18O4/c11-9(12)7-5-3-1-2-4-6-8-10(13)14/h1-8H2,(H,11,12)(H,13,14)
INCHIAUX=N/A
PUBMED=N/A
SUBMITUSER=mwang87
TAGS=
LIBRARYQUALITY=3
SPECTRUMID=CCMSLIB00000425483
SCANS=455
57.22 70.861 
182.998 100.0 
END IONS

BEGIN IONS
PEPMASS=126.103
CHARGE=1+
MSLEVEL=2
SOURCE_INSTRUMENT=Positive-Quattro_QQQ:10eV
FILENAME=hmdb_intermediate.mgf
SEQ=*..*
IONMODE=Positive
ORGANISM=HMDB
NAME=HMDB:HMDB01861-1738 3-Methylhistamine M+H
PI=HMDB
DATACOLLECTOR=HMDB
SMILES=CN1C=NC=C1CCN
INCHI=InChI=1S/C6H11N3/c1-9-5-8-4-6(9)2-3-7/h4-5H,2-3,7H2,1H3
INCHIAUX=N/A
PUBMED=N/A
SUBMITUSER=mwang87
TAGS=
LIBRARYQUALITY=3
SPECTRUMID=CCMSLIB00000425484
SCANS=456
109.119 64.166 
126.001 100.0 
126.621 64.574 
END IONS

BEGIN IONS
PEPMASS=166.054
CHARGE=1+
MSLEVEL=2
SOURCE_INSTRUMENT=Positive-Quattro_QQQ:25eV
FILENAME=hmdb_intermediate.mgf
SEQ=*..*
IONMODE=Positive
ORGANISM=HMDB
NAME=HMDB:HMDB02005-1942 Methionine sulfoxide M+H
PI=HMDB
DATACOLLECTOR=HMDB
SMILES=CS(=O)CCC(N)C(O)=O
INCHI=InChI=1S/C5H11NO3S/c1-10(9)3-2-4(6)5(7)8/h4H,2-3,6H2,1H3,(H,7,8)
INCHIAUX=N/A
PUBMED=N/A
SUBMITUSER=mwang87
TAGS=
LIBRARYQUALITY=3
SPECTRUMID=CCMSLIB00000425485
SCANS=457
74.0 100.0 
END IONS

BEGIN IONS
PEPMASS=308.111
CHARGE=1+
MSLEVEL=2
SOURCE_INSTRUMENT=Positive-Quattro_QQQ:25eV
FILENAME=hmdb_intermediate.mgf
SEQ=*..*
IONMODE=Positive
ORGANISM=HMDB
NAME=HMDB:HMDB05005-2437 Tolnaftate M+H
PI=HMDB
DATACOLLECTOR=HMDB
SMILES=CN(C(=S)OC1=CC2=CC=CC=C2C=C1)C1=CC=CC(C)=C1
INCHI=InChI=1S/C19H17NOS/c1-14-6-5-9-17(12-14)20(2)19(22)21-18-11-10-15-7-3-4-8-16(15)13-18/h3-13H,1-2H3
INCHIAUX=N/A
PUBMED=N/A
SUBMITUSER=mwang87
TAGS=
LIBRARYQUALITY=3
SPECTRUMID=CCMSLIB00000425486
SCANS=458
119.0 87.437 
147.0 100.0 
END IONS

BEGIN IONS
PEPMASS=301.217
CHARGE=1+
MSLEVEL=2
SOURCE_INSTRUMENT=Positive-Quattro_QQQ:25eV
FILENAME=hmdb_intermediate.mgf
SEQ=*..*
IONMODE=Positive
ORGANISM=HMDB
NAME=HMDB:HMDB06219-2476 13-cis-Retinoic acid M+H
PI=HMDB
DATACOLLECTOR=HMDB
SMILES=C\C(\C=C\C1=C(C)CCCC1(C)C)=C/C=C/C(/C)=C\C(O)=O
INCHI=InChI=1S/C20H28O2/c1-15(8-6-9-16(2)14-19(21)22)11-12-18-17(3)10-7-13-20(18,4)5/h6,8-9,11-12,14H,7,10,13H2,1-5H3,(H,21,22)/b9-6+,12-11+,15-8+,16-14-
INCHIAUX=N/A
PUBMED=N/A
SUBMITUSER=mwang87
TAGS=
LIBRARYQUALITY=3
SPECTRUMID=CCMSLIB00000425487
SCANS=459
69.04 100.0 
158.91 57.871 
END IONS

BEGIN IONS
PEPMASS=122.061
CHARGE=1+
MSLEVEL=2
SOURCE_INSTRUMENT=Positive-Quattro_QQQ:25eV
FILENAME=hmdb_intermediate.mgf
SEQ=*..*
IONMODE=Positive
ORGANISM=HMDB
NAME=HMDB:HMDB04461-2389 Benzamide M+H
PI=HMDB
DATACOLLECTOR=HMDB
SMILES=NC(=O)C1=CC=CC=C1
INCHI=InChI=1S/C7H7NO/c8-7(9)6-4-2-1-3-5-6/h1-5H,(H2,8,9)
INCHIAUX=N/A
PUBMED=N/A
SUBMITUSER=mwang87
TAGS=
LIBRARYQUALITY=3
SPECTRUMID=CCMSLIB00000425488
SCANS=460
78.947 100.0 
104.772 56.783 
END IONS

BEGIN IONS
PEPMASS=115.076
CHARGE=1+
MSLEVEL=2
SOURCE_INSTRUMENT=Positive-Quattro_QQQ:10eV
FILENAME=hmdb_intermediate.mgf
SEQ=*..*
IONMODE=Positive
ORGANISM=HMDB
NAME=HMDB:HMDB00453-662 Delta-Hexanolactone M+H
PI=HMDB
DATACOLLECTOR=HMDB
SMILES=CC1CCCC(=O)O1
INCHI=InChI=1S/C6H10O2/c1-5-3-2-4-6(7)8-5/h5H,2-4H2,1H3
INCHIAUX=N/A
PUBMED=N/A
SUBMITUSER=mwang87
TAGS=
LIBRARYQUALITY=3
SPECTRUMID=CCMSLIB00000425489
SCANS=461
69.151 100.0 
69.523 89.397 
END IONS

BEGIN IONS
PEPMASS=271.181
CHARGE=1+
MSLEVEL=2
SOURCE_INSTRUMENT=Positive-Quattro_QQQ:25eV
FILENAME=hmdb_intermediate.mgf
SEQ=*..*
IONMODE=Positive
ORGANISM=HMDB
NAME=HMDB:HMDB01936-1885 Doxylamine M+H
PI=HMDB
DATACOLLECTOR=HMDB
SMILES=CN(C)CCOC(C)(C1=CC=CC=C1)C1=NC=CC=C1
INCHI=InChI=1S/C17H22N2O/c1-17(20-14-13-19(2)3,15-9-5-4-6-10-15)16-11-7-8-12-18-16/h4-12H,13-14H2,1-3H3
INCHIAUX=N/A
PUBMED=N/A
SUBMITUSER=mwang87
TAGS=
LIBRARYQUALITY=3
SPECTRUMID=CCMSLIB00000425490
SCANS=462
182.4 100.0 
END IONS

BEGIN IONS
PEPMASS=136.062
CHARGE=1+
MSLEVEL=2
SOURCE_INSTRUMENT=Positive-Quattro_QQQ:25eV
FILENAME=hmdb_intermediate.mgf
SEQ=*..*
IONMODE=Positive
ORGANISM=HMDB
NAME=HMDB:HMDB00034-58 Adenine M+H
PI=HMDB
DATACOLLECTOR=HMDB
SMILES=NC1=NC=NC2=C1NC=N2
INCHI=InChI=1S/C5H5N5/c6-4-3-5(9-1-7-3)10-2-8-4/h1-2H,(H3,6,7,8,9,10)
INCHIAUX=N/A
PUBMED=N/A
SUBMITUSER=mwang87
TAGS=
LIBRARYQUALITY=3
SPECTRUMID=CCMSLIB00000425491
SCANS=463
118.954 100.0 
END IONS

BEGIN IONS
PEPMASS=667.23
CHARGE=1+
MSLEVEL=2
SOURCE_INSTRUMENT=Positive-Quattro_QQQ:40eV
FILENAME=hmdb_intermediate.mgf
SEQ=*..*
IONMODE=Positive
ORGANISM=HMDB
NAME=HMDB:HMDB03553-2330 Stachyose M+H
PI=HMDB
DATACOLLECTOR=HMDB
SMILES=OC[C@H]1O[C@@](CO)(O[C@H]2O[C@H](CO[C@H]3O[C@H](CO[C@H]4O[C@H](CO)[C@H](O)[C@H](O)[C@H]4O)[C@H](O)[C@H](O)[C@H]3O)[C@@H](O)[C@H](O)[C@H]2O)[C@@H](O)[C@@H]1O
INCHI=InChI=1S/C24H42O21/c25-1-6-10(28)14(32)17(35)21(41-6)39-3-8-11(29)15(33)18(36)22(42-8)40-4-9-12(30)16(34)19(37)23(43-9)45-24(5-27)20(38)13(31)7(2-26)44-24/h6-23,25-38H,1-5H2/t6-,7-,8-,9-,10+,11+,12-,13-,14+,15+,16+,17-,18-,19-,20+,21+,22+,23-,24+/m1/s1
INCHIAUX=N/A
PUBMED=N/A
SUBMITUSER=mwang87
TAGS=
LIBRARYQUALITY=3
SPECTRUMID=CCMSLIB00000425492
SCANS=464
88.0 100.0 
89.0 88.299 
178.0 63.107 
382.0 53.997 
END IONS

BEGIN IONS
PEPMASS=223.075
CHARGE=1+
MSLEVEL=2
SOURCE_INSTRUMENT=Positive-Quattro_QQQ:25eV
FILENAME=hmdb_intermediate.mgf
SEQ=*..*
IONMODE=Positive
ORGANISM=HMDB
NAME=HMDB:HMDB00455-666 Allocystathionine M+H
PI=HMDB
DATACOLLECTOR=HMDB
SMILES=N[C@@H](CCSCC(N)C(O)=O)C(O)=O
INCHI=InChI=1S/C7H14N2O4S/c8-4(6(10)11)1-2-14-3-5(9)7(12)13/h4-5H,1-3,8-9H2,(H,10,11)(H,12,13)/t4-,5?/m0/s1
INCHIAUX=N/A
PUBMED=N/A
SUBMITUSER=mwang87
TAGS=
LIBRARYQUALITY=3
SPECTRUMID=CCMSLIB00000425493
SCANS=465
88.082 100.0 
END IONS

BEGIN IONS
PEPMASS=167.034
CHARGE=1+
MSLEVEL=2
SOURCE_INSTRUMENT=Negative-Quattro_QQQ:40eV
FILENAME=hmdb_intermediate.mgf
SEQ=*..*
IONMODE=Negative
ORGANISM=HMDB
NAME=HMDB:HMDB00750-1073 3-Hydroxymandelic acid M-H
PI=HMDB
DATACOLLECTOR=HMDB
SMILES=OC(C(O)=O)C1=CC(O)=CC=C1
INCHI=InChI=1S/C8H8O4/c9-6-3-1-2-5(4-6)7(10)8(11)12/h1-4,7,9-10H,(H,11,12)
INCHIAUX=N/A
PUBMED=N/A
SUBMITUSER=mwang87
TAGS=
LIBRARYQUALITY=3
SPECTRUMID=CCMSLIB00000425494
SCANS=466
92.296 60.952 
121.044 100.0 
END IONS

BEGIN IONS
PEPMASS=651.608
CHARGE=1+
MSLEVEL=2
SOURCE_INSTRUMENT=Positive-Quattro_QQQ:25eV
FILENAME=hmdb_intermediate.mgf
SEQ=*..*
IONMODE=Positive
ORGANISM=HMDB
NAME=HMDB:HMDB00918-1304 CE(18:1(9Z)) M+H
PI=HMDB
DATACOLLECTOR=HMDB
SMILES=CCCCCCCC\C=C/CCCCCCCC(=O)O[C@H]1CC[C@@]2(C)C(=CC[C@@]3([H])[C@]4([H])CC[C@]([H])([C@H](C)CCCC(C)C)[C@@]4(C)CC[C@]23[H])C1
INCHI=InChI=1S/C45H78O2/c1-7-8-9-10-11-12-13-14-15-16-17-18-19-20-21-25-43(46)47-38-30-32-44(5)37(34-38)26-27-39-41-29-28-40(36(4)24-22-23-35(2)3)45(41,6)33-31-42(39)44/h14-15,26,35-36,38-42H,7-13,16-25,27-34H2,1-6H3/b15-14-/t36-,38+,39+,40-,41+,42+,44+,45-/m1/s1
INCHIAUX=N/A
PUBMED=N/A
SUBMITUSER=mwang87
TAGS=
LIBRARYQUALITY=3
SPECTRUMID=CCMSLIB00000425495
SCANS=467
650.0 98.3 
651.0 100.0 
END IONS

BEGIN IONS
PEPMASS=138.079
CHARGE=1+
MSLEVEL=2
SOURCE_INSTRUMENT=Positive-Quattro_QQQ:40eV
FILENAME=hmdb_intermediate.mgf
SEQ=*..*
IONMODE=Positive
ORGANISM=HMDB
NAME=HMDB:HMDB00699-974 1-Methylnicotinamide M+H
PI=HMDB
DATACOLLECTOR=HMDB
SMILES=C[N+]1=CC=CC(=C1)C(N)=O
INCHI=InChI=1S/C7H8N2O/c1-9-4-2-3-6(5-9)7(8)10/h2-5H,1H3,(H-,8,10)/p+1
INCHIAUX=N/A
PUBMED=N/A
SUBMITUSER=mwang87
TAGS=
LIBRARYQUALITY=3
SPECTRUMID=CCMSLIB00000425496
SCANS=468
52.0 50.893 
65.0 52.942 
78.0 100.0 
79.0 60.741 
END IONS

BEGIN IONS
PEPMASS=492.009
CHARGE=1+
MSLEVEL=2
SOURCE_INSTRUMENT=Positive-Quattro_QQQ:10eV
FILENAME=hmdb_intermediate.mgf
SEQ=*..*
IONMODE=Positive
ORGANISM=HMDB
NAME=HMDB:HMDB01532-1628 Deoxyadenosine triphosphate M+H
PI=HMDB
DATACOLLECTOR=HMDB
SMILES=NC1=NC=NC2=C1N=CN2[C@H]1C[C@H](O)[C@@H](COP(O)(=O)OP(O)(=O)OP(O)(O)=O)O1
INCHI=InChI=1S/C10H16N5O12P3/c11-9-8-10(13-3-12-9)15(4-14-8)7-1-5(16)6(25-7)2-24-29(20,21)27-30(22,23)26-28(17,18)19/h3-7,16H,1-2H2,(H,20,21)(H,22,23)(H2,11,12,13)(H2,17,18,19)/t5-,6+,7+/m0/s1
INCHIAUX=N/A
PUBMED=N/A
SUBMITUSER=mwang87
TAGS=
LIBRARYQUALITY=3
SPECTRUMID=CCMSLIB00000425497
SCANS=469
135.0 100.0 
136.0 53.471 
491.0 97.107 
492.0 59.102 
END IONS

BEGIN IONS
PEPMASS=174.088
CHARGE=1+
MSLEVEL=2
SOURCE_INSTRUMENT=Positive-Quattro_QQQ:10eV
FILENAME=hmdb_intermediate.mgf
SEQ=*..*
IONMODE=Positive
ORGANISM=HMDB
NAME=HMDB:HMDB04225-2373 2-Oxoarginine M+H
PI=HMDB
DATACOLLECTOR=HMDB
SMILES=NC(N)=NCCCC(=O)C(O)=O
INCHI=InChI=1S/C6H11N3O3/c7-6(8)9-3-1-2-4(10)5(11)12/h1-3H2,(H,11,12)(H4,7,8,9)
INCHIAUX=N/A
PUBMED=N/A
SUBMITUSER=mwang87
TAGS=
LIBRARYQUALITY=3
SPECTRUMID=CCMSLIB00000425498
SCANS=470
132.66 100.0 
END IONS

BEGIN IONS
PEPMASS=198.003
CHARGE=1+
MSLEVEL=2
SOURCE_INSTRUMENT=Positive-Quattro_QQQ:25eV
FILENAME=hmdb_intermediate.mgf
SEQ=*..*
IONMODE=Positive
ORGANISM=HMDB
NAME=HMDB:HMDB03966-2353 Selenomethionine M+H
PI=HMDB
DATACOLLECTOR=HMDB
SMILES=C[Se]CCC(N)C(O)=O
INCHI=InChI=1S/C5H11NO2Se/c1-9-3-2-4(6)5(7)8/h4H,2-3,6H2,1H3,(H,7,8)
INCHIAUX=N/A
PUBMED=N/A
SUBMITUSER=mwang87
TAGS=
LIBRARYQUALITY=3
SPECTRUMID=CCMSLIB00000425499
SCANS=471
56.0 100.0 
109.0 52.274 
END IONS

BEGIN IONS
PEPMASS=197.066
CHARGE=1+
MSLEVEL=2
SOURCE_INSTRUMENT=Positive-Quattro_QQQ:25eV
FILENAME=hmdb_intermediate.mgf
SEQ=*..*
IONMODE=Positive
ORGANISM=HMDB
NAME=HMDB:HMDB03290-2231 Gulonic acid M+H
PI=HMDB
DATACOLLECTOR=HMDB
SMILES=OC[C@@H](O)[C@H](O)[C@@H](O)[C@@H](O)C(O)=O
INCHI=InChI=1S/C6H12O7/c7-1-2(8)3(9)4(10)5(11)6(12)13/h2-5,7-11H,1H2,(H,12,13)/t2-,3+,4-,5-/m1/s1
INCHIAUX=N/A
PUBMED=N/A
SUBMITUSER=mwang87
TAGS=
LIBRARYQUALITY=3
SPECTRUMID=CCMSLIB00000425500
SCANS=472
40.0 60.0 
55.0 71.0 
71.0 75.795 
81.0 74.483 
95.0 69.427 
96.0 62.26 
113.0 100.0 
END IONS

BEGIN IONS
PEPMASS=139.051
CHARGE=1+
MSLEVEL=2
SOURCE_INSTRUMENT=Positive-Quattro_QQQ:40eV
FILENAME=hmdb_intermediate.mgf
SEQ=*..*
IONMODE=Positive
ORGANISM=HMDB
NAME=HMDB:HMDB00301-515 Urocanic acid M+H
PI=HMDB
DATACOLLECTOR=HMDB
SMILES=OC(=O)\C=C\C1=CNC=N1
INCHI=InChI=1S/C6H6N2O2/c9-6(10)2-1-5-3-7-4-8-5/h1-4H,(H,7,8)(H,9,10)/b2-1+
INCHIAUX=N/A
PUBMED=N/A
SUBMITUSER=mwang87
TAGS=
LIBRARYQUALITY=3
SPECTRUMID=CCMSLIB00000425501
SCANS=473
66.075 83.439 
93.01 100.0 
END IONS

BEGIN IONS
PEPMASS=152.071
CHARGE=1+
MSLEVEL=2
SOURCE_INSTRUMENT=Positive-Quattro_QQQ:25eV
FILENAME=hmdb_intermediate.mgf
SEQ=*..*
IONMODE=Positive
ORGANISM=HMDB
NAME=HMDB:HMDB02210-2032 2-Phenylglycine M+H
PI=HMDB
DATACOLLECTOR=HMDB
SMILES=NC(C(O)=O)C1=CC=CC=C1
INCHI=InChI=1S/C8H9NO2/c9-7(8(10)11)6-4-2-1-3-5-6/h1-5,7H,9H2,(H,10,11)
INCHIAUX=N/A
PUBMED=N/A
SUBMITUSER=mwang87
TAGS=
LIBRARYQUALITY=3
SPECTRUMID=CCMSLIB00000425502
SCANS=474
78.0 100.0 
END IONS

BEGIN IONS
PEPMASS=170.022
CHARGE=1+
MSLEVEL=2
SOURCE_INSTRUMENT=Positive-Quattro_QQQ:10eV
FILENAME=hmdb_intermediate.mgf
SEQ=*..*
IONMODE=Positive
ORGANISM=HMDB
NAME=HMDB:HMDB00370-585 2-Amino-3-phosphonopropionic acid M+H
PI=HMDB
DATACOLLECTOR=HMDB
SMILES=NC(CP(O)(O)=O)C(O)=O
INCHI=InChI=1S/C3H8NO5P/c4-2(3(5)6)1-10(7,8)9/h2H,1,4H2,(H,5,6)(H2,7,8,9)
INCHIAUX=N/A
PUBMED=N/A
SUBMITUSER=mwang87
TAGS=
LIBRARYQUALITY=3
SPECTRUMID=CCMSLIB00000425503
SCANS=475
80.0 100.0 
END IONS

BEGIN IONS
PEPMASS=161.045
CHARGE=1+
MSLEVEL=2
SOURCE_INSTRUMENT=Positive-Quattro_QQQ:40eV
FILENAME=hmdb_intermediate.mgf
SEQ=*..*
IONMODE=Positive
ORGANISM=HMDB
NAME=HMDB:HMDB00398-608 3-Oxoadipic acid M+H
PI=HMDB
DATACOLLECTOR=HMDB
SMILES=OC(=O)CCC(=O)CC(O)=O
INCHI=InChI=1S/C6H8O5/c7-4(3-6(10)11)1-2-5(8)9/h1-3H2,(H,8,9)(H,10,11)
INCHIAUX=N/A
PUBMED=N/A
SUBMITUSER=mwang87
TAGS=
LIBRARYQUALITY=3
SPECTRUMID=CCMSLIB00000425504
SCANS=476
160.91 100.0 
END IONS

BEGIN IONS
PEPMASS=127.062
CHARGE=1+
MSLEVEL=2
SOURCE_INSTRUMENT=Positive-Quattro_QQQ:40eV
FILENAME=hmdb_intermediate.mgf
SEQ=*..*
IONMODE=Positive
ORGANISM=HMDB
NAME=HMDB:HMDB02128-2015 2,4-Diamino-6-hydroxypyrimidine M+H
PI=HMDB
DATACOLLECTOR=HMDB
SMILES=NC1=CC(=O)N=C(N)N1
INCHI=InChI=1S/C4H6N4O/c5-2-1-3(9)8-4(6)7-2/h1H,(H5,5,6,7,8,9)
INCHIAUX=N/A
PUBMED=N/A
SUBMITUSER=mwang87
TAGS=
LIBRARYQUALITY=3
SPECTRUMID=CCMSLIB00000425505
SCANS=477
68.0 100.0 
END IONS

BEGIN IONS
PEPMASS=175.061
CHARGE=1+
MSLEVEL=2
SOURCE_INSTRUMENT=Positive-Quattro_QQQ:40eV
FILENAME=hmdb_intermediate.mgf
SEQ=*..*
IONMODE=Positive
ORGANISM=HMDB
NAME=HMDB:HMDB03070-2190 Shikimic acid M+H
PI=HMDB
DATACOLLECTOR=HMDB
SMILES=O[C@@H]1CC(=C[C@@H](O)[C@H]1O)C(O)=O
INCHI=InChI=1S/C7H10O5/c8-4-1-3(7(11)12)2-5(9)6(4)10/h1,4-6,8-10H,2H2,(H,11,12)/t4-,5-,6-/m1/s1
INCHIAUX=N/A
PUBMED=N/A
SUBMITUSER=mwang87
TAGS=
LIBRARYQUALITY=3
SPECTRUMID=CCMSLIB00000425506
SCANS=478
88.0 100.0 
END IONS

BEGIN IONS
PEPMASS=130.05
CHARGE=1+
MSLEVEL=2
SOURCE_INSTRUMENT=Positive-Quattro_QQQ:40eV
FILENAME=hmdb_intermediate.mgf
SEQ=*..*
IONMODE=Positive
ORGANISM=HMDB
NAME=HMDB:HMDB00267-465 Pyroglutamic acid M+H
PI=HMDB
DATACOLLECTOR=HMDB
SMILES=OC(=O)[C@@H]1CCC(=O)N1
INCHI=InChI=1S/C5H7NO3/c7-4-2-1-3(6-4)5(8)9/h3H,1-2H2,(H,6,7)(H,8,9)/t3-/m0/s1
INCHIAUX=N/A
PUBMED=N/A
SUBMITUSER=mwang87
TAGS=
LIBRARYQUALITY=3
SPECTRUMID=CCMSLIB00000425507
SCANS=479
56.132 100.0 
84.075 95.455 
END IONS

BEGIN IONS
PEPMASS=169.036
CHARGE=1+
MSLEVEL=2
SOURCE_INSTRUMENT=Positive-Quattro_QQQ:40eV
FILENAME=hmdb_intermediate.mgf
SEQ=*..*
IONMODE=Positive
ORGANISM=HMDB
NAME=HMDB:HMDB00289-491 Uric acid M+H
PI=HMDB
DATACOLLECTOR=HMDB
SMILES=O=C1NC2=C(N1)C(=O)NC(=O)N2
INCHI=InChI=1S/C5H4N4O3/c10-3-1-2(7-4(11)6-1)8-5(12)9-3/h(H4,6,7,8,9,10,11,12)
INCHIAUX=N/A
PUBMED=N/A
SUBMITUSER=mwang87
TAGS=
LIBRARYQUALITY=3
SPECTRUMID=CCMSLIB00000425508
SCANS=480
43.328 74.02 
53.208 100.0 
55.214 56.373 
69.122 84.804 
70.152 61.765 
95.997 81.863 
END IONS

BEGIN IONS
PEPMASS=786.601
CHARGE=1+
MSLEVEL=2
SOURCE_INSTRUMENT=Positive-Quattro_QQQ:25eV
FILENAME=hmdb_intermediate.mgf
SEQ=*..*
IONMODE=Positive
ORGANISM=HMDB
NAME=HMDB:HMDB00593-820 PC(18:1(9Z)/18:1(9Z))  M+H
PI=HMDB
DATACOLLECTOR=HMDB
SMILES=CCCCCCCC\C=C/CCCCCCCC(=O)OCC(COP([O-])(=O)OCC[N+](C)(C)C)OC(=O)CCCCCCC\C=C/CCCCCCCC
INCHI=InChI=1S/C44H84NO8P/c1-6-8-10-12-14-16-18-20-22-24-26-28-30-32-34-36-43(46)50-40-42(41-52-54(48,49)51-39-38-45(3,4)5)53-44(47)37-35-33-31-29-27-25-23-21-19-17-15-13-11-9-7-2/h20-23,42H,6-19,24-41H2,1-5H3/b22-20-,23-21-
INCHIAUX=N/A
PUBMED=N/A
SUBMITUSER=mwang87
TAGS=
LIBRARYQUALITY=3
SPECTRUMID=CCMSLIB00000425509
SCANS=481
183.0 100.0 
END IONS

BEGIN IONS
PEPMASS=261.038
CHARGE=1+
MSLEVEL=2
SOURCE_INSTRUMENT=Positive-Quattro_QQQ:25eV
FILENAME=hmdb_intermediate.mgf
SEQ=*..*
IONMODE=Positive
ORGANISM=HMDB
NAME=HMDB:HMDB01078-1419 Mannose 6-phosphate M+H
PI=HMDB
DATACOLLECTOR=HMDB
SMILES=O[C@@H]1O[C@H](COP(O)(O)=O)[C@@H](O)[C@H](O)[C@@H]1O
INCHI=InChI=1S/C6H13O9P/c7-3-2(1-14-16(11,12)13)15-6(10)5(9)4(3)8/h2-10H,1H2,(H2,11,12,13)/t2-,3-,4+,5+,6-/m1/s1
INCHIAUX=N/A
PUBMED=N/A
SUBMITUSER=mwang87
TAGS=
LIBRARYQUALITY=3
SPECTRUMID=CCMSLIB00000425510
SCANS=482
99.0 100.0 
109.0 61.937 
END IONS

BEGIN IONS
PEPMASS=33.034
CHARGE=1+
MSLEVEL=2
SOURCE_INSTRUMENT=Positive-Quattro_QQQ:25eV
FILENAME=hmdb_intermediate.mgf
SEQ=*..*
IONMODE=Positive
ORGANISM=HMDB
NAME=HMDB:HMDB01875-1769 Methanol M+H
PI=HMDB
DATACOLLECTOR=HMDB
SMILES=CO
INCHI=InChI=1S/CH4O/c1-2/h2H,1H3
INCHIAUX=N/A
PUBMED=N/A
SUBMITUSER=mwang87
TAGS=
LIBRARYQUALITY=3
SPECTRUMID=CCMSLIB00000425511
SCANS=483
33.481 100.0 
END IONS

BEGIN IONS
PEPMASS=384.151
CHARGE=1+
MSLEVEL=2
SOURCE_INSTRUMENT=Positive-Quattro_QQQ:40eV
FILENAME=hmdb_intermediate.mgf
SEQ=*..*
IONMODE=Positive
ORGANISM=HMDB
NAME=HMDB:HMDB01542-1639 N-Acetyllactosamine M+H
PI=HMDB
DATACOLLECTOR=HMDB
SMILES=CC(=O)N[C@H]1[C@H](O)O[C@H](CO)[C@@H](O[C@@H]2O[C@H](CO)[C@H](O)[C@H](O)[C@H]2O)[C@@H]1O
INCHI=InChI=1S/C14H25NO11/c1-4(18)15-7-9(20)12(6(3-17)24-13(7)23)26-14-11(22)10(21)8(19)5(2-16)25-14/h5-14,16-17,19-23H,2-3H2,1H3,(H,15,18)/t5-,6-,7-,8+,9-,10+,11-,12-,13-,14+/m1/s1
INCHIAUX=N/A
PUBMED=N/A
SUBMITUSER=mwang87
TAGS=
LIBRARYQUALITY=3
SPECTRUMID=CCMSLIB00000425512
SCANS=484
84.0 72.877 
138.0 100.0 
END IONS

BEGIN IONS
PEPMASS=204.102
CHARGE=1+
MSLEVEL=2
SOURCE_INSTRUMENT=Positive-Quattro_QQQ:10eV
FILENAME=hmdb_intermediate.mgf
SEQ=*..*
IONMODE=Positive
ORGANISM=HMDB
NAME=HMDB:HMDB02096-1999 3-Indolebutyric acid M+H
PI=HMDB
DATACOLLECTOR=HMDB
SMILES=OC(=O)CCCC1=CNC2=CC=CC=C12
INCHI=InChI=1S/C12H13NO2/c14-12(15)7-3-4-9-8-13-11-6-2-1-5-10(9)11/h1-2,5-6,8,13H,3-4,7H2,(H,14,15)
INCHIAUX=N/A
PUBMED=N/A
SUBMITUSER=mwang87
TAGS=
LIBRARYQUALITY=3
SPECTRUMID=CCMSLIB00000425513
SCANS=485
186.0 100.0 
204.0 87.254 
END IONS

BEGIN IONS
PEPMASS=303.05
CHARGE=1+
MSLEVEL=2
SOURCE_INSTRUMENT=Positive-Quattro_QQQ:25eV
FILENAME=hmdb_intermediate.mgf
SEQ=*..*
IONMODE=Positive
ORGANISM=HMDB
NAME=HMDB:HMDB05794-2446 Quercetin M+H
PI=HMDB
DATACOLLECTOR=HMDB
SMILES=OC1=CC(O)=C2C(OC(=C(O)C2=O)C2=CC(O)=C(O)C=C2)=C1
INCHI=InChI=1S/C15H10O7/c16-7-4-10(19)12-11(5-7)22-15(14(21)13(12)20)6-1-2-8(17)9(18)3-6/h1-5,16-19,21H
INCHIAUX=N/A
PUBMED=N/A
SUBMITUSER=mwang87
TAGS=
LIBRARYQUALITY=3
SPECTRUMID=CCMSLIB00000425514
SCANS=486
302.0 100.0 
303.0 51.687 
END IONS

BEGIN IONS
PEPMASS=103.076
CHARGE=1+
MSLEVEL=2
SOURCE_INSTRUMENT=Positive-Quattro_QQQ:40eV
FILENAME=hmdb_intermediate.mgf
SEQ=*..*
IONMODE=Positive
ORGANISM=HMDB
NAME=HMDB:HMDB00718-1007 Isovaleric acid M+H
PI=HMDB
DATACOLLECTOR=HMDB
SMILES=CC(C)CC(O)=O
INCHI=InChI=1S/C5H10O2/c1-4(2)3-5(6)7/h4H,3H2,1-2H3,(H,6,7)
INCHIAUX=N/A
PUBMED=N/A
SUBMITUSER=mwang87
TAGS=
LIBRARYQUALITY=3
SPECTRUMID=CCMSLIB00000425515
SCANS=487
40.0 50.315 
41.0 100.0 
42.0 73.288 
43.0 88.841 
END IONS

BEGIN IONS
PEPMASS=149.045
CHARGE=1+
MSLEVEL=2
SOURCE_INSTRUMENT=Positive-Quattro_QQQ:25eV
FILENAME=hmdb_intermediate.mgf
SEQ=*..*
IONMODE=Positive
ORGANISM=HMDB
NAME=HMDB:HMDB01900-1817 Ribonolactone M+H
PI=HMDB
DATACOLLECTOR=HMDB
SMILES=OC[C@H]1OC(=O)[C@H](O)[C@@H]1O
INCHI=InChI=1S/C5H8O5/c6-1-2-3(7)4(8)5(9)10-2/h2-4,6-8H,1H2/t2-,3-,4-/m1/s1
INCHIAUX=N/A
PUBMED=N/A
SUBMITUSER=mwang87
TAGS=
LIBRARYQUALITY=3
SPECTRUMID=CCMSLIB00000425516
SCANS=488
103.079 100.0 
103.578 79.611 
END IONS

BEGIN IONS
PEPMASS=202.144
CHARGE=1+
MSLEVEL=2
SOURCE_INSTRUMENT=Positive-Quattro_QQQ:40eV
FILENAME=hmdb_intermediate.mgf
SEQ=*..*
IONMODE=Positive
ORGANISM=HMDB
NAME=HMDB:HMDB00832-1183 Capryloylglycine M+H
PI=HMDB
DATACOLLECTOR=HMDB
SMILES=CCCCCCCC(=O)NCC(O)=O
INCHI=InChI=1S/C10H19NO3/c1-2-3-4-5-6-7-9(12)11-8-10(13)14/h2-8H2,1H3,(H,11,12)(H,13,14)
INCHIAUX=N/A
PUBMED=N/A
SUBMITUSER=mwang87
TAGS=
LIBRARYQUALITY=3
SPECTRUMID=CCMSLIB00000425517
SCANS=489
67.682 100.0 
97.542 57.357 
105.071 59.009 
203.448 75.676 
END IONS

BEGIN IONS
PEPMASS=179.034
CHARGE=1+
MSLEVEL=2
SOURCE_INSTRUMENT=Negative-Quattro_QQQ:25eV
FILENAME=hmdb_intermediate.mgf
SEQ=*..*
IONMODE=Negative
ORGANISM=HMDB
NAME=HMDB:HMDB00707-991 4-Hydroxyphenylpyruvic acid M-H
PI=HMDB
DATACOLLECTOR=HMDB
SMILES=OC(=O)C(=O)CC1=CC=C(O)C=C1
INCHI=InChI=1S/C9H8O4/c10-7-3-1-6(2-4-7)5-8(11)9(12)13/h1-4,10H,5H2,(H,12,13)
INCHIAUX=N/A
PUBMED=N/A
SUBMITUSER=mwang87
TAGS=
LIBRARYQUALITY=3
SPECTRUMID=CCMSLIB00000425518
SCANS=490
106.666 100.0 
END IONS

BEGIN IONS
PEPMASS=157.061
CHARGE=1+
MSLEVEL=2
SOURCE_INSTRUMENT=Positive-Quattro_QQQ:40eV
FILENAME=hmdb_intermediate.mgf
SEQ=*..*
IONMODE=Positive
ORGANISM=HMDB
NAME=HMDB:HMDB00544-766 5-Hydroxymethyl-4-methyluracil M+H
PI=HMDB
DATACOLLECTOR=HMDB
SMILES=CC1=C(CO)C(=O)NC(=O)N1
INCHI=InChI=1S/C6H8N2O3/c1-3-4(2-9)5(10)8-6(11)7-3/h9H,2H2,1H3,(H2,7,8,10,11)
INCHIAUX=N/A
PUBMED=N/A
SUBMITUSER=mwang87
TAGS=
LIBRARYQUALITY=3
SPECTRUMID=CCMSLIB00000425519
SCANS=491
42.319 100.0 
END IONS

BEGIN IONS
PEPMASS=182.082
CHARGE=1+
MSLEVEL=2
SOURCE_INSTRUMENT=Positive-Quattro_QQQ:40eV
FILENAME=hmdb_intermediate.mgf
SEQ=*..*
IONMODE=Positive
ORGANISM=HMDB
NAME=HMDB:HMDB00158-247 L-Tyrosine M+H
PI=HMDB
DATACOLLECTOR=HMDB
SMILES=N[C@@H](CC1=CC=C(O)C=C1)C(O)=O
INCHI=InChI=1S/C9H11NO3/c10-8(9(12)13)5-6-1-3-7(11)4-2-6/h1-4,8,11H,5,10H2,(H,12,13)/t8-/m0/s1
INCHIAUX=N/A
PUBMED=N/A
SUBMITUSER=mwang87
TAGS=
LIBRARYQUALITY=3
SPECTRUMID=CCMSLIB00000425520
SCANS=492
77.055 65.206 
91.004 100.0 
END IONS

BEGIN IONS
PEPMASS=185.045
CHARGE=1+
MSLEVEL=2
SOURCE_INSTRUMENT=Positive-Quattro_QQQ:25eV
FILENAME=hmdb_intermediate.mgf
SEQ=*..*
IONMODE=Positive
ORGANISM=HMDB
NAME=HMDB:HMDB01866-1748 3,4-Dihydroxymandelic acid M+H
PI=HMDB
DATACOLLECTOR=HMDB
SMILES=OC(C(O)=O)C1=CC=C(O)C(O)=C1
INCHI=InChI=1S/C8H8O5/c9-5-2-1-4(3-6(5)10)7(11)8(12)13/h1-3,7,9-11H,(H,12,13)
INCHIAUX=N/A
PUBMED=N/A
SUBMITUSER=mwang87
TAGS=
LIBRARYQUALITY=3
SPECTRUMID=CCMSLIB00000425521
SCANS=493
160.899 100.0 
END IONS

BEGIN IONS
PEPMASS=208.097
CHARGE=1+
MSLEVEL=2
SOURCE_INSTRUMENT=Positive-Quattro_QQQ:40eV
FILENAME=hmdb_intermediate.mgf
SEQ=*..*
IONMODE=Positive
ORGANISM=HMDB
NAME=HMDB:HMDB00512-739 N-Acetyl-L-phenylalanine M+H
PI=HMDB
DATACOLLECTOR=HMDB
SMILES=CC(=O)N[C@@H](CC1=CC=CC=C1)C(O)=O
INCHI=InChI=1S/C11H13NO3/c1-8(13)12-10(11(14)15)7-9-5-3-2-4-6-9/h2-6,10H,7H2,1H3,(H,12,13)(H,14,15)/t10-/m0/s1
INCHIAUX=N/A
PUBMED=N/A
SUBMITUSER=mwang87
TAGS=
LIBRARYQUALITY=3
SPECTRUMID=CCMSLIB00000425522
SCANS=494
76.0 52.209 
102.0 100.0 
103.0 57.371 
119.0 66.397 
END IONS

BEGIN IONS
PEPMASS=194.082
CHARGE=1+
MSLEVEL=2
SOURCE_INSTRUMENT=Positive-Quattro_QQQ:25eV
FILENAME=hmdb_intermediate.mgf
SEQ=*..*
IONMODE=Positive
ORGANISM=HMDB
NAME=HMDB:HMDB00821-1171 Phenylacetylglycine M+H
PI=HMDB
DATACOLLECTOR=HMDB
SMILES=OC(=O)CNC(=O)CC1=CC=CC=C1
INCHI=InChI=1S/C10H11NO3/c12-9(11-7-10(13)14)6-8-4-2-1-3-5-8/h1-5H,6-7H2,(H,11,12)(H,13,14)
INCHIAUX=N/A
PUBMED=N/A
SUBMITUSER=mwang87
TAGS=
LIBRARYQUALITY=3
SPECTRUMID=CCMSLIB00000425523
SCANS=495
91.0 100.0 
END IONS

BEGIN IONS
PEPMASS=152.057
CHARGE=1+
MSLEVEL=2
SOURCE_INSTRUMENT=Positive-Quattro_QQQ:10eV
FILENAME=hmdb_intermediate.mgf
SEQ=*..*
IONMODE=Positive
ORGANISM=HMDB
NAME=HMDB:HMDB00403-612 2-Hydroxyadenine M+H
PI=HMDB
DATACOLLECTOR=HMDB
SMILES=NC1=NC(O)=NC2=C1NC=N2
INCHI=InChI=1S/C5H5N5O/c6-3-2-4(8-1-7-2)10-5(11)9-3/h1H,(H4,6,7,8,9,10,11)
INCHIAUX=N/A
PUBMED=N/A
SUBMITUSER=mwang87
TAGS=
LIBRARYQUALITY=3
SPECTRUMID=CCMSLIB00000425524
SCANS=496
151.0 100.0 
END IONS

BEGIN IONS
PEPMASS=611.161
CHARGE=1+
MSLEVEL=2
SOURCE_INSTRUMENT=Positive-Quattro_QQQ:10eV
FILENAME=hmdb_intermediate.mgf
SEQ=*..*
IONMODE=Positive
ORGANISM=HMDB
NAME=HMDB:HMDB03249-2221 Rutin M+H
PI=HMDB
DATACOLLECTOR=HMDB
SMILES=C[C@@H]1O[C@@H](OC[C@H]2O[C@@H](OC3=C(OC4=CC(O)=CC(O)=C4C3=O)C3=CC(O)=C(O)C=C3)[C@H](O)[C@@H](O)[C@@H]2O)[C@H](O)[C@H](O)[C@H]1O
INCHI=InChI=1S/C27H30O16/c1-8-17(32)20(35)22(37)26(40-8)39-7-15-18(33)21(36)23(38)27(42-15)43-25-19(34)16-13(31)5-10(28)6-14(16)41-24(25)9-2-3-11(29)12(30)4-9/h2-6,8,15,17-18,20-23,26-33,35-38H,7H2,1H3/t8-,15+,17-,18+,20+,21-,22+,23+,26+,27-/m0/s1
INCHIAUX=N/A
PUBMED=N/A
SUBMITUSER=mwang87
TAGS=
LIBRARYQUALITY=3
SPECTRUMID=CCMSLIB00000425525
SCANS=497
611.0 100.0 
END IONS

BEGIN IONS
PEPMASS=163.061
CHARGE=1+
MSLEVEL=2
SOURCE_INSTRUMENT=Positive-Quattro_QQQ:10eV
FILENAME=hmdb_intermediate.mgf
SEQ=*..*
IONMODE=Positive
ORGANISM=HMDB
NAME=HMDB:HMDB00345-555 3-Hydroxyadipic acid M+H
PI=HMDB
DATACOLLECTOR=HMDB
SMILES=OC(CCC(O)=O)CC(O)=O
INCHI=InChI=1S/C6H10O5/c7-4(3-6(10)11)1-2-5(8)9/h4,7H,1-3H2,(H,8,9)(H,10,11)
INCHIAUX=N/A
PUBMED=N/A
SUBMITUSER=mwang87
TAGS=
LIBRARYQUALITY=3
SPECTRUMID=CCMSLIB00000425526
SCANS=498
144.0 100.0 
END IONS

BEGIN IONS
PEPMASS=397.347
CHARGE=1+
MSLEVEL=2
SOURCE_INSTRUMENT=Positive-Quattro_QQQ:10eV
FILENAME=hmdb_intermediate.mgf
SEQ=*..*
IONMODE=Positive
ORGANISM=HMDB
NAME=HMDB:HMDB00900-1277 Ergocalciferol M+H
PI=HMDB
DATACOLLECTOR=HMDB
SMILES=CC(C)[C@@H](C)\C=C\[C@@H](C)[C@H]1CC[C@@]2([H])\C(CCC[C@]12C)=C\C=C1\C[C@@H](O)CCC1=C
INCHI=InChI=1S/C28H44O/c1-19(2)20(3)9-10-22(5)26-15-16-27-23(8-7-17-28(26,27)6)12-13-24-18-25(29)14-11-21(24)4/h9-10,12-13,19-20,22,25-27,29H,4,7-8,11,14-18H2,1-3,5-6H3/b10-9+,23-12+,24-13-/t20-,22+,25-,26+,27-,28+/m0/s1
INCHIAUX=N/A
PUBMED=N/A
SUBMITUSER=mwang87
TAGS=
LIBRARYQUALITY=3
SPECTRUMID=CCMSLIB00000425527
SCANS=499
396.0 97.184 
397.0 100.0 
END IONS

BEGIN IONS
PEPMASS=136.062
CHARGE=1+
MSLEVEL=2
SOURCE_INSTRUMENT=Positive-Quattro_QQQ:10eV
FILENAME=hmdb_intermediate.mgf
SEQ=*..*
IONMODE=Positive
ORGANISM=HMDB
NAME=HMDB:HMDB00034-57 Adenine M+H
PI=HMDB
DATACOLLECTOR=HMDB
SMILES=NC1=NC=NC2=C1NC=N2
INCHI=InChI=1S/C5H5N5/c6-4-3-5(9-1-7-3)10-2-8-4/h1-2H,(H3,6,7,8,9,10)
INCHIAUX=N/A
PUBMED=N/A
SUBMITUSER=mwang87
TAGS=
LIBRARYQUALITY=3
SPECTRUMID=CCMSLIB00000425528
SCANS=500
135.958 100.0 
END IONS

BEGIN IONS
PEPMASS=262.14
CHARGE=1+
MSLEVEL=2
SOURCE_INSTRUMENT=Positive-Quattro_QQQ:40eV
FILENAME=hmdb_intermediate.mgf
SEQ=*..*
IONMODE=Positive
ORGANISM=HMDB
NAME=HMDB:HMDB04987-2426 Alpha-Aspartyl-lysine M+H
PI=HMDB
DATACOLLECTOR=HMDB
SMILES=NCCCC[C@H](NC(=O)[C@@H](N)CC(O)=O)C(O)=O
INCHI=InChI=1S/C10H19N3O5/c11-4-2-1-3-7(10(17)18)13-9(16)6(12)5-8(14)15/h6-7H,1-5,11-12H2,(H,13,16)(H,14,15)(H,17,18)/t6-,7-/m0/s1
INCHIAUX=N/A
PUBMED=N/A
SUBMITUSER=mwang87
TAGS=
LIBRARYQUALITY=3
SPECTRUMID=CCMSLIB00000425529
SCANS=501
84.0 100.0 
END IONS

BEGIN IONS
PEPMASS=415.394
CHARGE=1+
MSLEVEL=2
SOURCE_INSTRUMENT=Positive-Quattro_QQQ:40eV
FILENAME=hmdb_intermediate.mgf
SEQ=*..*
IONMODE=Positive
ORGANISM=HMDB
NAME=HMDB:HMDB00852-1204 Beta-Sitosterol M+H
PI=HMDB
DATACOLLECTOR=HMDB
SMILES=[H][C@@]1(CC[C@@]2([H])[C@]3([H])CC=C4C[C@@H](O)CC[C@]4(C)[C@@]3([H])CC[C@]12C)[C@H](C)CC[C@@H](CC)C(C)C
INCHI=InChI=1S/C29H50O/c1-7-21(19(2)3)9-8-20(4)25-12-13-26-24-11-10-22-18-23(30)14-16-28(22,5)27(24)15-17-29(25,26)6/h10,19-21,23-27,30H,7-9,11-18H2,1-6H3/t20-,21-,23+,24+,25-,26+,27+,28+,29-/m1/s1
INCHIAUX=N/A
PUBMED=N/A
SUBMITUSER=mwang87
TAGS=
LIBRARYQUALITY=3
SPECTRUMID=CCMSLIB00000425530
SCANS=502
57.189 60.563 
69.109 50.0 
81.067 100.0 
93.049 55.634 
95.079 64.085 
105.024 52.113 
107.031 53.521 
109.076 54.225 
156.941 54.93 
END IONS

BEGIN IONS
PEPMASS=62.0606
CHARGE=1+
MSLEVEL=2
SOURCE_INSTRUMENT=Positive-Quattro_QQQ:25eV
FILENAME=hmdb_intermediate.mgf
SEQ=*..*
IONMODE=Positive
ORGANISM=HMDB
NAME=HMDB:HMDB00149-225 Ethanolamine M+H
PI=HMDB
DATACOLLECTOR=HMDB
SMILES=NCCO
INCHI=InChI=1S/C2H7NO/c3-1-2-4/h4H,1-3H2
INCHIAUX=N/A
PUBMED=N/A
SUBMITUSER=mwang87
TAGS=
LIBRARYQUALITY=3
SPECTRUMID=CCMSLIB00000425531
SCANS=503
62.0 100.0 
END IONS

BEGIN IONS
PEPMASS=174.113
CHARGE=1+
MSLEVEL=2
SOURCE_INSTRUMENT=Positive-Quattro_QQQ:10eV
FILENAME=hmdb_intermediate.mgf
SEQ=*..*
IONMODE=Positive
ORGANISM=HMDB
NAME=HMDB:HMDB00701-978 Hexanoylglycine M+H
PI=HMDB
DATACOLLECTOR=HMDB
SMILES=CCCCCC(=O)NCC(O)=O
INCHI=InChI=1S/C8H15NO3/c1-2-3-4-5-7(10)9-6-8(11)12/h2-6H2,1H3,(H,9,10)(H,11,12)
INCHIAUX=N/A
PUBMED=N/A
SUBMITUSER=mwang87
TAGS=
LIBRARYQUALITY=3
SPECTRUMID=CCMSLIB00000425532
SCANS=504
76.344 100.0 
END IONS

BEGIN IONS
PEPMASS=291.232
CHARGE=1+
MSLEVEL=2
SOURCE_INSTRUMENT=Positive-Quattro_QQQ:10eV
FILENAME=hmdb_intermediate.mgf
SEQ=*..*
IONMODE=Positive
ORGANISM=HMDB
NAME=HMDB:HMDB00546-767 Epietiocholanolone M+H
PI=HMDB
DATACOLLECTOR=HMDB
SMILES=[H][C@@]12CCC(=O)[C@@]1(C)CC[C@@]1([H])[C@@]2([H])CC[C@]2([H])C[C@@H](O)CC[C@]12C
INCHI=InChI=1S/C19H30O2/c1-18-9-7-13(20)11-12(18)3-4-14-15-5-6-17(21)19(15,2)10-8-16(14)18/h12-16,20H,3-11H2,1-2H3/t12-,13+,14+,15+,16+,18+,19+/m1/s1
INCHIAUX=N/A
PUBMED=N/A
SUBMITUSER=mwang87
TAGS=
LIBRARYQUALITY=3
SPECTRUMID=CCMSLIB00000425533
SCANS=505
255.346 100.0 
255.591 53.555 
END IONS

BEGIN IONS
PEPMASS=103.04
CHARGE=1+
MSLEVEL=2
SOURCE_INSTRUMENT=Negative-Quattro_QQQ:40eV
FILENAME=hmdb_intermediate.mgf
SEQ=*..*
IONMODE=Negative
ORGANISM=HMDB
NAME=HMDB:HMDB00008-12 2-Hydroxybutyric acid M-H
PI=HMDB
DATACOLLECTOR=HMDB
SMILES=CCC(O)C(O)=O
INCHI=InChI=1S/C4H8O3/c1-2-3(5)4(6)7/h3,5H,2H2,1H3,(H,6,7)
INCHIAUX=N/A
PUBMED=N/A
SUBMITUSER=mwang87
TAGS=
LIBRARYQUALITY=3
SPECTRUMID=CCMSLIB00000425534
SCANS=506
45.426 100.0 
57.423 59.788 
103.233 88.889 
END IONS

BEGIN IONS
PEPMASS=308.065
CHARGE=1+
MSLEVEL=2
SOURCE_INSTRUMENT=Positive-Quattro_QQQ:10eV
FILENAME=hmdb_intermediate.mgf
SEQ=*..*
IONMODE=Positive
ORGANISM=HMDB
NAME=HMDB:HMDB01202-1463 dCMP M+H
PI=HMDB
DATACOLLECTOR=HMDB
SMILES=NC1=NC(=O)N(C=C1)[C@H]1C[C@H](O)[C@@H](COP(O)(O)=O)O1
INCHI=InChI=1S/C9H14N3O7P/c10-7-1-2-12(9(14)11-7)8-3-5(13)6(19-8)4-18-20(15,16)17/h1-2,5-6,8,13H,3-4H2,(H2,10,11,14)(H2,15,16,17)/t5-,6+,8+/m0/s1
INCHIAUX=N/A
PUBMED=N/A
SUBMITUSER=mwang87
TAGS=
LIBRARYQUALITY=3
SPECTRUMID=CCMSLIB00000425535
SCANS=507
112.0 100.0 
END IONS

BEGIN IONS
PEPMASS=316.249
CHARGE=1+
MSLEVEL=2
SOURCE_INSTRUMENT=Positive-Quattro_QQQ:10eV
FILENAME=hmdb_intermediate.mgf
SEQ=*..*
IONMODE=Positive
ORGANISM=HMDB
NAME=HMDB:HMDB00651-888 Decanoylcarnitine M+H
PI=HMDB
DATACOLLECTOR=HMDB
SMILES=CCCCCCCCCC(=O)OC(CC([O-])=O)C[N+](C)(C)C
INCHI=InChI=1S/C17H33NO4/c1-5-6-7-8-9-10-11-12-17(21)22-15(13-16(19)20)14-18(2,3)4/h15H,5-14H2,1-4H3
INCHIAUX=N/A
PUBMED=N/A
SUBMITUSER=mwang87
TAGS=
LIBRARYQUALITY=3
SPECTRUMID=CCMSLIB00000425536
SCANS=508
85.28 70.196 
316.288 100.0 
END IONS

BEGIN IONS
PEPMASS=129.019
CHARGE=1+
MSLEVEL=2
SOURCE_INSTRUMENT=Negative-Quattro_QQQ:10eV
FILENAME=hmdb_intermediate.mgf
SEQ=*..*
IONMODE=Negative
ORGANISM=HMDB
NAME=HMDB:HMDB61185-837 2-Pentendioate M-H
PI=HMDB
DATACOLLECTOR=HMDB
SMILES=OC(=O)CC=CC(O)=O
INCHI=InChI=1S/C5H6O4/c6-4(7)2-1-3-5(8)9/h1-2H,3H2,(H,6,7)(H,8,9)/b2-1+
INCHIAUX=N/A
PUBMED=N/A
SUBMITUSER=mwang87
TAGS=
LIBRARYQUALITY=3
SPECTRUMID=CCMSLIB00000425537
SCANS=509
85.036 100.0 
END IONS

BEGIN IONS
PEPMASS=136.043
CHARGE=1+
MSLEVEL=2
SOURCE_INSTRUMENT=Positive-Quattro_QQQ:25eV
FILENAME=hmdb_intermediate.mgf
SEQ=*..*
IONMODE=Positive
ORGANISM=HMDB
NAME=HMDB:HMDB00742-1054 Homocysteine M+H
PI=HMDB
DATACOLLECTOR=HMDB
SMILES=NC(CCS)C(O)=O
INCHI=InChI=1S/C4H9NO2S/c5-3(1-2-8)4(6)7/h3,8H,1-2,5H2,(H,6,7)
INCHIAUX=N/A
PUBMED=N/A
SUBMITUSER=mwang87
TAGS=
LIBRARYQUALITY=3
SPECTRUMID=CCMSLIB00000425538
SCANS=510
56.226 100.0 
END IONS

BEGIN IONS
PEPMASS=131.118
CHARGE=1+
MSLEVEL=2
SOURCE_INSTRUMENT=Positive-Quattro_QQQ:25eV
FILENAME=hmdb_intermediate.mgf
SEQ=*..*
IONMODE=Positive
ORGANISM=HMDB
NAME=HMDB:HMDB60268-1976 N-Acetylputrescinium M+H
PI=HMDB
DATACOLLECTOR=HMDB
SMILES=CC(O)=NCCCCN
INCHI=InChI=1S/C6H14N2O/c1-6(9)8-5-3-2-4-7/h2-5,7H2,1H3,(H,8,9)
INCHIAUX=N/A
PUBMED=N/A
SUBMITUSER=mwang87
TAGS=
LIBRARYQUALITY=3
SPECTRUMID=CCMSLIB00000425539
SCANS=511
72.0 100.0 
END IONS

BEGIN IONS
PEPMASS=109.029
CHARGE=1+
MSLEVEL=2
SOURCE_INSTRUMENT=Positive-Quattro_QQQ:10eV
FILENAME=hmdb_intermediate.mgf
SEQ=*..*
IONMODE=Positive
ORGANISM=HMDB
NAME=HMDB:HMDB03364-2268 Quinone M+H
PI=HMDB
DATACOLLECTOR=HMDB
SMILES=O=C1C=CC(=O)C=C1
INCHI=InChI=1S/C6H4O2/c7-5-1-2-6(8)4-3-5/h1-4H
INCHIAUX=N/A
PUBMED=N/A
SUBMITUSER=mwang87
TAGS=
LIBRARYQUALITY=3
SPECTRUMID=CCMSLIB00000425540
SCANS=512
108.0 100.0 
END IONS

BEGIN IONS
PEPMASS=112.087
CHARGE=1+
MSLEVEL=2
SOURCE_INSTRUMENT=Positive-Quattro_QQQ:10eV
FILENAME=hmdb_intermediate.mgf
SEQ=*..*
IONMODE=Positive
ORGANISM=HMDB
NAME=HMDB:HMDB00870-1223 Histamine M+H
PI=HMDB
DATACOLLECTOR=HMDB
SMILES=NCCC1=CNC=N1
INCHI=InChI=1S/C5H9N3/c6-2-1-5-3-7-4-8-5/h3-4H,1-2,6H2,(H,7,8)
INCHIAUX=N/A
PUBMED=N/A
SUBMITUSER=mwang87
TAGS=
LIBRARYQUALITY=3
SPECTRUMID=CCMSLIB00000425541
SCANS=513
95.04 100.0 
111.998 76.652 
END IONS

BEGIN IONS
PEPMASS=555.462
CHARGE=1+
MSLEVEL=2
SOURCE_INSTRUMENT=Positive-Quattro_QQQ:10eV
FILENAME=hmdb_intermediate.mgf
SEQ=*..*
IONMODE=Positive
ORGANISM=HMDB
NAME=HMDB:HMDB00548-770 TG(10:0/10:0/10:0)[iso] M+H
PI=HMDB
DATACOLLECTOR=HMDB
SMILES=CCCCCCCCCC(=O)OCC(COC(=O)CCCCCCCCC)OC(=O)CCCCCCCCC
INCHI=InChI=1S/C33H62O6/c1-4-7-10-13-16-19-22-25-31(34)37-28-30(39-33(36)27-24-21-18-15-12-9-6-3)29-38-32(35)26-23-20-17-14-11-8-5-2/h30H,4-29H2,1-3H3
INCHIAUX=N/A
PUBMED=N/A
SUBMITUSER=mwang87
TAGS=
LIBRARYQUALITY=3
SPECTRUMID=CCMSLIB00000425542
SCANS=514
555.0 100.0 
556.0 66.454 
END IONS

BEGIN IONS
PEPMASS=120.066
CHARGE=1+
MSLEVEL=2
SOURCE_INSTRUMENT=Positive-Quattro_QQQ:10eV
FILENAME=hmdb_intermediate.mgf
SEQ=*..*
IONMODE=Positive
ORGANISM=HMDB
NAME=HMDB:HMDB00167-263 L-Threonine M+H
PI=HMDB
DATACOLLECTOR=HMDB
SMILES=C[C@@H](O)[C@H](N)C(O)=O
INCHI=InChI=1S/C4H9NO3/c1-2(6)3(5)4(7)8/h2-3,6H,5H2,1H3,(H,7,8)/t2-,3+/m1/s1
INCHIAUX=N/A
PUBMED=N/A
SUBMITUSER=mwang87
TAGS=
LIBRARYQUALITY=3
SPECTRUMID=CCMSLIB00000425543
SCANS=515
74.101 100.0 
END IONS

BEGIN IONS
PEPMASS=178.054
CHARGE=1+
MSLEVEL=2
SOURCE_INSTRUMENT=Positive-Quattro_QQQ:10eV
FILENAME=hmdb_intermediate.mgf
SEQ=*..*
IONMODE=Positive
ORGANISM=HMDB
NAME=HMDB:HMDB01015-1387 N-Formyl-L-methionine M+H
PI=HMDB
DATACOLLECTOR=HMDB
SMILES=CSCC[C@@H](NC=O)C(O)=O
INCHI=InChI=1S/C6H11NO3S/c1-11-3-2-5(6(9)10)7-4-8/h4-5H,2-3H2,1H3,(H,7,8)(H,9,10)/t5-/m1/s1
INCHIAUX=N/A
PUBMED=N/A
SUBMITUSER=mwang87
TAGS=
LIBRARYQUALITY=3
SPECTRUMID=CCMSLIB00000425544
SCANS=516
103.94 75.117 
129.87 100.0 
END IONS

BEGIN IONS
PEPMASS=275.017
CHARGE=1+
MSLEVEL=2
SOURCE_INSTRUMENT=Negative-Quattro_QQQ:10eV
FILENAME=hmdb_intermediate.mgf
SEQ=*..*
IONMODE=Negative
ORGANISM=HMDB
NAME=HMDB:HMDB01316-1516 6-Phosphogluconic acid M-H
PI=HMDB
DATACOLLECTOR=HMDB
SMILES=O[C@H](COP(O)(O)=O)[C@@H](O)[C@H](O)[C@@H](O)C(O)=O
INCHI=InChI=1S/C6H13O10P/c7-2(1-16-17(13,14)15)3(8)4(9)5(10)6(11)12/h2-5,7-10H,1H2,(H,11,12)(H2,13,14,15)/t2-,3-,4+,5-/m1/s1
INCHIAUX=N/A
PUBMED=N/A
SUBMITUSER=mwang87
TAGS=
LIBRARYQUALITY=3
SPECTRUMID=CCMSLIB00000425545
SCANS=517
274.0 100.0 
END IONS

BEGIN IONS
PEPMASS=121.05
CHARGE=1+
MSLEVEL=2
SOURCE_INSTRUMENT=Positive-Quattro_QQQ:25eV
FILENAME=hmdb_intermediate.mgf
SEQ=*..*
IONMODE=Positive
ORGANISM=HMDB
NAME=HMDB:HMDB02649-2120 Erythrose M+H
PI=HMDB
DATACOLLECTOR=HMDB
SMILES=O[C@@H]1COC(O)[C@@H]1O
INCHI=InChI=1S/C4H8O4/c5-2-1-8-4(7)3(2)6/h2-7H,1H2/t2-,3-,4?/m1/s1
INCHIAUX=N/A
PUBMED=N/A
SUBMITUSER=mwang87
TAGS=
LIBRARYQUALITY=3
SPECTRUMID=CCMSLIB00000425546
SCANS=518
42.0 95.308 
76.0 100.0 
77.0 67.935 
90.0 51.238 
END IONS

BEGIN IONS
PEPMASS=161.108
CHARGE=1+
MSLEVEL=2
SOURCE_INSTRUMENT=Positive-Quattro_QQQ:10eV
FILENAME=hmdb_intermediate.mgf
SEQ=*..*
IONMODE=Positive
ORGANISM=HMDB
NAME=HMDB:HMDB00303-516 Tryptamine M+H
PI=HMDB
DATACOLLECTOR=HMDB
SMILES=NCCC1=CNC2=CC=CC=C12
INCHI=InChI=1S/C10H12N2/c11-6-5-8-7-12-10-4-2-1-3-9(8)10/h1-4,7,12H,5-6,11H2
INCHIAUX=N/A
PUBMED=N/A
SUBMITUSER=mwang87
TAGS=
LIBRARYQUALITY=3
SPECTRUMID=CCMSLIB00000425547
SCANS=519
161.001 100.0 
END IONS

BEGIN IONS
PEPMASS=190.119
CHARGE=1+
MSLEVEL=2
SOURCE_INSTRUMENT=Positive-Quattro_QQQ:10eV
FILENAME=hmdb_intermediate.mgf
SEQ=*..*
IONMODE=Positive
ORGANISM=HMDB
NAME=HMDB:HMDB00679-942 Homocitrulline M+H
PI=HMDB
DATACOLLECTOR=HMDB
SMILES=N[C@@H](CCCCNC(N)=O)C(O)=O
INCHI=InChI=1S/C7H15N3O3/c8-5(6(11)12)3-1-2-4-10-7(9)13/h5H,1-4,8H2,(H,11,12)(H3,9,10,13)/t5-/m0/s1
INCHIAUX=N/A
PUBMED=N/A
SUBMITUSER=mwang87
TAGS=
LIBRARYQUALITY=3
SPECTRUMID=CCMSLIB00000425548
SCANS=520
173.012 100.0 
END IONS

BEGIN IONS
PEPMASS=89.0239
CHARGE=1+
MSLEVEL=2
SOURCE_INSTRUMENT=Negative-Quattro_QQQ:25eV
FILENAME=hmdb_intermediate.mgf
SEQ=*..*
IONMODE=Negative
ORGANISM=HMDB
NAME=HMDB:HMDB01311-1514 D-Lactic acid M-H
PI=HMDB
DATACOLLECTOR=HMDB
SMILES=C[C@@H](O)C(O)=O
INCHI=InChI=1S/C3H6O3/c1-2(4)3(5)6/h2,4H,1H3,(H,5,6)/t2-/m1/s1
INCHIAUX=N/A
PUBMED=N/A
SUBMITUSER=mwang87
TAGS=
LIBRARYQUALITY=3
SPECTRUMID=CCMSLIB00000425549
SCANS=521
43.0 100.0 
45.0 80.617 
89.0 84.828 
END IONS

BEGIN IONS
PEPMASS=489.115
CHARGE=1+
MSLEVEL=2
SOURCE_INSTRUMENT=Positive-Quattro_QQQ:25eV
FILENAME=hmdb_intermediate.mgf
SEQ=*..*
IONMODE=Positive
ORGANISM=HMDB
NAME=HMDB:HMDB01413-1566 Citicoline M+H
PI=HMDB
DATACOLLECTOR=HMDB
SMILES=C[N+](C)(C)CCOP([O-])(=O)OP(O)(=O)OC[C@H]1O[C@H]([C@H](O)[C@@H]1O)N1C=CC(N)=NC1=O
INCHI=InChI=1S/C14H26N4O11P2/c1-18(2,3)6-7-26-30(22,23)29-31(24,25)27-8-9-11(19)12(20)13(28-9)17-5-4-10(15)16-14(17)21/h4-5,9,11-13,19-20H,6-8H2,1-3H3,(H3-,15,16,21,22,23,24,25)/t9-,11-,12-,13-/m1/s1
INCHIAUX=N/A
PUBMED=N/A
SUBMITUSER=mwang87
TAGS=
LIBRARYQUALITY=3
SPECTRUMID=CCMSLIB00000425550
SCANS=522
184.0 55.803 
264.0 100.0 
END IONS

BEGIN IONS
PEPMASS=181.071
CHARGE=1+
MSLEVEL=2
SOURCE_INSTRUMENT=Positive-Quattro_QQQ:40eV
FILENAME=hmdb_intermediate.mgf
SEQ=*..*
IONMODE=Positive
ORGANISM=HMDB
NAME=HMDB:HMDB00660-902 D-Fructose M+H
PI=HMDB
DATACOLLECTOR=HMDB
SMILES=OC[C@H]1O[C@](O)(CO)[C@@H](O)[C@@H]1O
INCHI=InChI=1S/C6H12O6/c7-1-3-4(9)5(10)6(11,2-8)12-3/h3-5,7-11H,1-2H2/t3-,4-,5+,6-/m1/s1
INCHIAUX=N/A
PUBMED=N/A
SUBMITUSER=mwang87
TAGS=
LIBRARYQUALITY=3
SPECTRUMID=CCMSLIB00000425551
SCANS=523
73.0 100.0 
85.0 81.002 
117.0 51.843 
END IONS

BEGIN IONS
PEPMASS=91.0031
CHARGE=1+
MSLEVEL=2
SOURCE_INSTRUMENT=Positive-Quattro_QQQ:40eV
FILENAME=hmdb_intermediate.mgf
SEQ=*..*
IONMODE=Positive
ORGANISM=HMDB
NAME=HMDB:HMDB02329-2063 Oxalic acid M+H
PI=HMDB
DATACOLLECTOR=HMDB
SMILES=OC(=O)C(O)=O
INCHI=InChI=1S/C2H2O4/c3-1(4)2(5)6/h(H,3,4)(H,5,6)
INCHIAUX=N/A
PUBMED=N/A
SUBMITUSER=mwang87
TAGS=
LIBRARYQUALITY=3
SPECTRUMID=CCMSLIB00000425552
SCANS=524
38.0 100.0 
END IONS

BEGIN IONS
PEPMASS=244.093
CHARGE=1+
MSLEVEL=2
SOURCE_INSTRUMENT=Positive-Quattro_QQQ:40eV
FILENAME=hmdb_intermediate.mgf
SEQ=*..*
IONMODE=Positive
ORGANISM=HMDB
NAME=HMDB:HMDB00089-140 Cytidine M+H
PI=HMDB
DATACOLLECTOR=HMDB
SMILES=NC1=NC(=O)N(C=C1)[C@@H]1O[C@H](CO)[C@@H](O)[C@H]1O
INCHI=InChI=1S/C9H13N3O5/c10-5-1-2-12(9(16)11-5)8-7(15)6(14)4(3-13)17-8/h1-2,4,6-8,13-15H,3H2,(H2,10,11,16)/t4-,6-,7-,8-/m1/s1
INCHIAUX=N/A
PUBMED=N/A
SUBMITUSER=mwang87
TAGS=
LIBRARYQUALITY=3
SPECTRUMID=CCMSLIB00000425553
SCANS=525
111.984 100.0 
END IONS

BEGIN IONS
PEPMASS=181.071
CHARGE=1+
MSLEVEL=2
SOURCE_INSTRUMENT=Positive-Quattro_QQQ:25eV
FILENAME=hmdb_intermediate.mgf
SEQ=*..*
IONMODE=Positive
ORGANISM=HMDB
NAME=HMDB:HMDB06088-2470 Scyllitol M+H
PI=HMDB
DATACOLLECTOR=HMDB
SMILES=O[C@H]1[C@H](O)[C@@H](O)[C@@H](O)[C@@H](O)[C@H]1O
INCHI=InChI=1S/C6H12O6/c7-1-2(8)4(10)6(12)5(11)3(1)9/h1-12H/t1-,2-,3-,4+,5-,6+
INCHIAUX=N/A
PUBMED=N/A
SUBMITUSER=mwang87
TAGS=
LIBRARYQUALITY=3
SPECTRUMID=CCMSLIB00000425554
SCANS=526
54.85 77.257 
95.71 94.642 
98.66 100.0 
END IONS

BEGIN IONS
PEPMASS=91.0759
CHARGE=1+
MSLEVEL=2
SOURCE_INSTRUMENT=Positive-Quattro_QQQ:40eV
FILENAME=hmdb_intermediate.mgf
SEQ=*..*
IONMODE=Positive
ORGANISM=HMDB
NAME=HMDB:HMDB03156-2205 2,3-Butanediol M+H
PI=HMDB
DATACOLLECTOR=HMDB
SMILES=CC(O)C(C)O
INCHI=InChI=1S/C4H10O2/c1-3(5)4(2)6/h3-6H,1-2H3
INCHIAUX=N/A
PUBMED=N/A
SUBMITUSER=mwang87
TAGS=
LIBRARYQUALITY=3
SPECTRUMID=CCMSLIB00000425555
SCANS=527
38.0 64.225 
39.0 100.0 
END IONS

BEGIN IONS
PEPMASS=232.118
CHARGE=1+
MSLEVEL=2
SOURCE_INSTRUMENT=Positive-Quattro_QQQ:25eV
FILENAME=hmdb_intermediate.mgf
SEQ=*..*
IONMODE=Positive
ORGANISM=HMDB
NAME=HMDB:HMDB00953-1346 Suberylglycine M+H
PI=HMDB
DATACOLLECTOR=HMDB
SMILES=OC(=O)CCCCCCC(=O)NCC(O)=O
INCHI=InChI=1S/C10H17NO5/c12-8(11-7-10(15)16)5-3-1-2-4-6-9(13)14/h1-7H2,(H,11,12)(H,13,14)(H,15,16)
INCHIAUX=N/A
PUBMED=N/A
SUBMITUSER=mwang87
TAGS=
LIBRARYQUALITY=3
SPECTRUMID=CCMSLIB00000425556
SCANS=528
83.0 100.0 
END IONS

BEGIN IONS
PEPMASS=153.076
CHARGE=1+
MSLEVEL=2
SOURCE_INSTRUMENT=Positive-Quattro_QQQ:10eV
FILENAME=hmdb_intermediate.mgf
SEQ=*..*
IONMODE=Positive
ORGANISM=HMDB
NAME=HMDB:HMDB02917-2160 D-Xylitol M+H
PI=HMDB
DATACOLLECTOR=HMDB
SMILES=OC[C@H](O)C(O)[C@H](O)CO
INCHI=InChI=1S/C5H12O5/c6-1-3(8)5(10)4(9)2-7/h3-10H,1-2H2/t3-,4+,5?
INCHIAUX=N/A
PUBMED=N/A
SUBMITUSER=mwang87
TAGS=
LIBRARYQUALITY=3
SPECTRUMID=CCMSLIB00000425557
SCANS=529
69.0 90.765542328 
99.0 72.4903155707 
117.0 100.0 
135.0 53.7970049131 
END IONS

BEGIN IONS
PEPMASS=289.217
CHARGE=1+
MSLEVEL=2
SOURCE_INSTRUMENT=Positive-Quattro_QQQ:10eV
FILENAME=hmdb_intermediate.mgf
SEQ=*..*
IONMODE=Positive
ORGANISM=HMDB
NAME=HMDB:HMDB00628-855 Epitestosterone M+H
PI=HMDB
DATACOLLECTOR=HMDB
SMILES=[H][C@@]12CC[C@@H](O)[C@@]1(C)CC[C@@]1([H])[C@@]2([H])CCC2=CC(=O)CC[C@]12C
INCHI=InChI=1S/C19H28O2/c1-18-9-7-13(20)11-12(18)3-4-14-15-5-6-17(21)19(15,2)10-8-16(14)18/h11,14-17,21H,3-10H2,1-2H3/t14-,15-,16-,17+,18-,19-/m0/s1
INCHIAUX=N/A
PUBMED=N/A
SUBMITUSER=mwang87
TAGS=
LIBRARYQUALITY=3
SPECTRUMID=CCMSLIB00000425558
SCANS=530
289.255 100.0 
END IONS

BEGIN IONS
PEPMASS=537.446
CHARGE=1+
MSLEVEL=2
SOURCE_INSTRUMENT=Positive-Quattro_QQQ:25eV
FILENAME=hmdb_intermediate.mgf
SEQ=*..*
IONMODE=Positive
ORGANISM=HMDB
NAME=HMDB:HMDB00561-783 B-Carotene M+H
PI=HMDB
DATACOLLECTOR=HMDB
SMILES=C\C(\C=C\C=C(/C)\C=C\C1=C(C)CCCC1(C)C)=C/C=C/C=C(\C)/C=C/C=C(\C)/C=C/C1=C(C)CCCC1(C)C
INCHI=InChI=1S/C40H56/c1-31(19-13-21-33(3)25-27-37-35(5)23-15-29-39(37,7)8)17-11-12-18-32(2)20-14-22-34(4)26-28-38-36(6)24-16-30-40(38,9)10/h11-14,17-22,25-28H,15-16,23-24,29-30H2,1-10H3/b12-11+,19-13+,20-14+,27-25+,28-26+,31-17+,32-18+,33-21+,34-22+
INCHIAUX=N/A
PUBMED=N/A
SUBMITUSER=mwang87
TAGS=
LIBRARYQUALITY=3
SPECTRUMID=CCMSLIB00000425559
SCANS=531
497.609 100.0 
END IONS

BEGIN IONS
PEPMASS=119.082
CHARGE=1+
MSLEVEL=2
SOURCE_INSTRUMENT=Positive-Quattro_QQQ:25eV
FILENAME=hmdb_intermediate.mgf
SEQ=*..*
IONMODE=Positive
ORGANISM=HMDB
NAME=HMDB:HMDB02362-2084 2,4-Diaminobutyric acid M+H
PI=HMDB
DATACOLLECTOR=HMDB
SMILES=NCCC(N)C(O)=O
INCHI=InChI=1S/C4H10N2O2/c5-2-1-3(6)4(7)8/h3H,1-2,5-6H2,(H,7,8)
INCHIAUX=N/A
PUBMED=N/A
SUBMITUSER=mwang87
TAGS=
LIBRARYQUALITY=3
SPECTRUMID=CCMSLIB00000425560
SCANS=532
56.0 100.0 
END IONS

BEGIN IONS
PEPMASS=143.107
CHARGE=1+
MSLEVEL=2
SOURCE_INSTRUMENT=Negative-Quattro_QQQ:25eV
FILENAME=hmdb_intermediate.mgf
SEQ=*..*
IONMODE=Negative
ORGANISM=HMDB
NAME=HMDB:HMDB00482-699 Caprylic acid M-H
PI=HMDB
DATACOLLECTOR=HMDB
SMILES=CCCCCCCC(O)=O
INCHI=InChI=1S/C8H16O2/c1-2-3-4-5-6-7-8(9)10/h2-7H2,1H3,(H,9,10)
INCHIAUX=N/A
PUBMED=N/A
SUBMITUSER=mwang87
TAGS=
LIBRARYQUALITY=3
SPECTRUMID=CCMSLIB00000425561
SCANS=533
143.224 100.0 
END IONS

BEGIN IONS
PEPMASS=209.03
CHARGE=1+
MSLEVEL=2
SOURCE_INSTRUMENT=Negative-Quattro_QQQ:10eV
FILENAME=hmdb_intermediate.mgf
SEQ=*..*
IONMODE=Negative
ORGANISM=HMDB
NAME=HMDB:HMDB00663-906 Glucaric acid M-H
PI=HMDB
DATACOLLECTOR=HMDB
SMILES=O[C@@H]([C@H](O)[C@@H](O)C(O)=O)[C@H](O)C(O)=O
INCHI=InChI=1S/C6H10O8/c7-1(3(9)5(11)12)2(8)4(10)6(13)14/h1-4,7-10H,(H,11,12)(H,13,14)/t1-,2-,3-,4+/m0/s1
INCHIAUX=N/A
PUBMED=N/A
SUBMITUSER=mwang87
TAGS=
LIBRARYQUALITY=3
SPECTRUMID=CCMSLIB00000425562
SCANS=534
209.071 100.0 
END IONS

BEGIN IONS
PEPMASS=154.05
CHARGE=1+
MSLEVEL=2
SOURCE_INSTRUMENT=Positive-Quattro_QQQ:25eV
FILENAME=hmdb_intermediate.mgf
SEQ=*..*
IONMODE=Positive
ORGANISM=HMDB
NAME=HMDB:HMDB01476-1596 3-Hydroxyanthranilic acid M+H
PI=HMDB
DATACOLLECTOR=HMDB
SMILES=NC1=C(O)C=CC=C1C(O)=O
INCHI=InChI=1S/C7H7NO3/c8-6-4(7(10)11)2-1-3-5(6)9/h1-3,9H,8H2,(H,10,11)
INCHIAUX=N/A
PUBMED=N/A
SUBMITUSER=mwang87
TAGS=
LIBRARYQUALITY=3
SPECTRUMID=CCMSLIB00000425563
SCANS=535
80.0 100.0 
END IONS

BEGIN IONS
PEPMASS=238.094
CHARGE=1+
MSLEVEL=2
SOURCE_INSTRUMENT=Positive-Quattro_QQQ:25eV
FILENAME=hmdb_intermediate.mgf
SEQ=*..*
IONMODE=Positive
ORGANISM=HMDB
NAME=HMDB:HMDB00468-681 Biopterin M+H
PI=HMDB
DATACOLLECTOR=HMDB
SMILES=C[C@H](O)[C@H](O)C1=NC2=C(NC(N)=NC2=O)N=C1
INCHI=InChI=1S/C9H11N5O3/c1-3(15)6(16)4-2-11-7-5(12-4)8(17)14-9(10)13-7/h2-3,6,15-16H,1H3,(H3,10,11,13,14,17)/t3-,6-/m0/s1
INCHIAUX=N/A
PUBMED=N/A
SUBMITUSER=mwang87
TAGS=
LIBRARYQUALITY=3
SPECTRUMID=CCMSLIB00000425564
SCANS=536
177.134 100.0 
END IONS

BEGIN IONS
PEPMASS=165.092
CHARGE=1+
MSLEVEL=2
SOURCE_INSTRUMENT=Positive-Quattro_QQQ:40eV
FILENAME=hmdb_intermediate.mgf
SEQ=*..*
IONMODE=Positive
ORGANISM=HMDB
NAME=HMDB:HMDB01955-1910 3-Phenylbutyric acid M+H
PI=HMDB
DATACOLLECTOR=HMDB
SMILES=CC(CC(O)=O)C1=CC=CC=C1
INCHI=InChI=1S/C10H12O2/c1-8(7-10(11)12)9-5-3-2-4-6-9/h2-6,8H,7H2,1H3,(H,11,12)
INCHIAUX=N/A
PUBMED=N/A
SUBMITUSER=mwang87
TAGS=
LIBRARYQUALITY=3
SPECTRUMID=CCMSLIB00000425565
SCANS=537
76.0 100.0 
END IONS

BEGIN IONS
PEPMASS=149.045
CHARGE=1+
MSLEVEL=2
SOURCE_INSTRUMENT=Positive-Quattro_QQQ:10eV
FILENAME=hmdb_intermediate.mgf
SEQ=*..*
IONMODE=Positive
ORGANISM=HMDB
NAME=HMDB:HMDB00694-964 L-2-Hydroxyglutaric acid M+H
PI=HMDB
DATACOLLECTOR=HMDB
SMILES=O[C@@H](CCC(O)=O)C(O)=O
INCHI=InChI=1S/C5H8O5/c6-3(5(9)10)1-2-4(7)8/h3,6H,1-2H2,(H,7,8)(H,9,10)/t3-/m0/s1
INCHIAUX=N/A
PUBMED=N/A
SUBMITUSER=mwang87
TAGS=
LIBRARYQUALITY=3
SPECTRUMID=CCMSLIB00000425566
SCANS=538
105.0 70.267 
117.0 58.114 
149.0 100.0 
END IONS

BEGIN IONS
PEPMASS=132.066
CHARGE=1+
MSLEVEL=2
SOURCE_INSTRUMENT=Positive-Quattro_QQQ:40eV
FILENAME=hmdb_intermediate.mgf
SEQ=*..*
IONMODE=Positive
ORGANISM=HMDB
NAME=HMDB:HMDB00725-1019 4-Hydroxyproline M+H
PI=HMDB
DATACOLLECTOR=HMDB
SMILES=O[C@H]1CN[C@@H](C1)C(O)=O
INCHI=InChI=1S/C5H9NO3/c7-3-1-4(5(8)9)6-2-3/h3-4,6-7H,1-2H2,(H,8,9)/t3-,4+/m1/s1
INCHIAUX=N/A
PUBMED=N/A
SUBMITUSER=mwang87
TAGS=
LIBRARYQUALITY=3
SPECTRUMID=CCMSLIB00000425567
SCANS=539
41.323 83.333 
68.082 100.0 
END IONS

BEGIN IONS
PEPMASS=788.181
CHARGE=1+
MSLEVEL=2
SOURCE_INSTRUMENT=Positive-Quattro_QQQ:10eV
FILENAME=hmdb_intermediate.mgf
SEQ=*..*
IONMODE=Positive
ORGANISM=HMDB
NAME=HMDB:HMDB01197-1457 FADH M+H
PI=HMDB
DATACOLLECTOR=HMDB
SMILES=CC1=CC2=C(C=C1C)N(C[C@H](O)[C@H](O)[C@H](O)COP(O)(=O)OP(O)(=O)OC[C@H]1O[C@H]([C@H](O)[C@@H]1O)N1C=NC3=C1N=CN=C3N)C1=C(N2)C(=O)NC(=O)N1
INCHI=InChI=1S/C27H35N9O15P2/c1-10-3-12-13(4-11(10)2)35(24-18(32-12)25(42)34-27(43)33-24)5-14(37)19(39)15(38)6-48-52(44,45)51-53(46,47)49-7-16-20(40)21(41)26(50-16)36-9-31-17-22(28)29-8-30-23(17)36/h3-4,8-9,14-16,19-21,26,32,37-41H,5-7H2,1-2H3,(H,44,45)(H,46,47)(H2,28,29,30)(H2,33,34,42,43)/t14-,15+,16+,19-,20+,21+,26+/m0/s1
INCHIAUX=N/A
PUBMED=N/A
SUBMITUSER=mwang87
TAGS=
LIBRARYQUALITY=3
SPECTRUMID=CCMSLIB00000425568
SCANS=540
786.0 100.0 
787.0 64.444 
END IONS

BEGIN IONS
PEPMASS=208.097
CHARGE=1+
MSLEVEL=2
SOURCE_INSTRUMENT=Positive-Quattro_QQQ:10eV
FILENAME=hmdb_intermediate.mgf
SEQ=*..*
IONMODE=Positive
ORGANISM=HMDB
NAME=HMDB:HMDB00512-737 N-Acetyl-L-phenylalanine M+H
PI=HMDB
DATACOLLECTOR=HMDB
SMILES=CC(=O)N[C@@H](CC1=CC=CC=C1)C(O)=O
INCHI=InChI=1S/C11H13NO3/c1-8(13)12-10(11(14)15)7-9-5-3-2-4-6-9/h2-6,10H,7H2,1H3,(H,12,13)(H,14,15)/t10-/m0/s1
INCHIAUX=N/A
PUBMED=N/A
SUBMITUSER=mwang87
TAGS=
LIBRARYQUALITY=3
SPECTRUMID=CCMSLIB00000425569
SCANS=541
119.0 100.0 
161.0 66.789 
165.0 91.724 
END IONS

BEGIN IONS
PEPMASS=153.019
CHARGE=1+
MSLEVEL=2
SOURCE_INSTRUMENT=Negative-Quattro_QQQ:25eV
FILENAME=hmdb_intermediate.mgf
SEQ=*..*
IONMODE=Negative
ORGANISM=HMDB
NAME=HMDB:HMDB00152-234 Gentisic acid M-H
PI=HMDB
DATACOLLECTOR=HMDB
SMILES=OC(=O)C1=CC(O)=CC=C1O
INCHI=InChI=1S/C7H6O4/c8-4-1-2-6(9)5(3-4)7(10)11/h1-3,8-9H,(H,10,11)
INCHIAUX=N/A
PUBMED=N/A
SUBMITUSER=mwang87
TAGS=
LIBRARYQUALITY=3
SPECTRUMID=CCMSLIB00000425570
SCANS=542
108.072 100.0 
END IONS

BEGIN IONS
PEPMASS=786.165
CHARGE=1+
MSLEVEL=2
SOURCE_INSTRUMENT=Positive-Quattro_QQQ:10eV
FILENAME=hmdb_intermediate.mgf
SEQ=*..*
IONMODE=Positive
ORGANISM=HMDB
NAME=HMDB:HMDB01248-1481 FAD M+H
PI=HMDB
DATACOLLECTOR=HMDB
SMILES=CC1=CC2=C(C=C1C)N(C[C@H](O)[C@H](O)[C@H](O)COP(O)(=O)OP(O)(=O)OC[C@H]1O[C@H]([C@H](O)[C@@H]1O)N1C=NC3=C1N=CN=C3N)C1=NC(=O)NC(=O)C1=N2
INCHI=InChI=1S/C27H33N9O15P2/c1-10-3-12-13(4-11(10)2)35(24-18(32-12)25(42)34-27(43)33-24)5-14(37)19(39)15(38)6-48-52(44,45)51-53(46,47)49-7-16-20(40)21(41)26(50-16)36-9-31-17-22(28)29-8-30-23(17)36/h3-4,8-9,14-16,19-21,26,37-41H,5-7H2,1-2H3,(H,44,45)(H,46,47)(H2,28,29,30)(H,34,42,43)/t14-,15+,16+,19-,20+,21+,26+/m0/s1
INCHIAUX=N/A
PUBMED=N/A
SUBMITUSER=mwang87
TAGS=
LIBRARYQUALITY=3
SPECTRUMID=CCMSLIB00000425571
SCANS=543
786.0 100.0 
787.0 64.444 
END IONS

BEGIN IONS
PEPMASS=150.059
CHARGE=1+
MSLEVEL=2
SOURCE_INSTRUMENT=Positive-Quattro_QQQ:10eV
FILENAME=hmdb_intermediate.mgf
SEQ=*..*
IONMODE=Positive
ORGANISM=HMDB
NAME=HMDB:HMDB00696-969 L-Methionine M+H
PI=HMDB
DATACOLLECTOR=HMDB
SMILES=CSCC[C@H](N)C(O)=O
INCHI=InChI=1S/C5H11NO2S/c1-9-3-2-4(6)5(7)8/h4H,2-3,6H2,1H3,(H,7,8)/t4-/m0/s1
INCHIAUX=N/A
PUBMED=N/A
SUBMITUSER=mwang87
TAGS=
LIBRARYQUALITY=3
SPECTRUMID=CCMSLIB00000425572
SCANS=544
104.01 100.0 
132.918 75.704 
149.907 66.549 
END IONS

BEGIN IONS
PEPMASS=80.9646
CHARGE=1+
MSLEVEL=2
SOURCE_INSTRUMENT=Positive-Quattro_QQQ:40eV
FILENAME=hmdb_intermediate.mgf
SEQ=*..*
IONMODE=Positive
ORGANISM=HMDB
NAME=HMDB:HMDB00240-408 Sulfite M+H
PI=HMDB
DATACOLLECTOR=HMDB
SMILES=[O-]S([O-])=O
INCHI=InChI=1S/H2O3S/c1-4(2)3/h(H2,1,2,3)/p-2
INCHIAUX=N/A
PUBMED=N/A
SUBMITUSER=mwang87
TAGS=
LIBRARYQUALITY=3
SPECTRUMID=CCMSLIB00000425573
SCANS=545
53.406 74.932 
54.649 100.0 
END IONS

BEGIN IONS
PEPMASS=220.118
CHARGE=1+
MSLEVEL=2
SOURCE_INSTRUMENT=Positive-Quattro_QQQ:10eV
FILENAME=hmdb_intermediate.mgf
SEQ=*..*
IONMODE=Positive
ORGANISM=HMDB
NAME=HMDB:HMDB00210-340 Pantothenic acid M+H
PI=HMDB
DATACOLLECTOR=HMDB
SMILES=CC(C)(CO)C(O)C(=O)NCCC(O)=O
INCHI=InChI=1S/C9H17NO5/c1-9(2,5-11)7(14)8(15)10-4-3-6(12)13/h7,11,14H,3-5H2,1-2H3,(H,10,15)(H,12,13)
INCHIAUX=N/A
PUBMED=N/A
SUBMITUSER=mwang87
TAGS=
LIBRARYQUALITY=3
SPECTRUMID=CCMSLIB00000425574
SCANS=546
219.962 100.0 
END IONS

BEGIN IONS
PEPMASS=110.028
CHARGE=1+
MSLEVEL=2
SOURCE_INSTRUMENT=Positive-Quattro_QQQ:25eV
FILENAME=hmdb_intermediate.mgf
SEQ=*..*
IONMODE=Positive
ORGANISM=HMDB
NAME=HMDB:HMDB00965-1370 Hypotaurine M+H
PI=HMDB
DATACOLLECTOR=HMDB
SMILES=NCCS(O)=O
INCHI=InChI=1S/C2H7NO2S/c3-1-2-6(4)5/h1-3H2,(H,4,5)
INCHIAUX=N/A
PUBMED=N/A
SUBMITUSER=mwang87
TAGS=
LIBRARYQUALITY=3
SPECTRUMID=CCMSLIB00000425575
SCANS=547
65.0 100.0 
END IONS

BEGIN IONS
PEPMASS=148.076
CHARGE=1+
MSLEVEL=2
SOURCE_INSTRUMENT=Positive-Quattro_QQQ:40eV
FILENAME=hmdb_intermediate.mgf
SEQ=*..*
IONMODE=Positive
ORGANISM=HMDB
NAME=HMDB:HMDB05785-2444 Indole-3-carbinol M+H
PI=HMDB
DATACOLLECTOR=HMDB
SMILES=OCC1=CNC2=CC=CC=C12
INCHI=InChI=1S/C9H9NO/c11-6-7-5-10-9-4-2-1-3-8(7)9/h1-5,10-11H,6H2
INCHIAUX=N/A
PUBMED=N/A
SUBMITUSER=mwang87
TAGS=
LIBRARYQUALITY=3
SPECTRUMID=CCMSLIB00000425576
SCANS=548
64.0 100.0 
END IONS

BEGIN IONS
PEPMASS=153.019
CHARGE=1+
MSLEVEL=2
SOURCE_INSTRUMENT=Negative-Quattro_QQQ:10eV
FILENAME=hmdb_intermediate.mgf
SEQ=*..*
IONMODE=Negative
ORGANISM=HMDB
NAME=HMDB:HMDB00152-233 Gentisic acid M-H
PI=HMDB
DATACOLLECTOR=HMDB
SMILES=OC(=O)C1=CC(O)=CC=C1O
INCHI=InChI=1S/C7H6O4/c8-4-1-2-6(9)5(3-4)7(10)11/h1-3,8-9H,(H,10,11)
INCHIAUX=N/A
PUBMED=N/A
SUBMITUSER=mwang87
TAGS=
LIBRARYQUALITY=3
SPECTRUMID=CCMSLIB00000425577
SCANS=549
108.884 65.0 
152.9 100.0 
END IONS

BEGIN IONS
PEPMASS=151.04
CHARGE=1+
MSLEVEL=2
SOURCE_INSTRUMENT=Negative-Quattro_QQQ:25eV
FILENAME=hmdb_intermediate.mgf
SEQ=*..*
IONMODE=Negative
ORGANISM=HMDB
NAME=HMDB:HMDB00440-642 3-Hydroxyphenylacetic acid M-H
PI=HMDB
DATACOLLECTOR=HMDB
SMILES=OC(=O)CC1=CC=CC(O)=C1
INCHI=InChI=1S/C8H8O3/c9-7-3-1-2-6(4-7)5-8(10)11/h1-4,9H,5H2,(H,10,11)
INCHIAUX=N/A
PUBMED=N/A
SUBMITUSER=mwang87
TAGS=
LIBRARYQUALITY=3
SPECTRUMID=CCMSLIB00000425578
SCANS=550
65.426 100.0 
107.121 93.0 
END IONS

BEGIN IONS
PEPMASS=151.04
CHARGE=1+
MSLEVEL=2
SOURCE_INSTRUMENT=Negative-Quattro_QQQ:25eV
FILENAME=hmdb_intermediate.mgf
SEQ=*..*
IONMODE=Negative
ORGANISM=HMDB
NAME=HMDB:HMDB00703-982 Mandelic acid M-H
PI=HMDB
DATACOLLECTOR=HMDB
SMILES=O[C@H](C(O)=O)C1=CC=CC=C1
INCHI=InChI=1S/C8H8O3/c9-7(8(10)11)6-4-2-1-3-5-6/h1-5,7,9H,(H,10,11)/t7-/m0/s1
INCHIAUX=N/A
PUBMED=N/A
SUBMITUSER=mwang87
TAGS=
LIBRARYQUALITY=3
SPECTRUMID=CCMSLIB00000425579
SCANS=551
77.051 100.0 
106.916 100.0 
150.751 85.563 
END IONS

BEGIN IONS
PEPMASS=191.103
CHARGE=1+
MSLEVEL=2
SOURCE_INSTRUMENT=Positive-Quattro_QQQ:10eV
FILENAME=hmdb_intermediate.mgf
SEQ=*..*
IONMODE=Positive
ORGANISM=HMDB
NAME=HMDB:HMDB01370-1538 Diaminopimelic acid M+H
PI=HMDB
DATACOLLECTOR=HMDB
SMILES=N[C@@H](CCC[C@H](N)C(O)=O)C(O)=O
INCHI=InChI=1S/C7H14N2O4/c8-4(6(10)11)2-1-3-5(9)7(12)13/h4-5H,1-3,8-9H2,(H,10,11)(H,12,13)/t4-,5-/m0/s1
INCHIAUX=N/A
PUBMED=N/A
SUBMITUSER=mwang87
TAGS=
LIBRARYQUALITY=3
SPECTRUMID=CCMSLIB00000425580
SCANS=552
128.0 100.0 
191.0 60.585 
END IONS

BEGIN IONS
PEPMASS=104.071
CHARGE=1+
MSLEVEL=2
SOURCE_INSTRUMENT=Positive-Quattro_QQQ:10eV
FILENAME=hmdb_intermediate.mgf
SEQ=*..*
IONMODE=Positive
ORGANISM=HMDB
NAME=HMDB:HMDB03911-2349 3-Aminoisobutanoic acid M+H
PI=HMDB
DATACOLLECTOR=HMDB
SMILES=CC(CN)C(O)=O
INCHI=InChI=1S/C4H9NO2/c1-3(2-5)4(6)7/h3H,2,5H2,1H3,(H,6,7)
INCHIAUX=N/A
PUBMED=N/A
SUBMITUSER=mwang87
TAGS=
LIBRARYQUALITY=3
SPECTRUMID=CCMSLIB00000425581
SCANS=553
86.0 100.0 
END IONS

BEGIN IONS
PEPMASS=178.054
CHARGE=1+
MSLEVEL=2
SOURCE_INSTRUMENT=Positive-Quattro_QQQ:40eV
FILENAME=hmdb_intermediate.mgf
SEQ=*..*
IONMODE=Positive
ORGANISM=HMDB
NAME=HMDB:HMDB01015-1389 N-Formyl-L-methionine M+H
PI=HMDB
DATACOLLECTOR=HMDB
SMILES=CSCC[C@@H](NC=O)C(O)=O
INCHI=InChI=1S/C6H11NO3S/c1-11-3-2-5(6(9)10)7-4-8/h4-5H,2-3H2,1H3,(H,7,8)(H,9,10)/t5-/m1/s1
INCHIAUX=N/A
PUBMED=N/A
SUBMITUSER=mwang87
TAGS=
LIBRARYQUALITY=3
SPECTRUMID=CCMSLIB00000425582
SCANS=554
61.03 100.0 
END IONS

BEGIN IONS
PEPMASS=130.05
CHARGE=1+
MSLEVEL=2
SOURCE_INSTRUMENT=Positive-Quattro_QQQ:10eV
FILENAME=hmdb_intermediate.mgf
SEQ=*..*
IONMODE=Positive
ORGANISM=HMDB
NAME=HMDB:HMDB00805-1147 Pyrrolidonecarboxylic acid M+H
PI=HMDB
DATACOLLECTOR=HMDB
SMILES=OC(=O)C1CCC(=O)N1
INCHI=InChI=1S/C5H7NO3/c7-4-2-1-3(6-4)5(8)9/h3H,1-2H2,(H,6,7)(H,8,9)
INCHIAUX=N/A
PUBMED=N/A
SUBMITUSER=mwang87
TAGS=
LIBRARYQUALITY=3
SPECTRUMID=CCMSLIB00000425583
SCANS=555
84.334 100.0 
130.194 66.667 
END IONS

BEGIN IONS
PEPMASS=131.071
CHARGE=1+
MSLEVEL=2
SOURCE_INSTRUMENT=Positive-Quattro_QQQ:40eV
FILENAME=hmdb_intermediate.mgf
SEQ=*..*
IONMODE=Positive
ORGANISM=HMDB
NAME=HMDB:HMDB00491-712 3-Methyl-2-oxovaleric acid M+H
PI=HMDB
DATACOLLECTOR=HMDB
SMILES=CCC(C)C(=O)C(O)=O
INCHI=InChI=1S/C6H10O3/c1-3-4(2)5(7)6(8)9/h4H,3H2,1-2H3,(H,8,9)
INCHIAUX=N/A
PUBMED=N/A
SUBMITUSER=mwang87
TAGS=
LIBRARYQUALITY=3
SPECTRUMID=CCMSLIB00000425584
SCANS=556
68.0 94.276 
72.0 95.453 
77.0 98.724 
83.0 90.776 
92.0 93.53 
98.0 92.1 
99.0 100.0 
END IONS

BEGIN IONS
PEPMASS=159.102
CHARGE=1+
MSLEVEL=2
SOURCE_INSTRUMENT=Negative-Quattro_QQQ:25eV
FILENAME=hmdb_intermediate.mgf
SEQ=*..*
IONMODE=Negative
ORGANISM=HMDB
NAME=HMDB:HMDB00711-994 Hydroxyoctanoic acid M-H
PI=HMDB
DATACOLLECTOR=HMDB
SMILES=CCCCCCC(O)C(O)=O
INCHI=InChI=1S/C8H16O3/c1-2-3-4-5-6-7(9)8(10)11/h7,9H,2-6H2,1H3,(H,10,11)
INCHIAUX=N/A
PUBMED=N/A
SUBMITUSER=mwang87
TAGS=
LIBRARYQUALITY=3
SPECTRUMID=CCMSLIB00000425585
SCANS=557
45.58 100.0 
113.271 74.863 
END IONS

BEGIN IONS
PEPMASS=163.076
CHARGE=1+
MSLEVEL=2
SOURCE_INSTRUMENT=Negative-Quattro_QQQ:10eV
FILENAME=hmdb_intermediate.mgf
SEQ=*..*
IONMODE=Negative
ORGANISM=HMDB
NAME=HMDB:HMDB00329-540 2-Phenylbutyric acid M-H
PI=HMDB
DATACOLLECTOR=HMDB
SMILES=CCC(C(O)=O)C1=CC=CC=C1
INCHI=InChI=1S/C10H12O2/c1-2-9(10(11)12)8-6-4-3-5-7-8/h3-7,9H,2H2,1H3,(H,11,12)
INCHIAUX=N/A
PUBMED=N/A
SUBMITUSER=mwang87
TAGS=
LIBRARYQUALITY=3
SPECTRUMID=CCMSLIB00000425586
SCANS=558
119.25 100.0 
END IONS

BEGIN IONS
PEPMASS=145.014
CHARGE=1+
MSLEVEL=2
SOURCE_INSTRUMENT=Negative-Quattro_QQQ:40eV
FILENAME=hmdb_intermediate.mgf
SEQ=*..*
IONMODE=Negative
ORGANISM=HMDB
NAME=HMDB:HMDB00208-339 Oxoglutaric acid M-H
PI=HMDB
DATACOLLECTOR=HMDB
SMILES=OC(=O)CCC(=O)C(O)=O
INCHI=InChI=1S/C5H6O5/c6-3(5(9)10)1-2-4(7)8/h1-2H2,(H,7,8)(H,9,10)
INCHIAUX=N/A
PUBMED=N/A
SUBMITUSER=mwang87
TAGS=
LIBRARYQUALITY=3
SPECTRUMID=CCMSLIB00000425587
SCANS=559
57.112 100.0 
144.991 64.286 
END IONS

BEGIN IONS
PEPMASS=118.05
CHARGE=1+
MSLEVEL=2
SOURCE_INSTRUMENT=Positive-Quattro_QQQ:25eV
FILENAME=hmdb_intermediate.mgf
SEQ=*..*
IONMODE=Positive
ORGANISM=HMDB
NAME=HMDB:HMDB00532-753 Acetylglycine M+H
PI=HMDB
DATACOLLECTOR=HMDB
SMILES=CC(=O)NCC(O)=O
INCHI=InChI=1S/C4H7NO3/c1-3(6)5-2-4(7)8/h2H2,1H3,(H,5,6)(H,7,8)
INCHIAUX=N/A
PUBMED=N/A
SUBMITUSER=mwang87
TAGS=
LIBRARYQUALITY=3
SPECTRUMID=CCMSLIB00000425588
SCANS=560
43.26 100.0 
END IONS

BEGIN IONS
PEPMASS=109.065
CHARGE=1+
MSLEVEL=2
SOURCE_INSTRUMENT=Positive-Quattro_QQQ:25eV
FILENAME=hmdb_intermediate.mgf
SEQ=*..*
IONMODE=Positive
ORGANISM=HMDB
NAME=HMDB:HMDB01858-1730 p-Cresol M+H
PI=HMDB
DATACOLLECTOR=HMDB
SMILES=CC1=CC=C(O)C=C1
INCHI=InChI=1S/C7H8O/c1-6-2-4-7(8)5-3-6/h2-5,8H,1H3
INCHIAUX=N/A
PUBMED=N/A
SUBMITUSER=mwang87
TAGS=
LIBRARYQUALITY=3
SPECTRUMID=CCMSLIB00000425589
SCANS=561
64.0 63.933 
65.0 54.568 
93.0 100.0 
END IONS

BEGIN IONS
PEPMASS=241.13
CHARGE=1+
MSLEVEL=2
SOURCE_INSTRUMENT=Positive-Quattro_QQQ:10eV
FILENAME=hmdb_intermediate.mgf
SEQ=*..*
IONMODE=Positive
ORGANISM=HMDB
NAME=HMDB:HMDB00745-1059 Homocarnosine M+H
PI=HMDB
DATACOLLECTOR=HMDB
SMILES=NCCCC(=O)N[C@@H](CC1=CNC=N1)C(O)=O
INCHI=InChI=1S/C10H16N4O3/c11-3-1-2-9(15)14-8(10(16)17)4-7-5-12-6-13-7/h5-6,8H,1-4,11H2,(H,12,13)(H,14,15)(H,16,17)/t8-/m0/s1
INCHIAUX=N/A
PUBMED=N/A
SUBMITUSER=mwang87
TAGS=
LIBRARYQUALITY=3
SPECTRUMID=CCMSLIB00000425590
SCANS=562
155.966 100.0 
END IONS

BEGIN IONS
PEPMASS=197.067
CHARGE=1+
MSLEVEL=2
SOURCE_INSTRUMENT=Positive-Quattro_QQQ:25eV
FILENAME=hmdb_intermediate.mgf
SEQ=*..*
IONMODE=Positive
ORGANISM=HMDB
NAME=HMDB:HMDB01857-1727 1,3-Dimethyluric acid M+H
PI=HMDB
DATACOLLECTOR=HMDB
SMILES=CN1C2=C(NC(=O)N2)C(=O)N(C)C1=O
INCHI=InChI=1S/C7H8N4O3/c1-10-4-3(8-6(13)9-4)5(12)11(2)7(10)14/h1-2H3,(H2,8,9,13)
INCHIAUX=N/A
PUBMED=N/A
SUBMITUSER=mwang87
TAGS=
LIBRARYQUALITY=3
SPECTRUMID=CCMSLIB00000425591
SCANS=563
68.042 50.234 
70.924 64.817 
71.551 75.528 
113.4 100.0 
END IONS

BEGIN IONS
PEPMASS=287.165
CHARGE=1+
MSLEVEL=2
SOURCE_INSTRUMENT=Positive-Quattro_QQQ:25eV
FILENAME=hmdb_intermediate.mgf
SEQ=*..*
IONMODE=Positive
ORGANISM=HMDB
NAME=HMDB:HMDB00343-553 2-Hydroxyestrone M+H
PI=HMDB
DATACOLLECTOR=HMDB
SMILES=[H][C@@]12CCC(=O)[C@@]1(C)CC[C@]1([H])C3=C(CC[C@@]21[H])C=C(O)C(O)=C3
INCHI=InChI=1S/C18H22O3/c1-18-7-6-11-12(14(18)4-5-17(18)21)3-2-10-8-15(19)16(20)9-13(10)11/h8-9,11-12,14,19-20H,2-7H2,1H3/t11-,12+,14-,18-/m0/s1
INCHIAUX=N/A
PUBMED=N/A
SUBMITUSER=mwang87
TAGS=
LIBRARYQUALITY=3
SPECTRUMID=CCMSLIB00000425592
SCANS=564
81.095 57.778 
125.623 77.037 
146.972 100.0 
148.424 57.037 
179.22 51.852 
218.856 60.741 
END IONS

BEGIN IONS
PEPMASS=198.003
CHARGE=1+
MSLEVEL=2
SOURCE_INSTRUMENT=Positive-Quattro_QQQ:10eV
FILENAME=hmdb_intermediate.mgf
SEQ=*..*
IONMODE=Positive
ORGANISM=HMDB
NAME=HMDB:HMDB03966-2352 Selenomethionine M+H
PI=HMDB
DATACOLLECTOR=HMDB
SMILES=C[Se]CCC(N)C(O)=O
INCHI=InChI=1S/C5H11NO2Se/c1-9-3-2-4(6)5(7)8/h4H,2-3,6H2,1H3,(H,7,8)
INCHIAUX=N/A
PUBMED=N/A
SUBMITUSER=mwang87
TAGS=
LIBRARYQUALITY=3
SPECTRUMID=CCMSLIB00000425593
SCANS=565
181.0 100.0 
END IONS

BEGIN IONS
PEPMASS=181.071
CHARGE=1+
MSLEVEL=2
SOURCE_INSTRUMENT=Positive-Quattro_QQQ:40eV
FILENAME=hmdb_intermediate.mgf
SEQ=*..*
IONMODE=Positive
ORGANISM=HMDB
NAME=HMDB:HMDB00143-217 D-Galactose M+H
PI=HMDB
DATACOLLECTOR=HMDB
SMILES=OC[C@H]1O[C@H](O)[C@H](O)[C@@H](O)[C@H]1O
INCHI=InChI=1S/C6H12O6/c7-1-2-3(8)4(9)5(10)6(11)12-2/h2-11H,1H2/t2-,3+,4+,5-,6+/m1/s1
INCHIAUX=N/A
PUBMED=N/A
SUBMITUSER=mwang87
TAGS=
LIBRARYQUALITY=3
SPECTRUMID=CCMSLIB00000425594
SCANS=566
73.0 100.0 
85.0 79.258 
END IONS

BEGIN IONS
PEPMASS=181.05
CHARGE=1+
MSLEVEL=2
SOURCE_INSTRUMENT=Positive-Quattro_QQQ:25eV
FILENAME=hmdb_intermediate.mgf
SEQ=*..*
IONMODE=Positive
ORGANISM=HMDB
NAME=HMDB:HMDB01879-1778 Aspirin M+H
PI=HMDB
DATACOLLECTOR=HMDB
SMILES=CC(=O)OC1=CC=CC=C1C(O)=O
INCHI=InChI=1S/C9H8O4/c1-6(10)13-8-5-3-2-4-7(8)9(11)12/h2-5H,1H3,(H,11,12)
INCHIAUX=N/A
PUBMED=N/A
SUBMITUSER=mwang87
TAGS=
LIBRARYQUALITY=3
SPECTRUMID=CCMSLIB00000425595
SCANS=567
85.0 100.0 
END IONS

BEGIN IONS
PEPMASS=375.29
CHARGE=1+
MSLEVEL=2
SOURCE_INSTRUMENT=Positive-Quattro_QQQ:25eV
FILENAME=hmdb_intermediate.mgf
SEQ=*..*
IONMODE=Positive
ORGANISM=HMDB
NAME=HMDB:HMDB00308-526 3b-Hydroxy-5-cholenoic acid M+H
PI=HMDB
DATACOLLECTOR=HMDB
SMILES=[H][C@@]12CC[C@H]([C@H](C)CCC(O)=O)[C@@]1(C)CC[C@@]1([H])[C@@]2([H])CC=C2C[C@@H](O)CC[C@]12C
INCHI=InChI=1S/C24H38O3/c1-15(4-9-22(26)27)19-7-8-20-18-6-5-16-14-17(25)10-12-23(16,2)21(18)11-13-24(19,20)3/h5,15,17-21,25H,4,6-14H2,1-3H3,(H,26,27)/t15-,17+,18+,19-,20+,21+,23+,24-/m1/s1
INCHIAUX=N/A
PUBMED=N/A
SUBMITUSER=mwang87
TAGS=
LIBRARYQUALITY=3
SPECTRUMID=CCMSLIB00000425596
SCANS=568
67.597 64.674 
94.969 100.0 
161.071 59.748 
END IONS

BEGIN IONS
PEPMASS=123.056
CHARGE=1+
MSLEVEL=2
SOURCE_INSTRUMENT=Positive-Quattro_QQQ:10eV
FILENAME=hmdb_intermediate.mgf
SEQ=*..*
IONMODE=Positive
ORGANISM=HMDB
NAME=HMDB:HMDB01406-1559 Niacinamide M+H
PI=HMDB
DATACOLLECTOR=HMDB
SMILES=NC(=O)C1=CN=CC=C1
INCHI=InChI=1S/C6H6N2O/c7-6(9)5-2-1-3-8-4-5/h1-4H,(H2,7,9)
INCHIAUX=N/A
PUBMED=N/A
SUBMITUSER=mwang87
TAGS=
LIBRARYQUALITY=3
SPECTRUMID=CCMSLIB00000425597
SCANS=569
122.957 100.0 
END IONS

BEGIN IONS
PEPMASS=158.082
CHARGE=1+
MSLEVEL=2
SOURCE_INSTRUMENT=Positive-Quattro_QQQ:10eV
FILENAME=hmdb_intermediate.mgf
SEQ=*..*
IONMODE=Positive
ORGANISM=HMDB
NAME=HMDB:HMDB00459-668 3-Methylcrotonylglycine M+H
PI=HMDB
DATACOLLECTOR=HMDB
SMILES=CC(C)=CC(=O)NCC(O)=O
INCHI=InChI=1S/C7H11NO3/c1-5(2)3-6(9)8-4-7(10)11/h3H,4H2,1-2H3,(H,8,9)(H,10,11)
INCHIAUX=N/A
PUBMED=N/A
SUBMITUSER=mwang87
TAGS=
LIBRARYQUALITY=3
SPECTRUMID=CCMSLIB00000425598
SCANS=570
83.352 100.0 
END IONS

BEGIN IONS
PEPMASS=163.061
CHARGE=1+
MSLEVEL=2
SOURCE_INSTRUMENT=Positive-Quattro_QQQ:40eV
FILENAME=hmdb_intermediate.mgf
SEQ=*..*
IONMODE=Positive
ORGANISM=HMDB
NAME=HMDB:HMDB00345-557 3-Hydroxyadipic acid M+H
PI=HMDB
DATACOLLECTOR=HMDB
SMILES=OC(CCC(O)=O)CC(O)=O
INCHI=InChI=1S/C6H10O5/c7-4(3-6(10)11)1-2-5(8)9/h4,7H,1-3H2,(H,8,9)(H,10,11)
INCHIAUX=N/A
PUBMED=N/A
SUBMITUSER=mwang87
TAGS=
LIBRARYQUALITY=3
SPECTRUMID=CCMSLIB00000425599
SCANS=571
60.0 100.0 
END IONS

BEGIN IONS
PEPMASS=45.034
CHARGE=1+
MSLEVEL=2
SOURCE_INSTRUMENT=Positive-Quattro_QQQ:25eV
FILENAME=hmdb_intermediate.mgf
SEQ=*..*
IONMODE=Positive
ORGANISM=HMDB
NAME=HMDB:HMDB00990-1379 Acetaldehyde M+H
PI=HMDB
DATACOLLECTOR=HMDB
SMILES=CC=O
INCHI=InChI=1S/C2H4O/c1-2-3/h2H,1H3
INCHIAUX=N/A
PUBMED=N/A
SUBMITUSER=mwang87
TAGS=
LIBRARYQUALITY=3
SPECTRUMID=CCMSLIB00000425600
SCANS=572
30.16 100.0 
30.536 58.398 
44.948 53.928 
END IONS

BEGIN IONS
PEPMASS=132.102
CHARGE=1+
MSLEVEL=2
SOURCE_INSTRUMENT=Positive-Quattro_QQQ:40eV
FILENAME=hmdb_intermediate.mgf
SEQ=*..*
IONMODE=Positive
ORGANISM=HMDB
NAME=HMDB:HMDB01645-1671 L-Norleucine M+H
PI=HMDB
DATACOLLECTOR=HMDB
SMILES=CCCC[C@H](N)C(O)=O
INCHI=InChI=1S/C6H13NO2/c1-2-3-4-5(7)6(8)9/h5H,2-4,7H2,1H3,(H,8,9)/t5-/m0/s1
INCHIAUX=N/A
PUBMED=N/A
SUBMITUSER=mwang87
TAGS=
LIBRARYQUALITY=3
SPECTRUMID=CCMSLIB00000425601
SCANS=573
41.297 100.0 
43.295 57.862 
END IONS

BEGIN IONS
PEPMASS=331.227
CHARGE=1+
MSLEVEL=2
SOURCE_INSTRUMENT=Positive-Quattro_QQQ:25eV
FILENAME=hmdb_intermediate.mgf
SEQ=*..*
IONMODE=Positive
ORGANISM=HMDB
NAME=HMDB:HMDB00920-1307 11a-Hydroxyprogesterone M+H
PI=HMDB
DATACOLLECTOR=HMDB
SMILES=[H][C@@]12CCC(C(C)=O)[C@@]1(C)C[C@@H](O)[C@@]1([H])[C@@]2([H])CCC2=CC(=O)CC[C@]12C
INCHI=InChI=1S/C21H30O3/c1-12(22)16-6-7-17-15-5-4-13-10-14(23)8-9-20(13,2)19(15)18(24)11-21(16,17)3/h10,15-19,24H,4-9,11H2,1-3H3/t15-,16?,17-,18+,19+,20-,21+/m0/s1
INCHIAUX=N/A
PUBMED=N/A
SUBMITUSER=mwang87
TAGS=
LIBRARYQUALITY=3
SPECTRUMID=CCMSLIB00000425602
SCANS=574
43.555 78.537 
85.288 82.927 
97.234 82.927 
121.161 100.0 
123.165 75.61 
END IONS

BEGIN IONS
PEPMASS=138.079
CHARGE=1+
MSLEVEL=2
SOURCE_INSTRUMENT=Positive-Quattro_QQQ:25eV
FILENAME=hmdb_intermediate.mgf
SEQ=*..*
IONMODE=Positive
ORGANISM=HMDB
NAME=HMDB:HMDB00699-973 1-Methylnicotinamide M+H
PI=HMDB
DATACOLLECTOR=HMDB
SMILES=C[N+]1=CC=CC(=C1)C(N)=O
INCHI=InChI=1S/C7H8N2O/c1-9-4-2-3-6(5-9)7(8)10/h2-5H,1H3,(H-,8,10)/p+1
INCHIAUX=N/A
PUBMED=N/A
SUBMITUSER=mwang87
TAGS=
LIBRARYQUALITY=3
SPECTRUMID=CCMSLIB00000425603
SCANS=575
78.0 65.374 
92.0 53.638 
94.0 100.0 
END IONS

BEGIN IONS
PEPMASS=359.147
CHARGE=1+
MSLEVEL=2
SOURCE_INSTRUMENT=Positive-Quattro_QQQ:10eV
FILENAME=hmdb_intermediate.mgf
SEQ=*..*
IONMODE=Positive
ORGANISM=HMDB
NAME=HMDB:HMDB01069-1415 2-Phenylaminoadenosine M+H
PI=HMDB
DATACOLLECTOR=HMDB
SMILES=NC1=C2N=CN(C3OC(CO)C(O)C3O)C2=NC(NC2=CC=CC=C2)=N1
INCHI=InChI=1S/C16H18N6O4/c17-13-10-14(21-16(20-13)19-8-4-2-1-3-5-8)22(7-18-10)15-12(25)11(24)9(6-23)26-15/h1-5,7,9,11-12,15,23-25H,6H2,(H3,17,19,20,21)
INCHIAUX=N/A
PUBMED=N/A
SUBMITUSER=mwang87
TAGS=
LIBRARYQUALITY=3
SPECTRUMID=CCMSLIB00000425604
SCANS=576
359.0 100.0 
END IONS

BEGIN IONS
PEPMASS=201.113
CHARGE=1+
MSLEVEL=2
SOURCE_INSTRUMENT=Negative-Quattro_QQQ:10eV
FILENAME=hmdb_intermediate.mgf
SEQ=*..*
IONMODE=Negative
ORGANISM=HMDB
NAME=HMDB:HMDB00792-1129 Sebacic acid M-H
PI=HMDB
DATACOLLECTOR=HMDB
SMILES=OC(=O)CCCCCCCCC(O)=O
INCHI=InChI=1S/C10H18O4/c11-9(12)7-5-3-1-2-4-6-8-10(13)14/h1-8H2,(H,11,12)(H,13,14)
INCHIAUX=N/A
PUBMED=N/A
SUBMITUSER=mwang87
TAGS=
LIBRARYQUALITY=3
SPECTRUMID=CCMSLIB00000425605
SCANS=577
201.048 100.0 
END IONS

BEGIN IONS
PEPMASS=131.071
CHARGE=1+
MSLEVEL=2
SOURCE_INSTRUMENT=Positive-Quattro_QQQ:25eV
FILENAME=hmdb_intermediate.mgf
SEQ=*..*
IONMODE=Positive
ORGANISM=HMDB
NAME=HMDB:HMDB00491-711 3-Methyl-2-oxovaleric acid M+H
PI=HMDB
DATACOLLECTOR=HMDB
SMILES=CCC(C)C(=O)C(O)=O
INCHI=InChI=1S/C6H10O3/c1-3-4(2)5(7)6(8)9/h4H,3H2,1-2H3,(H,8,9)
INCHIAUX=N/A
PUBMED=N/A
SUBMITUSER=mwang87
TAGS=
LIBRARYQUALITY=3
SPECTRUMID=CCMSLIB00000425606
SCANS=578
77.0 73.933 
98.0 62.865 
99.0 100.0 
END IONS

BEGIN IONS
PEPMASS=104.071
CHARGE=1+
MSLEVEL=2
SOURCE_INSTRUMENT=Positive-Quattro_QQQ:40eV
FILENAME=hmdb_intermediate.mgf
SEQ=*..*
IONMODE=Positive
ORGANISM=HMDB
NAME=HMDB:HMDB00092-143 Dimethylglycine M+H
PI=HMDB
DATACOLLECTOR=HMDB
SMILES=CN(C)CC(O)=O
INCHI=InChI=1S/C4H9NO2/c1-5(2)3-4(6)7/h3H2,1-2H3,(H,6,7)
INCHIAUX=N/A
PUBMED=N/A
SUBMITUSER=mwang87
TAGS=
LIBRARYQUALITY=3
SPECTRUMID=CCMSLIB00000425607
SCANS=579
74.914 100.0 
99.671 82.144 
END IONS

BEGIN IONS
PEPMASS=144.066
CHARGE=1+
MSLEVEL=2
SOURCE_INSTRUMENT=Positive-Quattro_QQQ:10eV
FILENAME=hmdb_intermediate.mgf
SEQ=*..*
IONMODE=Positive
ORGANISM=HMDB
NAME=HMDB:HMDB00894-1259 Vinylacetylglycine M+H
PI=HMDB
DATACOLLECTOR=HMDB
SMILES=OC(=O)CNC(=O)CC=C
INCHI=InChI=1S/C6H9NO3/c1-2-3-5(8)7-4-6(9)10/h2H,1,3-4H2,(H,7,8)(H,9,10)
INCHIAUX=N/A
PUBMED=N/A
SUBMITUSER=mwang87
TAGS=
LIBRARYQUALITY=3
SPECTRUMID=CCMSLIB00000425608
SCANS=580
89.94 100.0 
END IONS

BEGIN IONS
PEPMASS=181.086
CHARGE=1+
MSLEVEL=2
SOURCE_INSTRUMENT=Positive-Quattro_QQQ:25eV
FILENAME=hmdb_intermediate.mgf
SEQ=*..*
IONMODE=Positive
ORGANISM=HMDB
NAME=HMDB:HMDB11751-2503 3-Methoxybenzenepropanoic acid M+H
PI=HMDB
DATACOLLECTOR=HMDB
SMILES=COC1=CC(CCC(O)=O)=CC=C1
INCHI=InChI=1S/C10H12O3/c1-13-9-4-2-3-8(7-9)5-6-10(11)12/h2-4,7H,5-6H2,1H3,(H,11,12)
INCHIAUX=N/A
PUBMED=N/A
SUBMITUSER=mwang87
TAGS=
LIBRARYQUALITY=3
SPECTRUMID=CCMSLIB00000425609
SCANS=581
121.08 65.984962947 
135.12 100.0 
END IONS

BEGIN IONS
PEPMASS=269.284
CHARGE=1+
MSLEVEL=2
SOURCE_INSTRUMENT=Negative-Quattro_QQQ:40eV
FILENAME=hmdb_intermediate.mgf
SEQ=*..*
IONMODE=Negative
ORGANISM=HMDB
NAME=HMDB:HMDB02350-2075 Octadecanol M-H
PI=HMDB
DATACOLLECTOR=HMDB
SMILES=CCCCCCCCCCCCCCCCCCO
INCHI=InChI=1S/C18H38O/c1-2-3-4-5-6-7-8-9-10-11-12-13-14-15-16-17-18-19/h19H,2-18H2,1H3
INCHIAUX=N/A
PUBMED=N/A
SUBMITUSER=mwang87
TAGS=
LIBRARYQUALITY=3
SPECTRUMID=CCMSLIB00000425610
SCANS=582
78.2 100.0 
78.73 54.673 
END IONS

BEGIN IONS
PEPMASS=166.073
CHARGE=1+
MSLEVEL=2
SOURCE_INSTRUMENT=Positive-Quattro_QQQ:25eV
FILENAME=hmdb_intermediate.mgf
SEQ=*..*
IONMODE=Positive
ORGANISM=HMDB
NAME=HMDB:HMDB00897-1269 7-Methylguanine M+H
PI=HMDB
DATACOLLECTOR=HMDB
SMILES=CN1C=NC2=C1C(=O)N=C(N)N2
INCHI=InChI=1S/C6H7N5O/c1-11-2-8-4-3(11)5(12)10-6(7)9-4/h2H,1H3,(H3,7,9,10,12)
INCHIAUX=N/A
PUBMED=N/A
SUBMITUSER=mwang87
TAGS=
LIBRARYQUALITY=3
SPECTRUMID=CCMSLIB00000425611
SCANS=583
148.84 100.0 
END IONS

BEGIN IONS
PEPMASS=287.056
CHARGE=1+
MSLEVEL=2
SOURCE_INSTRUMENT=Positive-Quattro_QQQ:40eV
FILENAME=hmdb_intermediate.mgf
SEQ=*..*
IONMODE=Positive
ORGANISM=HMDB
NAME=HMDB:HMDB05801-2450 Kaempferol M+H
PI=HMDB
DATACOLLECTOR=HMDB
SMILES=OC1=CC=C(C=C1)C1=C(O)C(=O)C2=C(O1)C=C(O)C=C2O
INCHI=InChI=1S/C15H10O6/c16-8-3-1-7(2-4-8)15-14(20)13(19)12-10(18)5-9(17)6-11(12)21-15/h1-6,16-18,20H
INCHIAUX=N/A
PUBMED=N/A
SUBMITUSER=mwang87
TAGS=
LIBRARYQUALITY=3
SPECTRUMID=CCMSLIB00000425612
SCANS=584
68.0 66.994 
120.0 60.645 
152.0 100.0 
END IONS

BEGIN IONS
PEPMASS=76.0399
CHARGE=1+
MSLEVEL=2
SOURCE_INSTRUMENT=Positive-Quattro_QQQ:25eV
FILENAME=hmdb_intermediate.mgf
SEQ=*..*
IONMODE=Positive
ORGANISM=HMDB
NAME=HMDB:HMDB00123-181 Glycine M+H
PI=HMDB
DATACOLLECTOR=HMDB
SMILES=NCC(O)=O
INCHI=InChI=1S/C2H5NO2/c3-1-2(4)5/h1,3H2,(H,4,5)
INCHIAUX=N/A
PUBMED=N/A
SUBMITUSER=mwang87
TAGS=
LIBRARYQUALITY=3
SPECTRUMID=CCMSLIB00000425613
SCANS=585
30.375 100.0 
END IONS

BEGIN IONS
PEPMASS=162.077
CHARGE=1+
MSLEVEL=2
SOURCE_INSTRUMENT=Positive-Quattro_QQQ:25eV
FILENAME=hmdb_intermediate.mgf
SEQ=*..*
IONMODE=Positive
ORGANISM=HMDB
NAME=HMDB:HMDB00510-732 Aminoadipic acid M+H
PI=HMDB
DATACOLLECTOR=HMDB
SMILES=NC(CCCC(O)=O)C(O)=O
INCHI=InChI=1S/C6H11NO4/c7-4(6(10)11)2-1-3-5(8)9/h4H,1-3,7H2,(H,8,9)(H,10,11)
INCHIAUX=N/A
PUBMED=N/A
SUBMITUSER=mwang87
TAGS=
LIBRARYQUALITY=3
SPECTRUMID=CCMSLIB00000425614
SCANS=586
55.185 89.916 
97.997 100.0 
END IONS

BEGIN IONS
PEPMASS=114.067
CHARGE=1+
MSLEVEL=2
SOURCE_INSTRUMENT=Positive-Quattro_QQQ:25eV
FILENAME=hmdb_intermediate.mgf
SEQ=*..*
IONMODE=Positive
ORGANISM=HMDB
NAME=HMDB:HMDB00562-786 Creatinine M+H
PI=HMDB
DATACOLLECTOR=HMDB
SMILES=CN1CC(=O)NC1=N
INCHI=InChI=1S/C4H7N3O/c1-7-2-3(8)6-4(7)5/h2H2,1H3,(H2,5,6,8)
INCHIAUX=N/A
PUBMED=N/A
SUBMITUSER=mwang87
TAGS=
LIBRARYQUALITY=3
SPECTRUMID=CCMSLIB00000425615
SCANS=587
44.138 100.0 
END IONS

BEGIN IONS
PEPMASS=114.067
CHARGE=1+
MSLEVEL=2
SOURCE_INSTRUMENT=Positive-Quattro_QQQ:10eV
FILENAME=hmdb_intermediate.mgf
SEQ=*..*
IONMODE=Positive
ORGANISM=HMDB
NAME=HMDB:HMDB00562-785 Creatinine M+H
PI=HMDB
DATACOLLECTOR=HMDB
SMILES=CN1CC(=O)NC1=N
INCHI=InChI=1S/C4H7N3O/c1-7-2-3(8)6-4(7)5/h2H2,1H3,(H2,5,6,8)
INCHIAUX=N/A
PUBMED=N/A
SUBMITUSER=mwang87
TAGS=
LIBRARYQUALITY=3
SPECTRUMID=CCMSLIB00000425616
SCANS=588
113.99 100.0 
END IONS

BEGIN IONS
PEPMASS=169.098
CHARGE=1+
MSLEVEL=2
SOURCE_INSTRUMENT=Positive-Quattro_QQQ:40eV
FILENAME=hmdb_intermediate.mgf
SEQ=*..*
IONMODE=Positive
ORGANISM=HMDB
NAME=HMDB:HMDB01431-1576 Pyridoxamine M+H
PI=HMDB
DATACOLLECTOR=HMDB
SMILES=CC1=C(O)C(CN)=C(CO)C=N1
INCHI=InChI=1S/C8H12N2O2/c1-5-8(12)7(2-9)6(4-11)3-10-5/h3,11-12H,2,4,9H2,1H3
INCHIAUX=N/A
PUBMED=N/A
SUBMITUSER=mwang87
TAGS=
LIBRARYQUALITY=3
SPECTRUMID=CCMSLIB00000425617
SCANS=589
77.136 100.0 
END IONS

BEGIN IONS
PEPMASS=129.066
CHARGE=1+
MSLEVEL=2
SOURCE_INSTRUMENT=Positive-Quattro_QQQ:40eV
FILENAME=hmdb_intermediate.mgf
SEQ=*..*
IONMODE=Positive
ORGANISM=HMDB
NAME=HMDB:HMDB00079-131 Dihydrothymine M+H
PI=HMDB
DATACOLLECTOR=HMDB
SMILES=CC1CNC(=O)NC1=O
INCHI=InChI=1S/C5H8N2O2/c1-3-2-6-5(9)7-4(3)8/h3H,2H2,1H3,(H2,6,7,8,9)
INCHIAUX=N/A
PUBMED=N/A
SUBMITUSER=mwang87
TAGS=
LIBRARYQUALITY=3
SPECTRUMID=CCMSLIB00000425618
SCANS=590
41.338 100.0 
END IONS

BEGIN IONS
PEPMASS=160.097
CHARGE=1+
MSLEVEL=2
SOURCE_INSTRUMENT=Positive-Quattro_QQQ:25eV
FILENAME=hmdb_intermediate.mgf
SEQ=*..*
IONMODE=Positive
ORGANISM=HMDB
NAME=HMDB:HMDB00927-1319 Valerylglycine M+H
PI=HMDB
DATACOLLECTOR=HMDB
SMILES=CCCCC(=O)NCC(O)=O
INCHI=InChI=1S/C7H13NO3/c1-2-3-4-6(9)8-5-7(10)11/h2-5H2,1H3,(H,8,9)(H,10,11)
INCHIAUX=N/A
PUBMED=N/A
SUBMITUSER=mwang87
TAGS=
LIBRARYQUALITY=3
SPECTRUMID=CCMSLIB00000425619
SCANS=591
57.521 100.0 
END IONS

BEGIN IONS
PEPMASS=166.087
CHARGE=1+
MSLEVEL=2
SOURCE_INSTRUMENT=Positive-Quattro_QQQ:25eV
FILENAME=hmdb_intermediate.mgf
SEQ=*..*
IONMODE=Positive
ORGANISM=HMDB
NAME=HMDB:HMDB00159-249 L-Phenylalanine M+H
PI=HMDB
DATACOLLECTOR=HMDB
SMILES=N[C@@H](CC1=CC=CC=C1)C(O)=O
INCHI=InChI=1S/C9H11NO2/c10-8(9(11)12)6-7-4-2-1-3-5-7/h1-5,8H,6,10H2,(H,11,12)/t8-/m0/s1
INCHIAUX=N/A
PUBMED=N/A
SUBMITUSER=mwang87
TAGS=
LIBRARYQUALITY=3
SPECTRUMID=CCMSLIB00000425620
SCANS=592
103.0 90.667 
119.948 100.0 
END IONS

BEGIN IONS
PEPMASS=369.373
CHARGE=1+
MSLEVEL=2
SOURCE_INSTRUMENT=Positive-Quattro_QQQ:25eV
FILENAME=hmdb_intermediate.mgf
SEQ=*..*
IONMODE=Positive
ORGANISM=HMDB
NAME=HMDB:HMDB02003-1939 Tetracosanoic acid M+H
PI=HMDB
DATACOLLECTOR=HMDB
SMILES=CCCCCCCCCCCCCCCCCCCCCCCC(O)=O
INCHI=InChI=1S/C24H48O2/c1-2-3-4-5-6-7-8-9-10-11-12-13-14-15-16-17-18-19-20-21-22-23-24(25)26/h2-23H2,1H3,(H,25,26)
INCHIAUX=N/A
PUBMED=N/A
SUBMITUSER=mwang87
TAGS=
LIBRARYQUALITY=3
SPECTRUMID=CCMSLIB00000425621
SCANS=593
177.0 100.0 
178.0 76.75 
369.0 75.339 
END IONS

BEGIN IONS
PEPMASS=99.0446
CHARGE=1+
MSLEVEL=2
SOURCE_INSTRUMENT=Negative-Quattro_QQQ:25eV
FILENAME=hmdb_intermediate.mgf
SEQ=*..*
IONMODE=Negative
ORGANISM=HMDB
NAME=HMDB:HMDB00509-729 Senecioic acid M-H
PI=HMDB
DATACOLLECTOR=HMDB
SMILES=CC(C)=CC(O)=O
INCHI=InChI=1S/C5H8O2/c1-4(2)3-5(6)7/h3H,1-2H3,(H,6,7)
INCHIAUX=N/A
PUBMED=N/A
SUBMITUSER=mwang87
TAGS=
LIBRARYQUALITY=3
SPECTRUMID=CCMSLIB00000425622
SCANS=594
55.501 99.286 
99.352 100.0 
END IONS

BEGIN IONS
PEPMASS=115.003
CHARGE=1+
MSLEVEL=2
SOURCE_INSTRUMENT=Negative-Quattro_QQQ:10eV
FILENAME=hmdb_intermediate.mgf
SEQ=*..*
IONMODE=Negative
ORGANISM=HMDB
NAME=HMDB:HMDB00176-280 Maleic acid M-H
PI=HMDB
DATACOLLECTOR=HMDB
SMILES=OC(=O)\C=C/C(O)=O
INCHI=InChI=1S/C4H4O4/c5-3(6)1-2-4(7)8/h1-2H,(H,5,6)(H,7,8)/b2-1-
INCHIAUX=N/A
PUBMED=N/A
SUBMITUSER=mwang87
TAGS=
LIBRARYQUALITY=3
SPECTRUMID=CCMSLIB00000425623
SCANS=595
71.102 100.0 
END IONS

BEGIN IONS
PEPMASS=147.113
CHARGE=1+
MSLEVEL=2
SOURCE_INSTRUMENT=Positive-Quattro_QQQ:10eV
FILENAME=hmdb_intermediate.mgf
SEQ=*..*
IONMODE=Positive
ORGANISM=HMDB
NAME=HMDB:HMDB00182-289 L-Lysine M+H
PI=HMDB
DATACOLLECTOR=HMDB
SMILES=NCCCC[C@H](N)C(O)=O
INCHI=InChI=1S/C6H14N2O2/c7-4-2-1-3-5(8)6(9)10/h5H,1-4,7-8H2,(H,9,10)/t5-/m0/s1
INCHIAUX=N/A
PUBMED=N/A
SUBMITUSER=mwang87
TAGS=
LIBRARYQUALITY=3
SPECTRUMID=CCMSLIB00000425624
SCANS=596
84.116 100.0 
129.978 81.865 
END IONS

BEGIN IONS
PEPMASS=171.029
CHARGE=1+
MSLEVEL=2
SOURCE_INSTRUMENT=Positive-Quattro_QQQ:40eV
FILENAME=hmdb_intermediate.mgf
SEQ=*..*
IONMODE=Positive
ORGANISM=HMDB
NAME=HMDB:HMDB05807-2456 Gallic acid M+H
PI=HMDB
DATACOLLECTOR=HMDB
SMILES=OC(=O)C1=CC(O)=C(O)C(O)=C1
INCHI=InChI=1S/C7H6O5/c8-4-1-3(7(11)12)2-5(9)6(4)10/h1-2,8-10H,(H,11,12)
INCHIAUX=N/A
PUBMED=N/A
SUBMITUSER=mwang87
TAGS=
LIBRARYQUALITY=3
SPECTRUMID=CCMSLIB00000425625
SCANS=597
51.0 70.878 
53.0 82.024 
79.0 52.408 
81.0 100.0 
END IONS

BEGIN IONS
PEPMASS=227.114
CHARGE=1+
MSLEVEL=2
SOURCE_INSTRUMENT=Positive-Quattro_QQQ:40eV
FILENAME=hmdb_intermediate.mgf
SEQ=*..*
IONMODE=Positive
ORGANISM=HMDB
NAME=HMDB:HMDB00033-56 Carnosine M+H
PI=HMDB
DATACOLLECTOR=HMDB
SMILES=NCCC(=O)N[C@@H](CC1=CN=CN1)C(O)=O
INCHI=InChI=1S/C9H14N4O3/c10-2-1-8(14)13-7(9(15)16)3-6-4-11-5-12-6/h4-5,7H,1-3,10H2,(H,11,12)(H,13,14)(H,15,16)/t7-/m0/s1
INCHIAUX=N/A
PUBMED=N/A
SUBMITUSER=mwang87
TAGS=
LIBRARYQUALITY=3
SPECTRUMID=CCMSLIB00000425626
SCANS=598
82.929 87.149 
110.043 100.0 
END IONS

BEGIN IONS
PEPMASS=132.102
CHARGE=1+
MSLEVEL=2
SOURCE_INSTRUMENT=Positive-Quattro_QQQ:10eV
FILENAME=hmdb_intermediate.mgf
SEQ=*..*
IONMODE=Positive
ORGANISM=HMDB
NAME=HMDB:HMDB00687-951 L-Leucine M+H
PI=HMDB
DATACOLLECTOR=HMDB
SMILES=CC(C)C[C@H](N)C(O)=O
INCHI=InChI=1S/C6H13NO2/c1-4(2)3-5(7)6(8)9/h4-5H,3,7H2,1-2H3,(H,8,9)/t5-/m0/s1
INCHIAUX=N/A
PUBMED=N/A
SUBMITUSER=mwang87
TAGS=
LIBRARYQUALITY=3
SPECTRUMID=CCMSLIB00000425627
SCANS=599
86.087 100.0 
END IONS

BEGIN IONS
PEPMASS=60.0813
CHARGE=1+
MSLEVEL=2
SOURCE_INSTRUMENT=Positive-Quattro_QQQ:10eV
FILENAME=hmdb_intermediate.mgf
SEQ=*..*
IONMODE=Positive
ORGANISM=HMDB
NAME=HMDB:HMDB00906-1292 Trimethylamine M+H
PI=HMDB
DATACOLLECTOR=HMDB
SMILES=CN(C)C
INCHI=InChI=1S/C3H9N/c1-4(2)3/h1-3H3
INCHIAUX=N/A
PUBMED=N/A
SUBMITUSER=mwang87
TAGS=
LIBRARYQUALITY=3
SPECTRUMID=CCMSLIB00000425628
SCANS=600
59.0 100.0 
END IONS

BEGIN IONS
PEPMASS=174.92
CHARGE=1+
MSLEVEL=2
SOURCE_INSTRUMENT=Positive-Quattro_QQQ:10eV
FILENAME=hmdb_intermediate.mgf
SEQ=*..*
IONMODE=Positive
ORGANISM=HMDB
NAME=HMDB:HMDB00250-427 Pyrophosphate M+H
PI=HMDB
DATACOLLECTOR=HMDB
SMILES=[O-]P([O-])(=O)OP([O-])([O-])=O
INCHI=InChI=1S/H4O7P2/c1-8(2,3)7-9(4,5)6/h(H2,1,2,3)(H2,4,5,6)/p-4
INCHIAUX=N/A
PUBMED=N/A
SUBMITUSER=mwang87
TAGS=
LIBRARYQUALITY=3
SPECTRUMID=CCMSLIB00000425629
SCANS=601
99.0 69.309 
179.0 100.0 
END IONS

BEGIN IONS
PEPMASS=647.465
CHARGE=1+
MSLEVEL=2
SOURCE_INSTRUMENT=Negative-Quattro_QQQ:40eV
FILENAME=hmdb_intermediate.mgf
SEQ=*..*
IONMODE=Negative
ORGANISM=HMDB
NAME=HMDB:HMDB00674-935 PA(16:0/16:0) M-H
PI=HMDB
DATACOLLECTOR=HMDB
SMILES=CCCCCCCCCCCCCCCC(=O)OC[C@H](COP(O)(O)=O)OC(=O)CCCCCCCCCCCCCCC
INCHI=InChI=1S/C35H69O8P/c1-3-5-7-9-11-13-15-17-19-21-23-25-27-29-34(36)41-31-33(32-42-44(38,39)40)43-35(37)30-28-26-24-22-20-18-16-14-12-10-8-6-4-2/h33H,3-32H2,1-2H3,(H2,38,39,40)/t33-/m1/s1
INCHIAUX=N/A
PUBMED=N/A
SUBMITUSER=mwang87
TAGS=
LIBRARYQUALITY=3
SPECTRUMID=CCMSLIB00000425630
SCANS=602
255.0 100.0 
END IONS

BEGIN IONS
PEPMASS=287.056
CHARGE=1+
MSLEVEL=2
SOURCE_INSTRUMENT=Positive-Quattro_QQQ:10eV
FILENAME=hmdb_intermediate.mgf
SEQ=*..*
IONMODE=Positive
ORGANISM=HMDB
NAME=HMDB:HMDB05801-2448 Kaempferol M+H
PI=HMDB
DATACOLLECTOR=HMDB
SMILES=OC1=CC=C(C=C1)C1=C(O)C(=O)C2=C(O1)C=C(O)C=C2O
INCHI=InChI=1S/C15H10O6/c16-8-3-1-7(2-4-8)15-14(20)13(19)12-10(18)5-9(17)6-11(12)21-15/h1-6,16-18,20H
INCHIAUX=N/A
PUBMED=N/A
SUBMITUSER=mwang87
TAGS=
LIBRARYQUALITY=3
SPECTRUMID=CCMSLIB00000425631
SCANS=603
286.0 100.0 
END IONS

BEGIN IONS
PEPMASS=159.041
CHARGE=1+
MSLEVEL=2
SOURCE_INSTRUMENT=Positive-Quattro_QQQ:10eV
FILENAME=hmdb_intermediate.mgf
SEQ=*..*
IONMODE=Positive
ORGANISM=HMDB
NAME=HMDB:HMDB03349-2256 L-Dihydroorotic acid M+H
PI=HMDB
DATACOLLECTOR=HMDB
SMILES=OC(=O)[C@@H]1CC(=O)NC(=O)N1
INCHI=InChI=1S/C5H6N2O4/c8-3-1-2(4(9)10)6-5(11)7-3/h2H,1H2,(H,9,10)(H2,6,7,8,11)/t2-/m0/s1
INCHIAUX=N/A
PUBMED=N/A
SUBMITUSER=mwang87
TAGS=
LIBRARYQUALITY=3
SPECTRUMID=CCMSLIB00000425632
SCANS=604
74.0 59.14 
87.0 99.444 
88.0 77.169 
113.0 65.832 
159.0 100.0 
END IONS

BEGIN IONS
PEPMASS=365.233
CHARGE=1+
MSLEVEL=2
SOURCE_INSTRUMENT=Positive-Quattro_QQQ:25eV
FILENAME=hmdb_intermediate.mgf
SEQ=*..*
IONMODE=Positive
ORGANISM=HMDB
NAME=HMDB:HMDB00903-1284 Tetrahydrocortisone M+H
PI=HMDB
DATACOLLECTOR=HMDB
SMILES=[H][C@@]12CC[C@](O)(C(=O)CO)[C@@]1(C)CC(=O)[C@@]1([H])[C@@]2([H])CC[C@@]2([H])C[C@@H](O)CC[C@]12C
INCHI=InChI=1S/C21H32O5/c1-19-7-5-13(23)9-12(19)3-4-14-15-6-8-21(26,17(25)11-22)20(15,2)10-16(24)18(14)19/h12-15,18,22-23,26H,3-11H2,1-2H3/t12-,13-,14-,15-,18+,19-,20-,21-/m0/s1
INCHIAUX=N/A
PUBMED=N/A
SUBMITUSER=mwang87
TAGS=
LIBRARYQUALITY=3
SPECTRUMID=CCMSLIB00000425633
SCANS=605
121.205 56.686 
147.183 62.5 
149.196 100.0 
159.152 54.36 
225.151 69.186 
243.163 68.895 
END IONS

BEGIN IONS
PEPMASS=332.076
CHARGE=1+
MSLEVEL=2
SOURCE_INSTRUMENT=Positive-Quattro_QQQ:10eV
FILENAME=hmdb_intermediate.mgf
SEQ=*..*
IONMODE=Positive
ORGANISM=HMDB
NAME=HMDB:HMDB00905-1289 Deoxyadenosine monophosphate M+H
PI=HMDB
DATACOLLECTOR=HMDB
SMILES=NC1=NC=NC2=C1N=CN2[C@H]1C[C@H](O)[C@@H](COP(O)(O)=O)O1
INCHI=InChI=1S/C10H14N5O6P/c11-9-8-10(13-3-12-9)15(4-14-8)7-1-5(16)6(21-7)2-20-22(17,18)19/h3-7,16H,1-2H2,(H2,11,12,13)(H2,17,18,19)/t5-,6+,7+/m0/s1
INCHIAUX=N/A
PUBMED=N/A
SUBMITUSER=mwang87
TAGS=
LIBRARYQUALITY=3
SPECTRUMID=CCMSLIB00000425634
SCANS=606
81.0 55.218 
274.0 100.0 
332.0 84.968 
END IONS

BEGIN IONS
PEPMASS=115.051
CHARGE=1+
MSLEVEL=2
SOURCE_INSTRUMENT=Positive-Quattro_QQQ:10eV
FILENAME=hmdb_intermediate.mgf
SEQ=*..*
IONMODE=Positive
ORGANISM=HMDB
NAME=HMDB:HMDB00076-123 Dihydrouracil M+H
PI=HMDB
DATACOLLECTOR=HMDB
SMILES=O=C1CCNC(=O)N1
INCHI=InChI=1S/C4H6N2O2/c7-3-1-2-5-4(8)6-3/h1-2H2,(H2,5,6,7,8)
INCHIAUX=N/A
PUBMED=N/A
SUBMITUSER=mwang87
TAGS=
LIBRARYQUALITY=3
SPECTRUMID=CCMSLIB00000425635
SCANS=607
73.014 72.34 
114.966 100.0 
END IONS

BEGIN IONS
PEPMASS=323.064
CHARGE=1+
MSLEVEL=2
SOURCE_INSTRUMENT=Positive-Quattro_QQQ:40eV
FILENAME=hmdb_intermediate.mgf
SEQ=*..*
IONMODE=Positive
ORGANISM=HMDB
NAME=HMDB:HMDB01227-1474 5-Thymidylic acid M+H
PI=HMDB
DATACOLLECTOR=HMDB
SMILES=CC1=CN([C@H]2C[C@H](O)[C@@H](COP(O)(O)=O)O2)C(=O)NC1=O
INCHI=InChI=1S/C10H15N2O8P/c1-5-3-12(10(15)11-9(5)14)8-2-6(13)7(20-8)4-19-21(16,17)18/h3,6-8,13H,2,4H2,1H3,(H,11,14,15)(H2,16,17,18)/t6-,7+,8+/m0/s1
INCHIAUX=N/A
PUBMED=N/A
SUBMITUSER=mwang87
TAGS=
LIBRARYQUALITY=3
SPECTRUMID=CCMSLIB00000425636
SCANS=608
81.0 100.0 
END IONS

BEGIN IONS
PEPMASS=116.071
CHARGE=1+
MSLEVEL=2
SOURCE_INSTRUMENT=Positive-Quattro_QQQ:25eV
FILENAME=hmdb_intermediate.mgf
SEQ=*..*
IONMODE=Positive
ORGANISM=HMDB
NAME=HMDB:HMDB00162-255 L-Proline M+H
PI=HMDB
DATACOLLECTOR=HMDB
SMILES=OC(=O)[C@@H]1CCCN1
INCHI=InChI=1S/C5H9NO2/c7-5(8)4-2-1-3-6-4/h4,6H,1-3H2,(H,7,8)/t4-/m0/s1
INCHIAUX=N/A
PUBMED=N/A
SUBMITUSER=mwang87
TAGS=
LIBRARYQUALITY=3
SPECTRUMID=CCMSLIB00000425637
SCANS=609
70.14 100.0 
END IONS

BEGIN IONS
PEPMASS=153.076
CHARGE=1+
MSLEVEL=2
SOURCE_INSTRUMENT=Positive-Quattro_QQQ:25eV
FILENAME=hmdb_intermediate.mgf
SEQ=*..*
IONMODE=Positive
ORGANISM=HMDB
NAME=HMDB:HMDB00568-795 D-Arabitol M+H
PI=HMDB
DATACOLLECTOR=HMDB
SMILES=OCC(O)C(O)C(O)CO
INCHI=InChI=1S/C5H12O5/c6-1-3(8)5(10)4(9)2-7/h3-10H,1-2H2
INCHIAUX=N/A
PUBMED=N/A
SUBMITUSER=mwang87
TAGS=
LIBRARYQUALITY=3
SPECTRUMID=CCMSLIB00000425638
SCANS=610
69.0 100.0 
END IONS

BEGIN IONS
PEPMASS=73.0653
CHARGE=1+
MSLEVEL=2
SOURCE_INSTRUMENT=Positive-Quattro_QQQ:25eV
FILENAME=hmdb_intermediate.mgf
SEQ=*..*
IONMODE=Positive
ORGANISM=HMDB
NAME=HMDB:HMDB03543-2323 Butanal M+H
PI=HMDB
DATACOLLECTOR=HMDB
SMILES=CCCC=O
INCHI=InChI=1S/C4H8O/c1-2-3-4-5/h4H,2-3H2,1H3
INCHIAUX=N/A
PUBMED=N/A
SUBMITUSER=mwang87
TAGS=
LIBRARYQUALITY=3
SPECTRUMID=CCMSLIB00000425639
SCANS=611
43.0 100.0 
END IONS

BEGIN IONS
PEPMASS=178.087
CHARGE=1+
MSLEVEL=2
SOURCE_INSTRUMENT=Positive-Quattro_QQQ:25eV
FILENAME=hmdb_intermediate.mgf
SEQ=*..*
IONMODE=Positive
ORGANISM=HMDB
NAME=HMDB:HMDB01855-1721 5-Hydroxytryptophol M+H
PI=HMDB
DATACOLLECTOR=HMDB
SMILES=OCCC1=CNC2=CC=C(O)C=C12
INCHI=InChI=1S/C10H11NO2/c12-4-3-7-6-11-10-2-1-8(13)5-9(7)10/h1-2,5-6,11-13H,3-4H2
INCHIAUX=N/A
PUBMED=N/A
SUBMITUSER=mwang87
TAGS=
LIBRARYQUALITY=3
SPECTRUMID=CCMSLIB00000425640
SCANS=612
160.14 100.0 
END IONS

BEGIN IONS
PEPMASS=159.052
CHARGE=1+
MSLEVEL=2
SOURCE_INSTRUMENT=Positive-Quattro_QQQ:40eV
FILENAME=hmdb_intermediate.mgf
SEQ=*..*
IONMODE=Positive
ORGANISM=HMDB
NAME=HMDB:HMDB00462-673 Allantoin M+H
PI=HMDB
DATACOLLECTOR=HMDB
SMILES=NC(=O)NC1NC(=O)NC1=O
INCHI=InChI=1S/C4H6N4O3/c5-3(10)6-1-2(9)8-4(11)7-1/h1H,(H3,5,6,10)(H2,7,8,9,11)
INCHIAUX=N/A
PUBMED=N/A
SUBMITUSER=mwang87
TAGS=
LIBRARYQUALITY=3
SPECTRUMID=CCMSLIB00000425641
SCANS=613
44.268 100.0 
61.133 76.087 
END IONS

BEGIN IONS
PEPMASS=425.436
CHARGE=1+
MSLEVEL=2
SOURCE_INSTRUMENT=Positive-Quattro_QQQ:10eV
FILENAME=hmdb_intermediate.mgf
SEQ=*..*
IONMODE=Positive
ORGANISM=HMDB
NAME=HMDB:HMDB02348-2070 Octacosanoic acid M+H
PI=HMDB
DATACOLLECTOR=HMDB
SMILES=CCCCCCCCCCCCCCCCCCCCCCCCCCCC(O)=O
INCHI=InChI=1S/C28H56O2/c1-2-3-4-5-6-7-8-9-10-11-12-13-14-15-16-17-18-19-20-21-22-23-24-25-26-27-28(29)30/h2-27H2,1H3,(H,29,30)
INCHIAUX=N/A
PUBMED=N/A
SUBMITUSER=mwang87
TAGS=
LIBRARYQUALITY=3
SPECTRUMID=CCMSLIB00000425642
SCANS=614
425.0 56.415 
426.0 100.0 
END IONS

BEGIN IONS
PEPMASS=183.052
CHARGE=1+
MSLEVEL=2
SOURCE_INSTRUMENT=Positive-Quattro_QQQ:40eV
FILENAME=hmdb_intermediate.mgf
SEQ=*..*
IONMODE=Positive
ORGANISM=HMDB
NAME=HMDB:HMDB01973-1919 9-Methyluric acid M+H
PI=HMDB
DATACOLLECTOR=HMDB
SMILES=CN1C(=O)NC2=C1NC(=O)NC2=O
INCHI=InChI=1S/C6H6N4O3/c1-10-3-2(7-6(10)13)4(11)9-5(12)8-3/h1H3,(H,7,13)(H2,8,9,11,12)
INCHIAUX=N/A
PUBMED=N/A
SUBMITUSER=mwang87
TAGS=
LIBRARYQUALITY=3
SPECTRUMID=CCMSLIB00000425643
SCANS=615
67.0 100.0 
77.0 52.029 
152.0 61.973 
END IONS

BEGIN IONS
PEPMASS=343.124
CHARGE=1+
MSLEVEL=2
SOURCE_INSTRUMENT=Positive-Quattro_QQQ:25eV
FILENAME=hmdb_intermediate.mgf
SEQ=*..*
IONMODE=Positive
ORGANISM=HMDB
NAME=HMDB:HMDB00186-293 Alpha-Lactose M+H
PI=HMDB
DATACOLLECTOR=HMDB
SMILES=OC[C@H]1O[C@@H](O[C@H]2[C@H](O)[C@@H](O)[C@@H](O)O[C@@H]2CO)[C@H](O)[C@@H](O)[C@H]1O
INCHI=InChI=1S/C12H22O11/c13-1-3-5(15)6(16)9(19)12(22-3)23-10-4(2-14)21-11(20)8(18)7(10)17/h3-20H,1-2H2/t3-,4-,5+,6+,7-,8-,9-,10-,11+,12+/m1/s1
INCHIAUX=N/A
PUBMED=N/A
SUBMITUSER=mwang87
TAGS=
LIBRARYQUALITY=3
SPECTRUMID=CCMSLIB00000425644
SCANS=616
85.075 90.821 
91.062 100.0 
END IONS

BEGIN IONS
PEPMASS=165.019
CHARGE=1+
MSLEVEL=2
SOURCE_INSTRUMENT=Negative-Quattro_QQQ:40eV
FILENAME=hmdb_intermediate.mgf
SEQ=*..*
IONMODE=Negative
ORGANISM=HMDB
NAME=HMDB:HMDB02428-2106 Terephthalic acid M-H
PI=HMDB
DATACOLLECTOR=HMDB
SMILES=OC(=O)C1=CC=C(C=C1)C(O)=O
INCHI=InChI=1S/C8H6O4/c9-7(10)5-1-2-6(4-3-5)8(11)12/h1-4H,(H,9,10)(H,11,12)
INCHIAUX=N/A
PUBMED=N/A
SUBMITUSER=mwang87
TAGS=
LIBRARYQUALITY=3
SPECTRUMID=CCMSLIB00000425645
SCANS=617
76.0 100.0 
77.0 60.393 
120.0 95.109 
121.0 62.745 
END IONS

BEGIN IONS
PEPMASS=208.097
CHARGE=1+
MSLEVEL=2
SOURCE_INSTRUMENT=Positive-Quattro_QQQ:25eV
FILENAME=hmdb_intermediate.mgf
SEQ=*..*
IONMODE=Positive
ORGANISM=HMDB
NAME=HMDB:HMDB00512-738 N-Acetyl-L-phenylalanine M+H
PI=HMDB
DATACOLLECTOR=HMDB
SMILES=CC(=O)N[C@@H](CC1=CC=CC=C1)C(O)=O
INCHI=InChI=1S/C11H13NO3/c1-8(13)12-10(11(14)15)7-9-5-3-2-4-6-9/h2-6,10H,7H2,1H3,(H,12,13)(H,14,15)/t10-/m0/s1
INCHIAUX=N/A
PUBMED=N/A
SUBMITUSER=mwang87
TAGS=
LIBRARYQUALITY=3
SPECTRUMID=CCMSLIB00000425646
SCANS=618
119.0 100.0 
END IONS

BEGIN IONS
PEPMASS=289.217
CHARGE=1+
MSLEVEL=2
SOURCE_INSTRUMENT=Positive-Quattro_QQQ:25eV
FILENAME=hmdb_intermediate.mgf
SEQ=*..*
IONMODE=Positive
ORGANISM=HMDB
NAME=HMDB:HMDB00628-856 Epitestosterone M+H
PI=HMDB
DATACOLLECTOR=HMDB
SMILES=[H][C@@]12CC[C@@H](O)[C@@]1(C)CC[C@@]1([H])[C@@]2([H])CCC2=CC(=O)CC[C@]12C
INCHI=InChI=1S/C19H28O2/c1-18-9-7-13(20)11-12(18)3-4-14-15-5-6-17(21)19(15,2)10-8-16(14)18/h11,14-17,21H,3-10H2,1-2H3/t14-,15-,16-,17+,18-,19-/m0/s1
INCHIAUX=N/A
PUBMED=N/A
SUBMITUSER=mwang87
TAGS=
LIBRARYQUALITY=3
SPECTRUMID=CCMSLIB00000425647
SCANS=619
97.225 100.0 
109.179 91.667 
END IONS

BEGIN IONS
PEPMASS=269.284
CHARGE=1+
MSLEVEL=2
SOURCE_INSTRUMENT=Negative-Quattro_QQQ:25eV
FILENAME=hmdb_intermediate.mgf
SEQ=*..*
IONMODE=Negative
ORGANISM=HMDB
NAME=HMDB:HMDB02350-2074 Octadecanol M-H
PI=HMDB
DATACOLLECTOR=HMDB
SMILES=CCCCCCCCCCCCCCCCCCO
INCHI=InChI=1S/C18H38O/c1-2-3-4-5-6-7-8-9-10-11-12-13-14-15-16-17-18-19/h19H,2-18H2,1H3
INCHIAUX=N/A
PUBMED=N/A
SUBMITUSER=mwang87
TAGS=
LIBRARYQUALITY=3
SPECTRUMID=CCMSLIB00000425648
SCANS=620
78.0 100.0 
167.0 52.066 
END IONS

BEGIN IONS
PEPMASS=113.024
CHARGE=1+
MSLEVEL=2
SOURCE_INSTRUMENT=Positive-Quattro_QQQ:10eV
FILENAME=hmdb_intermediate.mgf
SEQ=*..*
IONMODE=Positive
ORGANISM=HMDB
NAME=HMDB:HMDB00444-647 3-Furoic acid M+H
PI=HMDB
DATACOLLECTOR=HMDB
SMILES=OC(=O)C1=COC=C1
INCHI=InChI=1S/C5H4O3/c6-5(7)4-1-2-8-3-4/h1-3H,(H,6,7)
INCHIAUX=N/A
PUBMED=N/A
SUBMITUSER=mwang87
TAGS=
LIBRARYQUALITY=3
SPECTRUMID=CCMSLIB00000425649
SCANS=621
68.99 100.0 
END IONS

BEGIN IONS
PEPMASS=122.097
CHARGE=1+
MSLEVEL=2
SOURCE_INSTRUMENT=Positive-Quattro_QQQ:25eV
FILENAME=hmdb_intermediate.mgf
SEQ=*..*
IONMODE=Positive
ORGANISM=HMDB
NAME=HMDB:HMDB02017-1948 1-Phenylethylamine M+H
PI=HMDB
DATACOLLECTOR=HMDB
SMILES=CC(N)C1=CC=CC=C1
INCHI=InChI=1S/C8H11N/c1-7(9)8-5-3-2-4-6-8/h2-7H,9H2,1H3
INCHIAUX=N/A
PUBMED=N/A
SUBMITUSER=mwang87
TAGS=
LIBRARYQUALITY=3
SPECTRUMID=CCMSLIB00000425650
SCANS=622
76.78 100.0 
END IONS

BEGIN IONS
PEPMASS=206.067
CHARGE=1+
MSLEVEL=2
SOURCE_INSTRUMENT=Positive-Quattro_QQQ:10eV
FILENAME=hmdb_intermediate.mgf
SEQ=*..*
IONMODE=Positive
ORGANISM=HMDB
NAME=HMDB:HMDB00962-1366 Lipoamide M+H
PI=HMDB
DATACOLLECTOR=HMDB
SMILES=NC(=O)CCCCC1CCSS1
INCHI=InChI=1S/C8H15NOS2/c9-8(10)4-2-1-3-7-5-6-11-12-7/h7H,1-6H2,(H2,9,10)
INCHIAUX=N/A
PUBMED=N/A
SUBMITUSER=mwang87
TAGS=
LIBRARYQUALITY=3
SPECTRUMID=CCMSLIB00000425651
SCANS=623
189.0 100.0 
END IONS

BEGIN IONS
PEPMASS=132.102
CHARGE=1+
MSLEVEL=2
SOURCE_INSTRUMENT=Positive-Quattro_QQQ:10eV
FILENAME=hmdb_intermediate.mgf
SEQ=*..*
IONMODE=Positive
ORGANISM=HMDB
NAME=HMDB:HMDB00172-271 L-Isoleucine M+H
PI=HMDB
DATACOLLECTOR=HMDB
SMILES=CC[C@H](C)[C@H](N)C(O)=O
INCHI=InChI=1S/C6H13NO2/c1-3-4(2)5(7)6(8)9/h4-5H,3,7H2,1-2H3,(H,8,9)/t4-,5-/m0/s1
INCHIAUX=N/A
PUBMED=N/A
SUBMITUSER=mwang87
TAGS=
LIBRARYQUALITY=3
SPECTRUMID=CCMSLIB00000425652
SCANS=624
86.016 100.0 
END IONS

BEGIN IONS
PEPMASS=167.071
CHARGE=1+
MSLEVEL=2
SOURCE_INSTRUMENT=Positive-Quattro_QQQ:25eV
FILENAME=hmdb_intermediate.mgf
SEQ=*..*
IONMODE=Positive
ORGANISM=HMDB
NAME=HMDB:HMDB00779-1108 Phenyllactic acid M+H
PI=HMDB
DATACOLLECTOR=HMDB
SMILES=OC(CC1=CC=CC=C1)C(O)=O
INCHI=InChI=1S/C9H10O3/c10-8(9(11)12)6-7-4-2-1-3-5-7/h1-5,8,10H,6H2,(H,11,12)
INCHIAUX=N/A
PUBMED=N/A
SUBMITUSER=mwang87
TAGS=
LIBRARYQUALITY=3
SPECTRUMID=CCMSLIB00000425653
SCANS=625
84.184 92.509 
93.771 52.524 
103.233 52.524 
124.932 100.0 
125.689 60.457 
END IONS

BEGIN IONS
PEPMASS=303.196
CHARGE=1+
MSLEVEL=2
SOURCE_INSTRUMENT=Positive-Quattro_QQQ:40eV
FILENAME=hmdb_intermediate.mgf
SEQ=*..*
IONMODE=Positive
ORGANISM=HMDB
NAME=HMDB:HMDB00405-617 2-Methoxyestradiol M+H
PI=HMDB
DATACOLLECTOR=HMDB
SMILES=[H][C@@]12CC[C@H](O)[C@@]1(C)CC[C@]1([H])C3=C(CC[C@@]21[H])C=C(O)C(OC)=C3
INCHI=InChI=1S/C19H26O3/c1-19-8-7-12-13(15(19)5-6-18(19)21)4-3-11-9-16(20)17(22-2)10-14(11)12/h9-10,12-13,15,18,20-21H,3-8H2,1-2H3/t12-,13+,15-,18-,19-/m0/s1
INCHIAUX=N/A
PUBMED=N/A
SUBMITUSER=mwang87
TAGS=
LIBRARYQUALITY=3
SPECTRUMID=CCMSLIB00000425654
SCANS=626
134.0 95.351 
151.0 100.0 
END IONS

BEGIN IONS
PEPMASS=153.041
CHARGE=1+
MSLEVEL=2
SOURCE_INSTRUMENT=Positive-Quattro_QQQ:10eV
FILENAME=hmdb_intermediate.mgf
SEQ=*..*
IONMODE=Positive
ORGANISM=HMDB
NAME=HMDB:HMDB00786-1122 Oxypurinol M+H
PI=HMDB
DATACOLLECTOR=HMDB
SMILES=O=C1NC2=C(C=NN2)C(=O)N1
INCHI=InChI=1S/C5H4N4O2/c10-4-2-1-6-9-3(2)7-5(11)8-4/h1H,(H3,6,7,8,9,10,11)
INCHIAUX=N/A
PUBMED=N/A
SUBMITUSER=mwang87
TAGS=
LIBRARYQUALITY=3
SPECTRUMID=CCMSLIB00000425655
SCANS=627
91.812 50.906 
111.772 53.24 
152.957 100.0 
153.715 50.297 
END IONS

BEGIN IONS
PEPMASS=373.159
CHARGE=1+
MSLEVEL=2
SOURCE_INSTRUMENT=Positive-Quattro_QQQ:25eV
FILENAME=hmdb_intermediate.mgf
SEQ=*..*
IONMODE=Positive
ORGANISM=HMDB
NAME=HMDB:HMDB02873-2150 Deacetyldiltiazem M+H
PI=HMDB
DATACOLLECTOR=HMDB
SMILES=COC1=CC=C(C=C1)[C@@H]1SC2=CC=CC=C2N(CCN(C)C)C(=O)[C@@H]1O
INCHI=InChI=1S/C20H24N2O3S/c1-21(2)12-13-22-16-6-4-5-7-17(16)26-19(18(23)20(22)24)14-8-10-15(25-3)11-9-14/h4-11,18-19,23H,12-13H2,1-3H3/t18-,19+/m1/s1
INCHIAUX=N/A
PUBMED=N/A
SUBMITUSER=mwang87
TAGS=
LIBRARYQUALITY=3
SPECTRUMID=CCMSLIB00000425656
SCANS=628
177.0 100.0 
178.0 53.803 
END IONS

BEGIN IONS
PEPMASS=313.217
CHARGE=1+
MSLEVEL=2
SOURCE_INSTRUMENT=Positive-Quattro_QQQ:40eV
FILENAME=hmdb_intermediate.mgf
SEQ=*..*
IONMODE=Positive
ORGANISM=HMDB
NAME=HMDB:HMDB00995-1386 16-Dehydroprogesterone M+H
PI=HMDB
DATACOLLECTOR=HMDB
SMILES=[H][C@@]12CC=C(C(C)=O)[C@@]1(C)CC[C@@]1([H])[C@@]2([H])CCC2=CC(=O)CC[C@]12C
INCHI=InChI=1S/C21H28O2/c1-13(22)17-6-7-18-16-5-4-14-12-15(23)8-10-20(14,2)19(16)9-11-21(17,18)3/h6,12,16,18-19H,4-5,7-11H2,1-3H3/t16-,18-,19-,20-,21+/m0/s1
INCHIAUX=N/A
PUBMED=N/A
SUBMITUSER=mwang87
TAGS=
LIBRARYQUALITY=3
SPECTRUMID=CCMSLIB00000425657
SCANS=629
97.062 95.652 
109.023 100.0 
END IONS

BEGIN IONS
PEPMASS=171.139
CHARGE=1+
MSLEVEL=2
SOURCE_INSTRUMENT=Positive-Quattro_QQQ:40eV
FILENAME=hmdb_intermediate.mgf
SEQ=*..*
IONMODE=Positive
ORGANISM=HMDB
NAME=HMDB:HMDB04980-2417 cis-4-Decenoic acid M+H
PI=HMDB
DATACOLLECTOR=HMDB
SMILES=CCCCC\C=C/CCC(O)=O
INCHI=InChI=1S/C10H18O2/c1-2-3-4-5-6-7-8-9-10(11)12/h6-7H,2-5,8-9H2,1H3,(H,11,12)/b7-6-
INCHIAUX=N/A
PUBMED=N/A
SUBMITUSER=mwang87
TAGS=
LIBRARYQUALITY=3
SPECTRUMID=CCMSLIB00000425658
SCANS=630
41.0 71.371 
43.0 100.0 
44.0 69.761 
55.0 82.096 
END IONS

BEGIN IONS
PEPMASS=209.03
CHARGE=1+
MSLEVEL=2
SOURCE_INSTRUMENT=Negative-Quattro_QQQ:10eV
FILENAME=hmdb_intermediate.mgf
SEQ=*..*
IONMODE=Negative
ORGANISM=HMDB
NAME=HMDB:HMDB00639-873 Galactaric acid M-H
PI=HMDB
DATACOLLECTOR=HMDB
SMILES=O[C@@H]([C@@H](O)[C@H](O)C(O)=O)[C@@H](O)C(O)=O
INCHI=InChI=1S/C6H10O8/c7-1(3(9)5(11)12)2(8)4(10)6(13)14/h1-4,7-10H,(H,11,12)(H,13,14)/t1-,2+,3+,4-
INCHIAUX=N/A
PUBMED=N/A
SUBMITUSER=mwang87
TAGS=
LIBRARYQUALITY=3
SPECTRUMID=CCMSLIB00000425659
SCANS=631
85.31 100.0 
209.071 75.207 
END IONS

BEGIN IONS
PEPMASS=788.181
CHARGE=1+
MSLEVEL=2
SOURCE_INSTRUMENT=Positive-Quattro_QQQ:25eV
FILENAME=hmdb_intermediate.mgf
SEQ=*..*
IONMODE=Positive
ORGANISM=HMDB
NAME=HMDB:HMDB01197-1458 FADH M+H
PI=HMDB
DATACOLLECTOR=HMDB
SMILES=CC1=CC2=C(C=C1C)N(C[C@H](O)[C@H](O)[C@H](O)COP(O)(=O)OP(O)(=O)OC[C@H]1O[C@H]([C@H](O)[C@@H]1O)N1C=NC3=C1N=CN=C3N)C1=C(N2)C(=O)NC(=O)N1
INCHI=InChI=1S/C27H35N9O15P2/c1-10-3-12-13(4-11(10)2)35(24-18(32-12)25(42)34-27(43)33-24)5-14(37)19(39)15(38)6-48-52(44,45)51-53(46,47)49-7-16-20(40)21(41)26(50-16)36-9-31-17-22(28)29-8-30-23(17)36/h3-4,8-9,14-16,19-21,26,32,37-41H,5-7H2,1-2H3,(H,44,45)(H,46,47)(H2,28,29,30)(H2,33,34,42,43)/t14-,15+,16+,19-,20+,21+,26+/m0/s1
INCHIAUX=N/A
PUBMED=N/A
SUBMITUSER=mwang87
TAGS=
LIBRARYQUALITY=3
SPECTRUMID=CCMSLIB00000425660
SCANS=632
439.0 100.0 
440.0 78.954 
END IONS

BEGIN IONS
PEPMASS=126.103
CHARGE=1+
MSLEVEL=2
SOURCE_INSTRUMENT=Positive-Quattro_QQQ:25eV
FILENAME=hmdb_intermediate.mgf
SEQ=*..*
IONMODE=Positive
ORGANISM=HMDB
NAME=HMDB:HMDB00898-1272 1-Methylhistamine M+H
PI=HMDB
DATACOLLECTOR=HMDB
SMILES=CN1C=NC(CCN)=C1
INCHI=InChI=1S/C6H11N3/c1-9-4-6(2-3-7)8-5-9/h4-5H,2-3,7H2,1H3
INCHIAUX=N/A
PUBMED=N/A
SUBMITUSER=mwang87
TAGS=
LIBRARYQUALITY=3
SPECTRUMID=CCMSLIB00000425661
SCANS=633
68.282 92.868 
68.53 83.336 
109.491 100.0 
109.615 80.292 
END IONS

BEGIN IONS
PEPMASS=89.1079
CHARGE=1+
MSLEVEL=2
SOURCE_INSTRUMENT=Positive-Quattro_QQQ:25eV
FILENAME=hmdb_intermediate.mgf
SEQ=*..*
IONMODE=Positive
ORGANISM=HMDB
NAME=HMDB:HMDB01414-1569 Putrescine M+H
PI=HMDB
DATACOLLECTOR=HMDB
SMILES=NCCCCN
INCHI=InChI=1S/C4H12N2/c5-3-1-2-4-6/h1-6H2
INCHIAUX=N/A
PUBMED=N/A
SUBMITUSER=mwang87
TAGS=
LIBRARYQUALITY=3
SPECTRUMID=CCMSLIB00000425662
SCANS=634
72.087 100.0 
END IONS

BEGIN IONS
PEPMASS=241.253
CHARGE=1+
MSLEVEL=2
SOURCE_INSTRUMENT=Negative-Quattro_QQQ:40eV
FILENAME=hmdb_intermediate.mgf
SEQ=*..*
IONMODE=Negative
ORGANISM=HMDB
NAME=HMDB:HMDB03424-2306 1-Hexadecanol M-H
PI=HMDB
DATACOLLECTOR=HMDB
SMILES=CCCCCCCCCCCCCCCCO
INCHI=InChI=1S/C16H34O/c1-2-3-4-5-6-7-8-9-10-11-12-13-14-15-16-17/h17H,2-16H2,1H3
INCHIAUX=N/A
PUBMED=N/A
SUBMITUSER=mwang87
TAGS=
LIBRARYQUALITY=3
SPECTRUMID=CCMSLIB00000425663
SCANS=635
154.0 100.0 
END IONS

BEGIN IONS
PEPMASS=137.133
CHARGE=1+
MSLEVEL=2
SOURCE_INSTRUMENT=Positive-Quattro_QQQ:10eV
FILENAME=hmdb_intermediate.mgf
SEQ=*..*
IONMODE=Positive
ORGANISM=HMDB
NAME=HMDB:HMDB03375-2274 D-Limonene M+H
PI=HMDB
DATACOLLECTOR=HMDB
SMILES=CC(=C)[C@H]1CCC(C)=CC1
INCHI=InChI=1S/C10H16/c1-8(2)10-6-4-9(3)5-7-10/h4,10H,1,5-7H2,2-3H3/t10-/m1/s1
INCHIAUX=N/A
PUBMED=N/A
SUBMITUSER=mwang87
TAGS=
LIBRARYQUALITY=3
SPECTRUMID=CCMSLIB00000425664
SCANS=636
136.0 100.0 
END IONS

BEGIN IONS
PEPMASS=183.087
CHARGE=1+
MSLEVEL=2
SOURCE_INSTRUMENT=Positive-Quattro_QQQ:10eV
FILENAME=hmdb_intermediate.mgf
SEQ=*..*
IONMODE=Positive
ORGANISM=HMDB
NAME=HMDB:HMDB00765-1101 Mannitol M+H
PI=HMDB
DATACOLLECTOR=HMDB
SMILES=OC[C@@H](O)[C@@H](O)[C@H](O)[C@H](O)CO
INCHI=InChI=1S/C6H14O6/c7-1-3(9)5(11)6(12)4(10)2-8/h3-12H,1-2H2/t3-,4-,5-,6-/m1/s1
INCHIAUX=N/A
PUBMED=N/A
SUBMITUSER=mwang87
TAGS=
LIBRARYQUALITY=3
SPECTRUMID=CCMSLIB00000425665
SCANS=637
69.156 100.0 
END IONS

BEGIN IONS
PEPMASS=151.076
CHARGE=1+
MSLEVEL=2
SOURCE_INSTRUMENT=Positive-Quattro_QQQ:10eV
FILENAME=hmdb_intermediate.mgf
SEQ=*..*
IONMODE=Positive
ORGANISM=HMDB
NAME=HMDB:HMDB00764-1098 Hydrocinnamic acid M+H
PI=HMDB
DATACOLLECTOR=HMDB
SMILES=OC(=O)CCC1=CC=CC=C1
INCHI=InChI=1S/C9H10O2/c10-9(11)7-6-8-4-2-1-3-5-8/h1-5H,6-7H2,(H,10,11)
INCHIAUX=N/A
PUBMED=N/A
SUBMITUSER=mwang87
TAGS=
LIBRARYQUALITY=3
SPECTRUMID=CCMSLIB00000425666
SCANS=638
150.0 100.0 
END IONS

BEGIN IONS
PEPMASS=209.081
CHARGE=1+
MSLEVEL=2
SOURCE_INSTRUMENT=Positive-Quattro_QQQ:25eV
FILENAME=hmdb_intermediate.mgf
SEQ=*..*
IONMODE=Positive
ORGANISM=HMDB
NAME=HMDB:HMDB12127-2506 (R)-2-Benzylsuccinate M+H
PI=HMDB
DATACOLLECTOR=HMDB
SMILES=OC(=O)C[C@H](CC1=CC=CC=C1)C(O)=O
INCHI=InChI=1S/C11H12O4/c12-10(13)7-9(11(14)15)6-8-4-2-1-3-5-8/h1-5,9H,6-7H2,(H,12,13)(H,14,15)/t9-/m0/s1
INCHIAUX=N/A
PUBMED=N/A
SUBMITUSER=mwang87
TAGS=
LIBRARYQUALITY=3
SPECTRUMID=CCMSLIB00000425667
SCANS=639
117.12 89.3452843535 
145.14 100.0 
173.1 92.4564978588 
END IONS

BEGIN IONS
PEPMASS=152.071
CHARGE=1+
MSLEVEL=2
SOURCE_INSTRUMENT=Positive-Quattro_QQQ:40eV
FILENAME=hmdb_intermediate.mgf
SEQ=*..*
IONMODE=Positive
ORGANISM=HMDB
NAME=HMDB:HMDB01859-1734 Acetaminophen M+H
PI=HMDB
DATACOLLECTOR=HMDB
SMILES=CC(=O)NC1=CC=C(O)C=C1
INCHI=InChI=1S/C8H9NO2/c1-6(10)9-7-2-4-8(11)5-3-7/h2-5,11H,1H3,(H,9,10)
INCHIAUX=N/A
PUBMED=N/A
SUBMITUSER=mwang87
TAGS=
LIBRARYQUALITY=3
SPECTRUMID=CCMSLIB00000425668
SCANS=640
43.327 73.833 
43.577 65.113 
65.38 100.0 
65.505 89.682 
END IONS

BEGIN IONS
PEPMASS=192.069
CHARGE=1+
MSLEVEL=2
SOURCE_INSTRUMENT=Positive-Quattro_QQQ:40eV
FILENAME=hmdb_intermediate.mgf
SEQ=*..*
IONMODE=Positive
ORGANISM=HMDB
NAME=HMDB:HMDB11745-2501 N-Acetyl-L-methionine M+H
PI=HMDB
DATACOLLECTOR=HMDB
SMILES=CSCCC(NC(C)=O)C(O)=O
INCHI=InChI=1S/C7H13NO3S/c1-5(9)8-6(7(10)11)3-4-12-2/h6H,3-4H2,1-2H3,(H,8,9)(H,10,11)
INCHIAUX=N/A
PUBMED=N/A
SUBMITUSER=mwang87
TAGS=
LIBRARYQUALITY=3
SPECTRUMID=CCMSLIB00000425669
SCANS=641
98.04 100.0 
END IONS

BEGIN IONS
PEPMASS=263.023
CHARGE=1+
MSLEVEL=2
SOURCE_INSTRUMENT=Negative-Quattro_QQQ:25eV
FILENAME=hmdb_intermediate.mgf
SEQ=*..*
IONMODE=Negative
ORGANISM=HMDB
NAME=HMDB:HMDB03332-2249 3-Methoxy-4-Hydroxyphenylglycol sulfate M-H
PI=HMDB
DATACOLLECTOR=HMDB
SMILES=COC1=C(O)C=CC(=C1)C(CO)OS(O)(=O)=O
INCHI=InChI=1S/C9H12O7S/c1-15-8-4-6(2-3-7(8)11)9(5-10)16-17(12,13)14/h2-4,9-11H,5H2,1H3,(H,12,13,14)
INCHIAUX=N/A
PUBMED=N/A
SUBMITUSER=mwang87
TAGS=
LIBRARYQUALITY=3
SPECTRUMID=CCMSLIB00000425670
SCANS=642
149.0 100.0 
END IONS

BEGIN IONS
PEPMASS=133.014
CHARGE=1+
MSLEVEL=2
SOURCE_INSTRUMENT=Negative-Quattro_QQQ:25eV
FILENAME=hmdb_intermediate.mgf
SEQ=*..*
IONMODE=Negative
ORGANISM=HMDB
NAME=HMDB:HMDB00744-1057 Malic acid M-H
PI=HMDB
DATACOLLECTOR=HMDB
SMILES=OC(CC(O)=O)C(O)=O
INCHI=InChI=1S/C4H6O5/c5-2(4(8)9)1-3(6)7/h2,5H,1H2,(H,6,7)(H,8,9)
INCHIAUX=N/A
PUBMED=N/A
SUBMITUSER=mwang87
TAGS=
LIBRARYQUALITY=3
SPECTRUMID=CCMSLIB00000425671
SCANS=643
71.031 100.0 
END IONS

BEGIN IONS
PEPMASS=75.0082
CHARGE=1+
MSLEVEL=2
SOURCE_INSTRUMENT=Negative-Quattro_QQQ:40eV
FILENAME=hmdb_intermediate.mgf
SEQ=*..*
IONMODE=Negative
ORGANISM=HMDB
NAME=HMDB:HMDB00115-167 Glycolic acid M-H
PI=HMDB
DATACOLLECTOR=HMDB
SMILES=OCC(O)=O
INCHI=InChI=1S/C2H4O3/c3-1-2(4)5/h3H,1H2,(H,4,5)
INCHIAUX=N/A
PUBMED=N/A
SUBMITUSER=mwang87
TAGS=
LIBRARYQUALITY=3
SPECTRUMID=CCMSLIB00000425672
SCANS=644
74.934 100.0 
END IONS

BEGIN IONS
PEPMASS=183.087
CHARGE=1+
MSLEVEL=2
SOURCE_INSTRUMENT=Positive-Quattro_QQQ:25eV
FILENAME=hmdb_intermediate.mgf
SEQ=*..*
IONMODE=Positive
ORGANISM=HMDB
NAME=HMDB:HMDB00247-422 Sorbitol M+H
PI=HMDB
DATACOLLECTOR=HMDB
SMILES=OC[C@H](O)[C@@H](O)[C@H](O)[C@H](O)CO
INCHI=InChI=1S/C6H14O6/c7-1-3(9)5(11)6(12)4(10)2-8/h3-12H,1-2H2/t3-,4+,5-,6-/m1/s1
INCHIAUX=N/A
PUBMED=N/A
SUBMITUSER=mwang87
TAGS=
LIBRARYQUALITY=3
SPECTRUMID=CCMSLIB00000425673
SCANS=645
55.244 50.833 
69.14 100.0 
END IONS

BEGIN IONS
PEPMASS=131.071
CHARGE=1+
MSLEVEL=2
SOURCE_INSTRUMENT=Negative-Quattro_QQQ:40eV
FILENAME=hmdb_intermediate.mgf
SEQ=*..*
IONMODE=Negative
ORGANISM=HMDB
NAME=HMDB:HMDB01624-1665 2-Hydroxycaproic acid M-H
PI=HMDB
DATACOLLECTOR=HMDB
SMILES=CCCCC(O)C(O)=O
INCHI=InChI=1S/C6H12O3/c1-2-3-4-5(7)6(8)9/h5,7H,2-4H2,1H3,(H,8,9)
INCHIAUX=N/A
PUBMED=N/A
SUBMITUSER=mwang87
TAGS=
LIBRARYQUALITY=3
SPECTRUMID=CCMSLIB00000425674
SCANS=646
45.49 100.0 
END IONS

BEGIN IONS
PEPMASS=171.024
CHARGE=1+
MSLEVEL=2
SOURCE_INSTRUMENT=Positive-Quattro_QQQ:40eV
FILENAME=hmdb_intermediate.mgf
SEQ=*..*
IONMODE=Positive
ORGANISM=HMDB
NAME=HMDB:HMDB01460-1588 Diethylthiophosphate M+H
PI=HMDB
DATACOLLECTOR=HMDB
SMILES=CCOP(O)(=S)OCC
INCHI=InChI=1S/C4H11O3PS/c1-3-6-8(5,9)7-4-2/h3-4H2,1-2H3,(H,5,9)
INCHIAUX=N/A
PUBMED=N/A
SUBMITUSER=mwang87
TAGS=
LIBRARYQUALITY=3
SPECTRUMID=CCMSLIB00000425675
SCANS=647
81.0 77.836 
97.0 100.0 
END IONS

BEGIN IONS
PEPMASS=118.087
CHARGE=1+
MSLEVEL=2
SOURCE_INSTRUMENT=Positive-Quattro_QQQ:25eV
FILENAME=hmdb_intermediate.mgf
SEQ=*..*
IONMODE=Positive
ORGANISM=HMDB
NAME=HMDB:HMDB00043-73 Betaine M+H
PI=HMDB
DATACOLLECTOR=HMDB
SMILES=C[N+](C)(C)CC([O-])=O
INCHI=InChI=1S/C5H11NO2/c1-6(2,3)4-5(7)8/h4H2,1-3H3
INCHIAUX=N/A
PUBMED=N/A
SUBMITUSER=mwang87
TAGS=
LIBRARYQUALITY=3
SPECTRUMID=CCMSLIB00000425676
SCANS=648
58.26 100.0 
59.337 50.769 
END IONS

BEGIN IONS
PEPMASS=171.066
CHARGE=1+
MSLEVEL=2
SOURCE_INSTRUMENT=Positive-Quattro_QQQ:10eV
FILENAME=hmdb_intermediate.mgf
SEQ=*..*
IONMODE=Positive
ORGANISM=HMDB
NAME=HMDB:HMDB00318-531 3,4-Dihydroxyphenylglycol M+H
PI=HMDB
DATACOLLECTOR=HMDB
SMILES=OCC(O)C1=CC(O)=C(O)C=C1
INCHI=InChI=1S/C8H10O4/c9-4-8(12)5-1-2-6(10)7(11)3-5/h1-3,8-12H,4H2
INCHIAUX=N/A
PUBMED=N/A
SUBMITUSER=mwang87
TAGS=
LIBRARYQUALITY=3
SPECTRUMID=CCMSLIB00000425677
SCANS=649
129.504 60.741 
170.812 100.0 
END IONS

BEGIN IONS
PEPMASS=165.076
CHARGE=1+
MSLEVEL=2
SOURCE_INSTRUMENT=Positive-Quattro_QQQ:10eV
FILENAME=hmdb_intermediate.mgf
SEQ=*..*
IONMODE=Positive
ORGANISM=HMDB
NAME=HMDB:HMDB02712-2125 1,5-Anhydrosorbitol M+H
PI=HMDB
DATACOLLECTOR=HMDB
SMILES=OC[C@H]1OC[C@H](O)[C@@H](O)[C@@H]1O
INCHI=InChI=1S/C6H12O5/c7-1-4-6(10)5(9)3(8)2-11-4/h3-10H,1-2H2/t3-,4+,5+,6+/m0/s1
INCHIAUX=N/A
PUBMED=N/A
SUBMITUSER=mwang87
TAGS=
LIBRARYQUALITY=3
SPECTRUMID=CCMSLIB00000425678
SCANS=650
69.0 100.0 
END IONS

BEGIN IONS
PEPMASS=197.066
CHARGE=1+
MSLEVEL=2
SOURCE_INSTRUMENT=Positive-Quattro_QQQ:25eV
FILENAME=hmdb_intermediate.mgf
SEQ=*..*
IONMODE=Positive
ORGANISM=HMDB
NAME=HMDB:HMDB00625-850 Gluconic acid M+H
PI=HMDB
DATACOLLECTOR=HMDB
SMILES=OC[C@@H](O)[C@@H](O)[C@H](O)[C@@H](O)C(O)=O
INCHI=InChI=1S/C6H12O7/c7-1-2(8)3(9)4(10)5(11)6(12)13/h2-5,7-11H,1H2,(H,12,13)/t2-,3-,4+,5-/m1/s1
INCHIAUX=N/A
PUBMED=N/A
SUBMITUSER=mwang87
TAGS=
LIBRARYQUALITY=3
SPECTRUMID=CCMSLIB00000425679
SCANS=651
97.988 69.169 
113.15 72.164 
113.776 100.0 
136.331 80.153 
137.083 64.589 
155.128 52.902 
END IONS

BEGIN IONS
PEPMASS=315.232
CHARGE=1+
MSLEVEL=2
SOURCE_INSTRUMENT=Positive-Quattro_QQQ:40eV
FILENAME=hmdb_intermediate.mgf
SEQ=*..*
IONMODE=Positive
ORGANISM=HMDB
NAME=HMDB:HMDB01830-1686 Progesterone M+H
PI=HMDB
DATACOLLECTOR=HMDB
SMILES=[H][C@@]12CC[C@H](C(C)=O)[C@@]1(C)CC[C@@]1([H])[C@@]2([H])CCC2=CC(=O)CC[C@]12C
INCHI=InChI=1S/C21H30O2/c1-13(22)17-6-7-18-16-5-4-14-12-15(23)8-10-20(14,2)19(16)9-11-21(17,18)3/h12,16-19H,4-11H2,1-3H3/t16-,17+,18-,19-,20-,21+/m0/s1
INCHIAUX=N/A
PUBMED=N/A
SUBMITUSER=mwang87
TAGS=
LIBRARYQUALITY=3
SPECTRUMID=CCMSLIB00000425680
SCANS=652
97.265 100.0 
109.219 96.053 
END IONS

BEGIN IONS
PEPMASS=555.462
CHARGE=1+
MSLEVEL=2
SOURCE_INSTRUMENT=Positive-Quattro_QQQ:40eV
FILENAME=hmdb_intermediate.mgf
SEQ=*..*
IONMODE=Positive
ORGANISM=HMDB
NAME=HMDB:HMDB00548-772 TG(10:0/10:0/10:0)[iso] M+H
PI=HMDB
DATACOLLECTOR=HMDB
SMILES=CCCCCCCCCC(=O)OCC(COC(=O)CCCCCCCCC)OC(=O)CCCCCCCCC
INCHI=InChI=1S/C33H62O6/c1-4-7-10-13-16-19-22-25-31(34)37-28-30(39-33(36)27-24-21-18-15-12-9-6-3)29-38-32(35)26-23-20-17-14-11-8-5-2/h30H,4-29H2,1-3H3
INCHIAUX=N/A
PUBMED=N/A
SUBMITUSER=mwang87
TAGS=
LIBRARYQUALITY=3
SPECTRUMID=CCMSLIB00000425681
SCANS=653
70.0 95.792 
71.0 58.29 
80.0 74.968 
84.0 100.0 
94.0 59.615 
250.0 66.985 
END IONS

BEGIN IONS
PEPMASS=251.07
CHARGE=1+
MSLEVEL=2
SOURCE_INSTRUMENT=Positive-Quattro_QQQ:10eV
FILENAME=hmdb_intermediate.mgf
SEQ=*..*
IONMODE=Positive
ORGANISM=HMDB
NAME=HMDB:HMDB01049-1400 Gamma-Glutamylcysteine M+H
PI=HMDB
DATACOLLECTOR=HMDB
SMILES=N[C@@H](CCC(=O)N[C@@H](CS)C(O)=O)C(O)=O
INCHI=InChI=1S/C8H14N2O5S/c9-4(7(12)13)1-2-6(11)10-5(3-16)8(14)15/h4-5,16H,1-3,9H2,(H,10,11)(H,12,13)(H,14,15)/t4-,5-/m0/s1
INCHIAUX=N/A
PUBMED=N/A
SUBMITUSER=mwang87
TAGS=
LIBRARYQUALITY=3
SPECTRUMID=CCMSLIB00000425682
SCANS=654
250.93 100.0 
END IONS

BEGIN IONS
PEPMASS=175.024
CHARGE=1+
MSLEVEL=2
SOURCE_INSTRUMENT=Positive-Quattro_QQQ:10eV
FILENAME=hmdb_intermediate.mgf
SEQ=*..*
IONMODE=Positive
ORGANISM=HMDB
NAME=HMDB:HMDB00958-1360 trans-Aconitic acid M+H
PI=HMDB
DATACOLLECTOR=HMDB
SMILES=OC(=O)C\C(=C/C(O)=O)C(O)=O
INCHI=InChI=1S/C6H6O6/c7-4(8)1-3(6(11)12)2-5(9)10/h1H,2H2,(H,7,8)(H,9,10)(H,11,12)/b3-1+
INCHIAUX=N/A
PUBMED=N/A
SUBMITUSER=mwang87
TAGS=
LIBRARYQUALITY=3
SPECTRUMID=CCMSLIB00000425683
SCANS=655
85.058 100.0 
END IONS

BEGIN IONS
PEPMASS=555.462
CHARGE=1+
MSLEVEL=2
SOURCE_INSTRUMENT=Positive-Quattro_QQQ:25eV
FILENAME=hmdb_intermediate.mgf
SEQ=*..*
IONMODE=Positive
ORGANISM=HMDB
NAME=HMDB:HMDB00548-771 TG(10:0/10:0/10:0)[iso] M+H
PI=HMDB
DATACOLLECTOR=HMDB
SMILES=CCCCCCCCCC(=O)OCC(COC(=O)CCCCCCCCC)OC(=O)CCCCCCCCC
INCHI=InChI=1S/C33H62O6/c1-4-7-10-13-16-19-22-25-31(34)37-28-30(39-33(36)27-24-21-18-15-12-9-6-3)29-38-32(35)26-23-20-17-14-11-8-5-2/h30H,4-29H2,1-3H3
INCHIAUX=N/A
PUBMED=N/A
SUBMITUSER=mwang87
TAGS=
LIBRARYQUALITY=3
SPECTRUMID=CCMSLIB00000425684
SCANS=656
555.0 100.0 
556.0 53.01 
END IONS

BEGIN IONS
PEPMASS=308.065
CHARGE=1+
MSLEVEL=2
SOURCE_INSTRUMENT=Positive-Quattro_QQQ:25eV
FILENAME=hmdb_intermediate.mgf
SEQ=*..*
IONMODE=Positive
ORGANISM=HMDB
NAME=HMDB:HMDB01202-1464 dCMP M+H
PI=HMDB
DATACOLLECTOR=HMDB
SMILES=NC1=NC(=O)N(C=C1)[C@H]1C[C@H](O)[C@@H](COP(O)(O)=O)O1
INCHI=InChI=1S/C9H14N3O7P/c10-7-1-2-12(9(14)11-7)8-3-5(13)6(19-8)4-18-20(15,16)17/h1-2,5-6,8,13H,3-4H2,(H2,10,11,14)(H2,15,16,17)/t5-,6+,8+/m0/s1
INCHIAUX=N/A
PUBMED=N/A
SUBMITUSER=mwang87
TAGS=
LIBRARYQUALITY=3
SPECTRUMID=CCMSLIB00000425685
SCANS=657
112.0 100.0 
END IONS

BEGIN IONS
PEPMASS=123.066
CHARGE=1+
MSLEVEL=2
SOURCE_INSTRUMENT=Positive-Quattro_QQQ:25eV
FILENAME=hmdb_intermediate.mgf
SEQ=*..*
IONMODE=Positive
ORGANISM=HMDB
NAME=HMDB:HMDB02994-2180 Erythritol M+H
PI=HMDB
DATACOLLECTOR=HMDB
SMILES=OC[C@H](O)[C@H](O)CO
INCHI=InChI=1S/C4H10O4/c5-1-3(7)4(8)2-6/h3-8H,1-2H2/t3-,4+
INCHIAUX=N/A
PUBMED=N/A
SUBMITUSER=mwang87
TAGS=
LIBRARYQUALITY=3
SPECTRUMID=CCMSLIB00000425686
SCANS=658
41.0 87.496 
43.0 100.0 
57.0 70.888 
61.0 53.865 
69.0 63.514 
77.0 65.477 
END IONS

BEGIN IONS
PEPMASS=175.12
CHARGE=1+
MSLEVEL=2
SOURCE_INSTRUMENT=Positive-Quattro_QQQ:25eV
FILENAME=hmdb_intermediate.mgf
SEQ=*..*
IONMODE=Positive
ORGANISM=HMDB
NAME=HMDB:HMDB03416-2293 D-Arginine M+H
PI=HMDB
DATACOLLECTOR=HMDB
SMILES=N[C@H](CCCNC(N)=N)C(O)=O
INCHI=InChI=1S/C6H14N4O2/c7-4(5(11)12)2-1-3-10-6(8)9/h4H,1-3,7H2,(H,11,12)(H4,8,9,10)/t4-/m1/s1
INCHIAUX=N/A
PUBMED=N/A
SUBMITUSER=mwang87
TAGS=
LIBRARYQUALITY=3
SPECTRUMID=CCMSLIB00000425687
SCANS=659
70.048 100.0 
END IONS

BEGIN IONS
PEPMASS=184.985
CHARGE=1+
MSLEVEL=2
SOURCE_INSTRUMENT=Negative-Quattro_QQQ:10eV
FILENAME=hmdb_intermediate.mgf
SEQ=*..*
IONMODE=Negative
ORGANISM=HMDB
NAME=HMDB:HMDB00807-1152 3-Phosphoglyceric acid M-H
PI=HMDB
DATACOLLECTOR=HMDB
SMILES=OC(COP(O)(O)=O)C(O)=O
INCHI=InChI=1S/C3H7O7P/c4-2(3(5)6)1-10-11(7,8)9/h2,4H,1H2,(H,5,6)(H2,7,8,9)
INCHIAUX=N/A
PUBMED=N/A
SUBMITUSER=mwang87
TAGS=
LIBRARYQUALITY=3
SPECTRUMID=CCMSLIB00000425688
SCANS=660
79.0 84.541 
97.0 100.0 
185.0 64.088 
END IONS

BEGIN IONS
PEPMASS=161.108
CHARGE=1+
MSLEVEL=2
SOURCE_INSTRUMENT=Positive-Quattro_QQQ:40eV
FILENAME=hmdb_intermediate.mgf
SEQ=*..*
IONMODE=Positive
ORGANISM=HMDB
NAME=HMDB:HMDB60064-518 Tryptamine M+H
PI=HMDB
DATACOLLECTOR=HMDB
SMILES=NCCC1=CNC2=CC=CC=C12
INCHI=InChI=1S/C10H12N2/c11-6-5-8-7-12-10-4-2-1-3-9(8)10/h1-4,7,12H,5-6,11H2
INCHIAUX=N/A
PUBMED=N/A
SUBMITUSER=mwang87
TAGS=
LIBRARYQUALITY=3
SPECTRUMID=CCMSLIB00000425689
SCANS=661
90.691 100.0 
115.035 80.667 
116.901 58.0 
END IONS

BEGIN IONS
PEPMASS=385.347
CHARGE=1+
MSLEVEL=2
SOURCE_INSTRUMENT=Positive-Quattro_QQQ:10eV
FILENAME=hmdb_intermediate.mgf
SEQ=*..*
IONMODE=Positive
ORGANISM=HMDB
NAME=HMDB:HMDB00921-1309 Cholestenone M+H
PI=HMDB
DATACOLLECTOR=HMDB
SMILES=[H][C@@]12CC[C@H]([C@H](C)CCCC(C)C)[C@@]1(C)CC[C@@]1([H])[C@@]2([H])CCC2=CC(=O)CC[C@]12C
INCHI=InChI=1S/C27H44O/c1-18(2)7-6-8-19(3)23-11-12-24-22-10-9-20-17-21(28)13-15-26(20,4)25(22)14-16-27(23,24)5/h17-19,22-25H,6-16H2,1-5H3/t19-,22+,23-,24+,25+,26+,27-/m1/s1
INCHIAUX=N/A
PUBMED=N/A
SUBMITUSER=mwang87
TAGS=
LIBRARYQUALITY=3
SPECTRUMID=CCMSLIB00000425690
SCANS=662
384.0 100.0 
END IONS

BEGIN IONS
PEPMASS=105.115
CHARGE=1+
MSLEVEL=2
SOURCE_INSTRUMENT=Positive-Quattro_QQQ:40eV
FILENAME=hmdb_intermediate.mgf
SEQ=*..*
IONMODE=Positive
ORGANISM=HMDB
NAME=HMDB:HMDB00097-152 Choline M+H
PI=HMDB
DATACOLLECTOR=HMDB
SMILES=C[N+](C)(C)CCO
INCHI=InChI=1S/C5H14NO/c1-6(2,3)4-5-7/h7H,4-5H2,1-3H3/q+1
INCHIAUX=N/A
PUBMED=N/A
SUBMITUSER=mwang87
TAGS=
LIBRARYQUALITY=3
SPECTRUMID=CCMSLIB00000425691
SCANS=663
59.0 100.0 
61.1 69.1597593694 
END IONS

BEGIN IONS
PEPMASS=133.065
CHARGE=1+
MSLEVEL=2
SOURCE_INSTRUMENT=Positive-Quattro_QQQ:40eV
FILENAME=hmdb_intermediate.mgf
SEQ=*..*
IONMODE=Positive
ORGANISM=HMDB
NAME=HMDB:HMDB03441-2312 Cinnamaldehyde M+H
PI=HMDB
DATACOLLECTOR=HMDB
SMILES=O=C\C=C\C1=CC=CC=C1
INCHI=InChI=1S/C9H8O/c10-8-4-7-9-5-2-1-3-6-9/h1-8H/b7-4+
INCHIAUX=N/A
PUBMED=N/A
SUBMITUSER=mwang87
TAGS=
LIBRARYQUALITY=3
SPECTRUMID=CCMSLIB00000425692
SCANS=664
77.0 100.0 
END IONS

BEGIN IONS
PEPMASS=132.066
CHARGE=1+
MSLEVEL=2
SOURCE_INSTRUMENT=Positive-Quattro_QQQ:10eV
FILENAME=hmdb_intermediate.mgf
SEQ=*..*
IONMODE=Positive
ORGANISM=HMDB
NAME=HMDB:HMDB00783-1116 Propionylglycine M+H
PI=HMDB
DATACOLLECTOR=HMDB
SMILES=CCC(=O)NCC(O)=O
INCHI=InChI=1S/C5H9NO3/c1-2-4(7)6-3-5(8)9/h2-3H2,1H3,(H,6,7)(H,8,9)
INCHIAUX=N/A
PUBMED=N/A
SUBMITUSER=mwang87
TAGS=
LIBRARYQUALITY=3
SPECTRUMID=CCMSLIB00000425693
SCANS=665
76.368 100.0 
END IONS

BEGIN IONS
PEPMASS=138.055
CHARGE=1+
MSLEVEL=2
SOURCE_INSTRUMENT=Positive-Quattro_QQQ:40eV
FILENAME=hmdb_intermediate.mgf
SEQ=*..*
IONMODE=Positive
ORGANISM=HMDB
NAME=HMDB:HMDB00875-1237 Trigonelline M+H
PI=HMDB
DATACOLLECTOR=HMDB
SMILES=C[N+]1=CC(=CC=C1)C([O-])=O
INCHI=InChI=1S/C7H7NO2/c1-8-4-2-3-6(5-8)7(9)10/h2-5H,1H3
INCHIAUX=N/A
PUBMED=N/A
SUBMITUSER=mwang87
TAGS=
LIBRARYQUALITY=3
SPECTRUMID=CCMSLIB00000425694
SCANS=666
52.149 52.126 
65.129 100.0 
65.628 89.872 
66.502 60.731 
79.232 61.762 
91.963 68.547 
END IONS

BEGIN IONS
PEPMASS=152.108
CHARGE=1+
MSLEVEL=2
SOURCE_INSTRUMENT=Positive-Quattro_QQQ:10eV
FILENAME=hmdb_intermediate.mgf
SEQ=*..*
IONMODE=Positive
ORGANISM=HMDB
NAME=HMDB:HMDB01942-1899 Phenylpropanolamine M+H
PI=HMDB
DATACOLLECTOR=HMDB
SMILES=C[C@@H](N)[C@@H](O)C1=CC=CC=C1
INCHI=InChI=1S/C9H13NO/c1-7(10)9(11)8-5-3-2-4-6-8/h2-7,9,11H,10H2,1H3/t7-,9-/m1/s1
INCHIAUX=N/A
PUBMED=N/A
SUBMITUSER=mwang87
TAGS=
LIBRARYQUALITY=3
SPECTRUMID=CCMSLIB00000425695
SCANS=667
147.964 97.059 
188.759 100.0 
189.571 68.627 
END IONS

BEGIN IONS
PEPMASS=122.097
CHARGE=1+
MSLEVEL=2
SOURCE_INSTRUMENT=Positive-Quattro_QQQ:10eV
FILENAME=hmdb_intermediate.mgf
SEQ=*..*
IONMODE=Positive
ORGANISM=HMDB
NAME=HMDB:HMDB02017-1947 1-Phenylethylamine M+H
PI=HMDB
DATACOLLECTOR=HMDB
SMILES=CC(N)C1=CC=CC=C1
INCHI=InChI=1S/C8H11N/c1-7(9)8-5-3-2-4-6-8/h2-7H,9H2,1H3
INCHIAUX=N/A
PUBMED=N/A
SUBMITUSER=mwang87
TAGS=
LIBRARYQUALITY=3
SPECTRUMID=CCMSLIB00000425696
SCANS=668
120.65 100.0 
END IONS

BEGIN IONS
PEPMASS=240.11
CHARGE=1+
MSLEVEL=2
SOURCE_INSTRUMENT=Positive-Quattro_QQQ:25eV
FILENAME=hmdb_intermediate.mgf
SEQ=*..*
IONMODE=Positive
ORGANISM=HMDB
NAME=HMDB:HMDB00038-64 Dihydrobiopterin M+H
PI=HMDB
DATACOLLECTOR=HMDB
SMILES=CC(O)C(O)C1=NC2=C(NC1)N=C(N)NC2=O
INCHI=InChI=1S/C9H13N5O3/c1-3(15)6(16)4-2-11-7-5(12-4)8(17)14-9(10)13-7/h3,6,15-16H,2H2,1H3,(H4,10,11,13,14,17)
INCHIAUX=N/A
PUBMED=N/A
SUBMITUSER=mwang87
TAGS=
LIBRARYQUALITY=3
SPECTRUMID=CCMSLIB00000425697
SCANS=669
78.0 100.0 
122.0 50.792 
123.0 69.479 
132.0 66.743 
146.0 62.165 
147.0 73.424 
148.0 76.681 
175.0 57.729 
193.0 66.176 
END IONS

BEGIN IONS
PEPMASS=281.248
CHARGE=1+
MSLEVEL=2
SOURCE_INSTRUMENT=Positive-Quattro_QQQ:10eV
FILENAME=hmdb_intermediate.mgf
SEQ=*..*
IONMODE=Positive
ORGANISM=HMDB
NAME=HMDB:HMDB00673-930 Linoleic acid M+H
PI=HMDB
DATACOLLECTOR=HMDB
SMILES=CCCCC\C=C/C\C=C/CCCCCCCC(O)=O
INCHI=InChI=1S/C18H32O2/c1-2-3-4-5-6-7-8-9-10-11-12-13-14-15-16-17-18(19)20/h6-7,9-10H,2-5,8,11-17H2,1H3,(H,19,20)/b7-6-,10-9-
INCHIAUX=N/A
PUBMED=N/A
SUBMITUSER=mwang87
TAGS=
LIBRARYQUALITY=3
SPECTRUMID=CCMSLIB00000425698
SCANS=670
202.0 63.304 
280.0 100.0 
END IONS

BEGIN IONS
PEPMASS=177.062
CHARGE=1+
MSLEVEL=2
SOURCE_INSTRUMENT=Positive-Quattro_QQQ:25eV
FILENAME=hmdb_intermediate.mgf
SEQ=*..*
IONMODE=Positive
ORGANISM=HMDB
NAME=HMDB:HMDB01209-1467 Allantoic acid M+H
PI=HMDB
DATACOLLECTOR=HMDB
SMILES=NC(=O)NC(NC(N)=O)C(O)=O
INCHI=InChI=1S/C4H8N4O4/c5-3(11)7-1(2(9)10)8-4(6)12/h1H,(H,9,10)(H3,5,7,11)(H3,6,8,12)
INCHIAUX=N/A
PUBMED=N/A
SUBMITUSER=mwang87
TAGS=
LIBRARYQUALITY=3
SPECTRUMID=CCMSLIB00000425699
SCANS=671
61.0 100.0 
74.0 58.908 
END IONS

BEGIN IONS
PEPMASS=195.05
CHARGE=1+
MSLEVEL=2
SOURCE_INSTRUMENT=Positive-Quattro_QQQ:10eV
FILENAME=hmdb_intermediate.mgf
SEQ=*..*
IONMODE=Positive
ORGANISM=HMDB
NAME=HMDB:HMDB03402-2277 Pectin M+H
PI=HMDB
DATACOLLECTOR=HMDB
SMILES=O[C@@H]1O[C@@H]([C@H](O)[C@H](O)[C@H]1O)C(O)=O
INCHI=InChI=1S/C6H10O7/c7-1-2(8)4(5(10)11)13-6(12)3(1)9/h1-4,6-9,12H,(H,10,11)/t1-,2+,3+,4-,6+/m0/s1
INCHIAUX=N/A
PUBMED=N/A
SUBMITUSER=mwang87
TAGS=
LIBRARYQUALITY=3
SPECTRUMID=CCMSLIB00000425700
SCANS=672
89.0 100.0 
119.0 81.416 
END IONS

BEGIN IONS
PEPMASS=111.045
CHARGE=1+
MSLEVEL=2
SOURCE_INSTRUMENT=Positive-Quattro_QQQ:25eV
FILENAME=hmdb_intermediate.mgf
SEQ=*..*
IONMODE=Positive
ORGANISM=HMDB
NAME=HMDB:HMDB00957-1358 Pyrocatechol M+H
PI=HMDB
DATACOLLECTOR=HMDB
SMILES=OC1=CC=CC=C1O
INCHI=InChI=1S/C6H6O2/c7-5-3-1-2-4-6(5)8/h1-4,7-8H
INCHIAUX=N/A
PUBMED=N/A
SUBMITUSER=mwang87
TAGS=
LIBRARYQUALITY=3
SPECTRUMID=CCMSLIB00000425701
SCANS=673
65.144 100.0 
END IONS

BEGIN IONS
PEPMASS=157.061
CHARGE=1+
MSLEVEL=2
SOURCE_INSTRUMENT=Positive-Quattro_QQQ:10eV
FILENAME=hmdb_intermediate.mgf
SEQ=*..*
IONMODE=Positive
ORGANISM=HMDB
NAME=HMDB:HMDB00544-764 5-Hydroxymethyl-4-methyluracil M+H
PI=HMDB
DATACOLLECTOR=HMDB
SMILES=CC1=C(CO)C(=O)NC(=O)N1
INCHI=InChI=1S/C6H8N2O3/c1-3-4(2-9)5(10)8-6(11)7-3/h9H,2H2,1H3,(H2,7,8,10,11)
INCHIAUX=N/A
PUBMED=N/A
SUBMITUSER=mwang87
TAGS=
LIBRARYQUALITY=3
SPECTRUMID=CCMSLIB00000425702
SCANS=674
138.992 100.0 
END IONS

BEGIN IONS
PEPMASS=118.05
CHARGE=1+
MSLEVEL=2
SOURCE_INSTRUMENT=Positive-Quattro_QQQ:40eV
FILENAME=hmdb_intermediate.mgf
SEQ=*..*
IONMODE=Positive
ORGANISM=HMDB
NAME=HMDB:HMDB00532-754 Acetylglycine M+H
PI=HMDB
DATACOLLECTOR=HMDB
SMILES=CC(=O)NCC(O)=O
INCHI=InChI=1S/C4H7NO3/c1-3(6)5-2-4(7)8/h2H2,1H3,(H,5,6)(H,7,8)
INCHIAUX=N/A
PUBMED=N/A
SUBMITUSER=mwang87
TAGS=
LIBRARYQUALITY=3
SPECTRUMID=CCMSLIB00000425703
SCANS=675
43.205 100.0 
END IONS

BEGIN IONS
PEPMASS=115.112
CHARGE=1+
MSLEVEL=2
SOURCE_INSTRUMENT=Positive-Quattro_QQQ:40eV
FILENAME=hmdb_intermediate.mgf
SEQ=*..*
IONMODE=Positive
ORGANISM=HMDB
NAME=HMDB:HMDB04814-2408 4-Heptanone M+H
PI=HMDB
DATACOLLECTOR=HMDB
SMILES=CCCC(=O)CCC
INCHI=InChI=1S/C7H14O/c1-3-5-7(8)6-4-2/h3-6H2,1-2H3
INCHIAUX=N/A
PUBMED=N/A
SUBMITUSER=mwang87
TAGS=
LIBRARYQUALITY=3
SPECTRUMID=CCMSLIB00000425704
SCANS=676
27.37 58.247 
29.4 100.0 
END IONS

BEGIN IONS
PEPMASS=165.076
CHARGE=1+
MSLEVEL=2
SOURCE_INSTRUMENT=Positive-Quattro_QQQ:25eV
FILENAME=hmdb_intermediate.mgf
SEQ=*..*
IONMODE=Positive
ORGANISM=HMDB
NAME=HMDB:HMDB02712-2126 1,5-Anhydrosorbitol M+H
PI=HMDB
DATACOLLECTOR=HMDB
SMILES=OC[C@H]1OC[C@H](O)[C@@H](O)[C@@H]1O
INCHI=InChI=1S/C6H12O5/c7-1-4-6(10)5(9)3(8)2-11-4/h3-10H,1-2H2/t3-,4+,5+,6+/m0/s1
INCHIAUX=N/A
PUBMED=N/A
SUBMITUSER=mwang87
TAGS=
LIBRARYQUALITY=3
SPECTRUMID=CCMSLIB00000425705
SCANS=677
69.0 100.0 
END IONS

BEGIN IONS
PEPMASS=273.185
CHARGE=1+
MSLEVEL=2
SOURCE_INSTRUMENT=Positive-Quattro_QQQ:25eV
FILENAME=hmdb_intermediate.mgf
SEQ=*..*
IONMODE=Positive
ORGANISM=HMDB
NAME=HMDB:HMDB00151-231 Estradiol M+H
PI=HMDB
DATACOLLECTOR=HMDB
SMILES=[H][C@@]12CC[C@H](O)[C@@]1(C)CC[C@]1([H])C3=C(CC[C@@]21[H])C=C(O)C=C3
INCHI=InChI=1S/C18H24O2/c1-18-9-8-14-13-5-3-12(19)10-11(13)2-4-15(14)16(18)6-7-17(18)20/h3,5,10,14-17,19-20H,2,4,6-9H2,1H3/t14-,15-,16+,17+,18+/m1/s1
INCHIAUX=N/A
PUBMED=N/A
SUBMITUSER=mwang87
TAGS=
LIBRARYQUALITY=3
SPECTRUMID=CCMSLIB00000425706
SCANS=678
107.007 100.0 
END IONS

BEGIN IONS
PEPMASS=164.057
CHARGE=1+
MSLEVEL=2
SOURCE_INSTRUMENT=Positive-Quattro_QQQ:10eV
FILENAME=hmdb_intermediate.mgf
SEQ=*..*
IONMODE=Positive
ORGANISM=HMDB
NAME=HMDB:HMDB00802-1141 Pterin M+H
PI=HMDB
DATACOLLECTOR=HMDB
SMILES=NC1=NC2=NC=CN=C2C(=O)N1
INCHI=InChI=1S/C6H5N5O/c7-6-10-4-3(5(12)11-6)8-1-2-9-4/h1-2H,(H3,7,9,10,11,12)
INCHIAUX=N/A
PUBMED=N/A
SUBMITUSER=mwang87
TAGS=
LIBRARYQUALITY=3
SPECTRUMID=CCMSLIB00000425707
SCANS=679
163.968 100.0 
END IONS

BEGIN IONS
PEPMASS=170.093
CHARGE=1+
MSLEVEL=2
SOURCE_INSTRUMENT=Positive-Quattro_QQQ:10eV
FILENAME=hmdb_intermediate.mgf
SEQ=*..*
IONMODE=Positive
ORGANISM=HMDB
NAME=HMDB:HMDB00001-1 1-Methylhistidine M+H
PI=HMDB
DATACOLLECTOR=HMDB
SMILES=CN1C=NC(C[C@H](N)C(O)=O)=C1
INCHI=InChI=1S/C7H11N3O2/c1-10-3-5(9-4-10)2-6(8)7(11)12/h3-4,6H,2,8H2,1H3,(H,11,12)/t6-/m0/s1
INCHIAUX=N/A
PUBMED=N/A
SUBMITUSER=mwang87
TAGS=
LIBRARYQUALITY=3
SPECTRUMID=CCMSLIB00000425708
SCANS=680
170.16 100.0 
END IONS

BEGIN IONS
PEPMASS=153.055
CHARGE=1+
MSLEVEL=2
SOURCE_INSTRUMENT=Positive-Quattro_QQQ:10eV
FILENAME=hmdb_intermediate.mgf
SEQ=*..*
IONMODE=Positive
ORGANISM=HMDB
NAME=HMDB:HMDB04815-2409 4-Hydroxy-3-methylbenzoic acid M+H
PI=HMDB
DATACOLLECTOR=HMDB
SMILES=CC1=CC(=CC=C1O)C(O)=O
INCHI=InChI=1S/C8H8O3/c1-5-4-6(8(10)11)2-3-7(5)9/h2-4,9H,1H3,(H,10,11)
INCHIAUX=N/A
PUBMED=N/A
SUBMITUSER=mwang87
TAGS=
LIBRARYQUALITY=3
SPECTRUMID=CCMSLIB00000425709
SCANS=681
109.0 100.0 
153.0 58.598 
END IONS

BEGIN IONS
PEPMASS=75.0922
CHARGE=1+
MSLEVEL=2
SOURCE_INSTRUMENT=Positive-Quattro_QQQ:25eV
FILENAME=hmdb_intermediate.mgf
SEQ=*..*
IONMODE=Positive
ORGANISM=HMDB
NAME=HMDB:HMDB00002-5 1,3-Diaminopropane M+H
PI=HMDB
DATACOLLECTOR=HMDB
SMILES=NCCCN
INCHI=InChI=1S/C3H10N2/c4-2-1-3-5/h1-5H2
INCHIAUX=N/A
PUBMED=N/A
SUBMITUSER=mwang87
TAGS=
LIBRARYQUALITY=3
SPECTRUMID=CCMSLIB00000425710
SCANS=682
30.381 100.0 
58.122 63.889 
END IONS

BEGIN IONS
PEPMASS=118.062
CHARGE=1+
MSLEVEL=2
SOURCE_INSTRUMENT=Positive-Quattro_QQQ:25eV
FILENAME=hmdb_intermediate.mgf
SEQ=*..*
IONMODE=Positive
ORGANISM=HMDB
NAME=HMDB:HMDB00128-195 Guanidoacetic acid M+H
PI=HMDB
DATACOLLECTOR=HMDB
SMILES=NC(=N)NCC(O)=O
INCHI=InChI=1S/C3H7N3O2/c4-3(5)6-1-2(7)8/h1H2,(H,7,8)(H4,4,5,6)
INCHIAUX=N/A
PUBMED=N/A
SUBMITUSER=mwang87
TAGS=
LIBRARYQUALITY=3
SPECTRUMID=CCMSLIB00000425711
SCANS=683
43.322 100.0 
72.163 91.026 
END IONS

BEGIN IONS
PEPMASS=147.045
CHARGE=1+
MSLEVEL=2
SOURCE_INSTRUMENT=Positive-Quattro_QQQ:25eV
FILENAME=hmdb_intermediate.mgf
SEQ=*..*
IONMODE=Positive
ORGANISM=HMDB
NAME=HMDB:HMDB01218-1470 Coumarin M+H
PI=HMDB
DATACOLLECTOR=HMDB
SMILES=O=C1OC2=CC=CC=C2C=C1
INCHI=InChI=1S/C9H6O2/c10-9-6-5-7-3-1-2-4-8(7)11-9/h1-6H
INCHIAUX=N/A
PUBMED=N/A
SUBMITUSER=mwang87
TAGS=
LIBRARYQUALITY=3
SPECTRUMID=CCMSLIB00000425712
SCANS=684
91.0 100.0 
END IONS

BEGIN IONS
PEPMASS=324.06
CHARGE=1+
MSLEVEL=2
SOURCE_INSTRUMENT=Positive-Quattro_QQQ:40eV
FILENAME=hmdb_intermediate.mgf
SEQ=*..*
IONMODE=Positive
ORGANISM=HMDB
NAME=HMDB:HMDB00095-149 Cytidine monophosphate M+H
PI=HMDB
DATACOLLECTOR=HMDB
SMILES=NC1=NC(=O)N(C=C1)[C@@H]1O[C@H](COP(O)(O)=O)[C@@H](O)[C@H]1O
INCHI=InChI=1S/C9H14N3O8P/c10-5-1-2-12(9(15)11-5)8-7(14)6(13)4(20-8)3-19-21(16,17)18/h1-2,4,6-8,13-14H,3H2,(H2,10,11,15)(H2,16,17,18)/t4-,6-,7-,8-/m1/s1
INCHIAUX=N/A
PUBMED=N/A
SUBMITUSER=mwang87
TAGS=
LIBRARYQUALITY=3
SPECTRUMID=CCMSLIB00000425713
SCANS=685
112.0 100.0 
END IONS

BEGIN IONS
PEPMASS=122.097
CHARGE=1+
MSLEVEL=2
SOURCE_INSTRUMENT=Positive-Quattro_QQQ:25eV
FILENAME=hmdb_intermediate.mgf
SEQ=*..*
IONMODE=Positive
ORGANISM=HMDB
NAME=HMDB:HMDB01020-1391 N,N-Dimethylaniline M+H
PI=HMDB
DATACOLLECTOR=HMDB
SMILES=CN(C)C1=CC=CC=C1
INCHI=InChI=1S/C8H11N/c1-9(2)8-6-4-3-5-7-8/h3-7H,1-2H3
INCHIAUX=N/A
PUBMED=N/A
SUBMITUSER=mwang87
TAGS=
LIBRARYQUALITY=3
SPECTRUMID=CCMSLIB00000425714
SCANS=686
106.0 100.0 
END IONS

BEGIN IONS
PEPMASS=281.248
CHARGE=1+
MSLEVEL=2
SOURCE_INSTRUMENT=Positive-Quattro_QQQ:25eV
FILENAME=hmdb_intermediate.mgf
SEQ=*..*
IONMODE=Positive
ORGANISM=HMDB
NAME=HMDB:HMDB00673-931 Linoleic acid M+H
PI=HMDB
DATACOLLECTOR=HMDB
SMILES=CCCCC\C=C/C\C=C/CCCCCCCC(O)=O
INCHI=InChI=1S/C18H32O2/c1-2-3-4-5-6-7-8-9-10-11-12-13-14-15-16-17-18(19)20/h6-7,9-10H,2-5,8,11-17H2,1H3,(H,19,20)/b7-6-,10-9-
INCHIAUX=N/A
PUBMED=N/A
SUBMITUSER=mwang87
TAGS=
LIBRARYQUALITY=3
SPECTRUMID=CCMSLIB00000425715
SCANS=687
124.0 78.292 
202.0 100.0 
END IONS

BEGIN IONS
PEPMASS=159.066
CHARGE=1+
MSLEVEL=2
SOURCE_INSTRUMENT=Positive-Quattro_QQQ:25eV
FILENAME=hmdb_intermediate.mgf
SEQ=*..*
IONMODE=Positive
ORGANISM=HMDB
NAME=HMDB:HMDB00635-868 Succinylacetone M+H
PI=HMDB
DATACOLLECTOR=HMDB
SMILES=CC(=O)CC(=O)CCC(O)=O
INCHI=InChI=1S/C7H10O4/c1-5(8)4-6(9)2-3-7(10)11/h2-4H2,1H3,(H,10,11)
INCHIAUX=N/A
PUBMED=N/A
SUBMITUSER=mwang87
TAGS=
LIBRARYQUALITY=3
SPECTRUMID=CCMSLIB00000425716
SCANS=688
43.2 58.105 
158.77 100.0 
END IONS

BEGIN IONS
PEPMASS=99.0446
CHARGE=1+
MSLEVEL=2
SOURCE_INSTRUMENT=Negative-Quattro_QQQ:10eV
FILENAME=hmdb_intermediate.mgf
SEQ=*..*
IONMODE=Negative
ORGANISM=HMDB
NAME=HMDB:HMDB00509-728 Senecioic acid M-H
PI=HMDB
DATACOLLECTOR=HMDB
SMILES=CC(C)=CC(O)=O
INCHI=InChI=1S/C5H8O2/c1-4(2)3-5(6)7/h3H,1-2H3,(H,6,7)
INCHIAUX=N/A
PUBMED=N/A
SUBMITUSER=mwang87
TAGS=
LIBRARYQUALITY=3
SPECTRUMID=CCMSLIB00000425717
SCANS=689
55.547 100.0 
99.274 79.032 
END IONS

BEGIN IONS
PEPMASS=283.264
CHARGE=1+
MSLEVEL=2
SOURCE_INSTRUMENT=Positive-Quattro_QQQ:25eV
FILENAME=hmdb_intermediate.mgf
SEQ=*..*
IONMODE=Positive
ORGANISM=HMDB
NAME=HMDB:HMDB03231-2216 Vaccenic acid M+H
PI=HMDB
DATACOLLECTOR=HMDB
SMILES=CCCCCC\C=C/CCCCCCCCCC(O)=O
INCHI=InChI=1S/C18H34O2/c1-2-3-4-5-6-7-8-9-10-11-12-13-14-15-16-17-18(19)20/h7-8H,2-6,9-17H2,1H3,(H,19,20)/b8-7-
INCHIAUX=N/A
PUBMED=N/A
SUBMITUSER=mwang87
TAGS=
LIBRARYQUALITY=3
SPECTRUMID=CCMSLIB00000425718
SCANS=690
54.0 75.016 
55.0 76.587 
57.0 51.498 
82.0 89.868 
83.0 60.478 
92.0 56.139 
94.0 64.245 
95.0 58.97 
119.0 67.891 
146.0 57.242 
170.0 61.814 
226.0 56.142 
240.0 52.19 
282.0 63.263 
283.0 100.0 
END IONS

BEGIN IONS
PEPMASS=193.05
CHARGE=1+
MSLEVEL=2
SOURCE_INSTRUMENT=Negative-Quattro_QQQ:25eV
FILENAME=hmdb_intermediate.mgf
SEQ=*..*
IONMODE=Negative
ORGANISM=HMDB
NAME=HMDB:HMDB00955-1352 Isoferulic acid M-H
PI=HMDB
DATACOLLECTOR=HMDB
SMILES=COC1=C(O)C=C(\C=C\C(O)=O)C=C1
INCHI=InChI=1S/C10H10O4/c1-14-9-4-2-7(6-8(9)11)3-5-10(12)13/h2-6,11H,1H3,(H,12,13)/b5-3+
INCHIAUX=N/A
PUBMED=N/A
SUBMITUSER=mwang87
TAGS=
LIBRARYQUALITY=3
SPECTRUMID=CCMSLIB00000425719
SCANS=691
134.019 100.0 
END IONS

BEGIN IONS
PEPMASS=142.027
CHARGE=1+
MSLEVEL=2
SOURCE_INSTRUMENT=Positive-Quattro_QQQ:25eV
FILENAME=hmdb_intermediate.mgf
SEQ=*..*
IONMODE=Positive
ORGANISM=HMDB
NAME=HMDB:HMDB60152-371 O-Phosphoethanolamine M+H
PI=HMDB
DATACOLLECTOR=HMDB
SMILES=NCCOP(O)(O)=O
INCHI=InChI=1S/C2H8NO4P/c3-1-2-7-8(4,5)6/h1-3H2,(H2,4,5,6)
INCHIAUX=N/A
PUBMED=N/A
SUBMITUSER=mwang87
TAGS=
LIBRARYQUALITY=3
SPECTRUMID=CCMSLIB00000425720
SCANS=692
44.621 100.0 
END IONS

BEGIN IONS
PEPMASS=94.0657
CHARGE=1+
MSLEVEL=2
SOURCE_INSTRUMENT=Positive-Quattro_QQQ:40eV
FILENAME=hmdb_intermediate.mgf
SEQ=*..*
IONMODE=Positive
ORGANISM=HMDB
NAME=HMDB:HMDB03012-2184 Aniline M+H
PI=HMDB
DATACOLLECTOR=HMDB
SMILES=NC1=CC=CC=C1
INCHI=InChI=1S/C6H7N/c7-6-4-2-1-3-5-6/h1-5H,7H2
INCHIAUX=N/A
PUBMED=N/A
SUBMITUSER=mwang87
TAGS=
LIBRARYQUALITY=3
SPECTRUMID=CCMSLIB00000425721
SCANS=693
51.0 100.0 
END IONS

BEGIN IONS
PEPMASS=173.154
CHARGE=1+
MSLEVEL=2
SOURCE_INSTRUMENT=Positive-Quattro_QQQ:25eV
FILENAME=hmdb_intermediate.mgf
SEQ=*..*
IONMODE=Positive
ORGANISM=HMDB
NAME=HMDB:HMDB00511-735 Capric acid M+H
PI=HMDB
DATACOLLECTOR=HMDB
SMILES=CCCCCCCCCC(O)=O
INCHI=InChI=1S/C10H20O2/c1-2-3-4-5-6-7-8-9-10(11)12/h2-9H2,1H3,(H,11,12)
INCHIAUX=N/A
PUBMED=N/A
SUBMITUSER=mwang87
TAGS=
LIBRARYQUALITY=3
SPECTRUMID=CCMSLIB00000425722
SCANS=694
125.1 100.0 
END IONS

BEGIN IONS
PEPMASS=132.102
CHARGE=1+
MSLEVEL=2
SOURCE_INSTRUMENT=Positive-Quattro_QQQ:25eV
FILENAME=hmdb_intermediate.mgf
SEQ=*..*
IONMODE=Positive
ORGANISM=HMDB
NAME=HMDB:HMDB01645-1670 L-Norleucine M+H
PI=HMDB
DATACOLLECTOR=HMDB
SMILES=CCCC[C@H](N)C(O)=O
INCHI=InChI=1S/C6H13NO2/c1-2-3-4-5(7)6(8)9/h5H,2-4,7H2,1H3,(H,8,9)/t5-/m0/s1
INCHIAUX=N/A
PUBMED=N/A
SUBMITUSER=mwang87
TAGS=
LIBRARYQUALITY=3
SPECTRUMID=CCMSLIB00000425723
SCANS=695
69.119 53.043 
86.048 100.0 
END IONS

BEGIN IONS
PEPMASS=245.234
CHARGE=1+
MSLEVEL=2
SOURCE_INSTRUMENT=Positive-Quattro_QQQ:25eV
FILENAME=hmdb_intermediate.mgf
SEQ=*..*
IONMODE=Positive
ORGANISM=HMDB
NAME=HMDB:HMDB01186-1455 N1-Acetylspermine M+H
PI=HMDB
DATACOLLECTOR=HMDB
SMILES=CC(=O)NCCCNCCCCNCCCN
INCHI=InChI=1S/C12H28N4O/c1-12(17)16-11-5-10-15-8-3-2-7-14-9-4-6-13/h14-15H,2-11,13H2,1H3,(H,16,17)
INCHIAUX=N/A
PUBMED=N/A
SUBMITUSER=mwang87
TAGS=
LIBRARYQUALITY=3
SPECTRUMID=CCMSLIB00000425724
SCANS=696
99.0 100.0 
111.0 81.891 
END IONS

BEGIN IONS
PEPMASS=162.972
CHARGE=1+
MSLEVEL=2
SOURCE_INSTRUMENT=Positive-Quattro_QQQ:25eV
FILENAME=hmdb_intermediate.mgf
SEQ=*..*
IONMODE=Positive
ORGANISM=HMDB
NAME=HMDB:HMDB04811-2401 2,4-Dichlorophenol M+H
PI=HMDB
DATACOLLECTOR=HMDB
SMILES=OC1=CC=C(Cl)C=C1Cl
INCHI=InChI=1S/C6H4Cl2O/c7-4-1-2-6(9)5(8)3-4/h1-3,9H
INCHIAUX=N/A
PUBMED=N/A
SUBMITUSER=mwang87
TAGS=
LIBRARYQUALITY=3
SPECTRUMID=CCMSLIB00000425725
SCANS=697
77.0 100.0 
78.0 58.071 
105.0 67.02 
END IONS

BEGIN IONS
PEPMASS=343.124
CHARGE=1+
MSLEVEL=2
SOURCE_INSTRUMENT=Positive-Quattro_QQQ:25eV
FILENAME=hmdb_intermediate.mgf
SEQ=*..*
IONMODE=Positive
ORGANISM=HMDB
NAME=HMDB:HMDB02923-2164 Isomaltose M+H
PI=HMDB
DATACOLLECTOR=HMDB
SMILES=OC[C@H]1O[C@H](OC[C@H]2OC(O)[C@H](O)[C@@H](O)[C@@H]2O)[C@H](O)[C@@H](O)[C@@H]1O
INCHI=InChI=1S/C12H22O11/c13-1-3-5(14)8(17)10(19)12(23-3)21-2-4-6(15)7(16)9(18)11(20)22-4/h3-20H,1-2H2/t3-,4-,5-,6-,7+,8+,9-,10-,11?,12+/m1/s1
INCHIAUX=N/A
PUBMED=N/A
SUBMITUSER=mwang87
TAGS=
LIBRARYQUALITY=3
SPECTRUMID=CCMSLIB00000425726
SCANS=698
85.0 100.0 
END IONS

BEGIN IONS
PEPMASS=229.082
CHARGE=1+
MSLEVEL=2
SOURCE_INSTRUMENT=Positive-Quattro_QQQ:25eV
FILENAME=hmdb_intermediate.mgf
SEQ=*..*
IONMODE=Positive
ORGANISM=HMDB
NAME=HMDB:HMDB00012-20 Deoxyuridine M+H
PI=HMDB
DATACOLLECTOR=HMDB
SMILES=OC[C@H]1O[C@H](C[C@@H]1O)N1C=CC(=O)NC1=O
INCHI=InChI=1S/C9H12N2O5/c12-4-6-5(13)3-8(16-6)11-2-1-7(14)10-9(11)15/h1-2,5-6,8,12-13H,3-4H2,(H,10,14,15)/t5-,6+,8+/m0/s1
INCHIAUX=N/A
PUBMED=N/A
SUBMITUSER=mwang87
TAGS=
LIBRARYQUALITY=3
SPECTRUMID=CCMSLIB00000425727
SCANS=699
113.009 100.0 
END IONS

BEGIN IONS
PEPMASS=425.436
CHARGE=1+
MSLEVEL=2
SOURCE_INSTRUMENT=Positive-Quattro_QQQ:40eV
FILENAME=hmdb_intermediate.mgf
SEQ=*..*
IONMODE=Positive
ORGANISM=HMDB
NAME=HMDB:HMDB02348-2072 Octacosanoic acid M+H
PI=HMDB
DATACOLLECTOR=HMDB
SMILES=CCCCCCCCCCCCCCCCCCCCCCCCCCCC(O)=O
INCHI=InChI=1S/C28H56O2/c1-2-3-4-5-6-7-8-9-10-11-12-13-14-15-16-17-18-19-20-21-22-23-24-25-26-27-28(29)30/h2-27H2,1H3,(H,29,30)
INCHIAUX=N/A
PUBMED=N/A
SUBMITUSER=mwang87
TAGS=
LIBRARYQUALITY=3
SPECTRUMID=CCMSLIB00000425728
SCANS=700
57.0 61.677 
68.0 54.345 
71.0 56.099 
85.0 57.16 
117.0 61.78 
130.0 55.046 
146.0 62.84 
147.0 100.0 
END IONS

BEGIN IONS
PEPMASS=275.092
CHARGE=1+
MSLEVEL=2
SOURCE_INSTRUMENT=Positive-Quattro_QQQ:25eV
FILENAME=hmdb_intermediate.mgf
SEQ=*..*
IONMODE=Positive
ORGANISM=HMDB
NAME=HMDB:HMDB03306-2234 Phloretin M+H
PI=HMDB
DATACOLLECTOR=HMDB
SMILES=OC1=CC=C(CCC(=O)C2=C(O)C=C(O)C=C2O)C=C1
INCHI=InChI=1S/C15H14O5/c16-10-4-1-9(2-5-10)3-6-12(18)15-13(19)7-11(17)8-14(15)20/h1-2,4-5,7-8,16-17,19-20H,3,6H2
INCHIAUX=N/A
PUBMED=N/A
SUBMITUSER=mwang87
TAGS=
LIBRARYQUALITY=3
SPECTRUMID=CCMSLIB00000425729
SCANS=701
152.0 56.967 
166.0 100.0 
167.0 86.643 
168.0 67.093 
END IONS

BEGIN IONS
PEPMASS=201.185
CHARGE=1+
MSLEVEL=2
SOURCE_INSTRUMENT=Positive-Quattro_QQQ:10eV
FILENAME=hmdb_intermediate.mgf
SEQ=*..*
IONMODE=Positive
ORGANISM=HMDB
NAME=HMDB:HMDB00638-870 Dodecanoic acid M+H
PI=HMDB
DATACOLLECTOR=HMDB
SMILES=CCCCCCCCCCCC(O)=O
INCHI=InChI=1S/C12H24O2/c1-2-3-4-5-6-7-8-9-10-11-12(13)14/h2-11H2,1H3,(H,13,14)
INCHIAUX=N/A
PUBMED=N/A
SUBMITUSER=mwang87
TAGS=
LIBRARYQUALITY=3
SPECTRUMID=CCMSLIB00000425730
SCANS=702
202.0 100.0 
END IONS

BEGIN IONS
PEPMASS=623.577
CHARGE=1+
MSLEVEL=2
SOURCE_INSTRUMENT=Positive-Quattro_QQQ:40eV
FILENAME=hmdb_intermediate.mgf
SEQ=*..*
IONMODE=Positive
ORGANISM=HMDB
NAME=HMDB:HMDB00658-899 CE(16:1(9Z)) M+H
PI=HMDB
DATACOLLECTOR=HMDB
SMILES=CCCCCC\C=C/CCCCCCCC(=O)OC1CC[C@@]2(C)C(=CCC3C4CC[C@H]([C@H](C)CCCC(C)C)[C@@]4(C)CCC23)C1
INCHI=InChI=1S/C43H74O2/c1-7-8-9-10-11-12-13-14-15-16-17-18-19-23-41(44)45-36-28-30-42(5)35(32-36)24-25-37-39-27-26-38(34(4)22-20-21-33(2)3)43(39,6)31-29-40(37)42/h12-13,24,33-34,36-40H,7-11,14-23,25-32H2,1-6H3/b13-12-/t34-,36?,37?,38-,39?,40?,42+,43-/m1/s1
INCHIAUX=N/A
PUBMED=N/A
SUBMITUSER=mwang87
TAGS=
LIBRARYQUALITY=3
SPECTRUMID=CCMSLIB00000425731
SCANS=703
81.0 95.2 
105.0 100.0 
106.0 83.791 
205.0 80.665 
END IONS

BEGIN IONS
PEPMASS=115.112
CHARGE=1+
MSLEVEL=2
SOURCE_INSTRUMENT=Positive-Quattro_QQQ:40eV
FILENAME=hmdb_intermediate.mgf
SEQ=*..*
IONMODE=Positive
ORGANISM=HMDB
NAME=HMDB:HMDB03671-2342 2-Heptanone M+H
PI=HMDB
DATACOLLECTOR=HMDB
SMILES=CCCCCC(C)=O
INCHI=InChI=1S/C7H14O/c1-3-4-5-6-7(2)8/h3-6H2,1-2H3
INCHIAUX=N/A
PUBMED=N/A
SUBMITUSER=mwang87
TAGS=
LIBRARYQUALITY=3
SPECTRUMID=CCMSLIB00000425732
SCANS=704
91.81 100.0 
END IONS

BEGIN IONS
PEPMASS=107.05
CHARGE=1+
MSLEVEL=2
SOURCE_INSTRUMENT=Positive-Quattro_QQQ:25eV
FILENAME=hmdb_intermediate.mgf
SEQ=*..*
IONMODE=Positive
ORGANISM=HMDB
NAME=HMDB:HMDB06115-2473 Benzaldehyde M+H
PI=HMDB
DATACOLLECTOR=HMDB
SMILES=O=CC1=CC=CC=C1
INCHI=InChI=1S/C7H6O/c8-6-7-4-2-1-3-5-7/h1-6H
INCHIAUX=N/A
PUBMED=N/A
SUBMITUSER=mwang87
TAGS=
LIBRARYQUALITY=3
SPECTRUMID=CCMSLIB00000425733
SCANS=705
77.0 100.0 
79.0 59.136 
END IONS

BEGIN IONS
PEPMASS=141.092
CHARGE=1+
MSLEVEL=2
SOURCE_INSTRUMENT=Negative-Quattro_QQQ:25eV
FILENAME=hmdb_intermediate.mgf
SEQ=*..*
IONMODE=Negative
ORGANISM=HMDB
NAME=HMDB:HMDB01568-1655 trans-2-Octenoic acid M-H
PI=HMDB
DATACOLLECTOR=HMDB
SMILES=CCCCC\C=C\C(O)=O
INCHI=InChI=1S/C8H14O2/c1-2-3-4-5-6-7-8(9)10/h6-7H,2-5H2,1H3,(H,9,10)/b7-6+
INCHIAUX=N/A
PUBMED=N/A
SUBMITUSER=mwang87
TAGS=
LIBRARYQUALITY=3
SPECTRUMID=CCMSLIB00000425734
SCANS=706
140.354 59.333 
141.135 100.0 
END IONS

BEGIN IONS
PEPMASS=131.13
CHARGE=1+
MSLEVEL=2
SOURCE_INSTRUMENT=Positive-Quattro_QQQ:10eV
FILENAME=hmdb_intermediate.mgf
SEQ=*..*
IONMODE=Positive
ORGANISM=HMDB
NAME=HMDB:HMDB60259-1577 Agmatine M+H
PI=HMDB
DATACOLLECTOR=HMDB
SMILES=NCCCCNC(N)=N
INCHI=InChI=1S/C5H14N4/c6-3-1-2-4-9-5(7)8/h1-4,6H2,(H4,7,8,9)
INCHIAUX=N/A
PUBMED=N/A
SUBMITUSER=mwang87
TAGS=
LIBRARYQUALITY=3
SPECTRUMID=CCMSLIB00000425735
SCANS=707
72.0 100.0 
131.0 55.346 
END IONS

BEGIN IONS
PEPMASS=483.992
CHARGE=1+
MSLEVEL=2
SOURCE_INSTRUMENT=Positive-Quattro_QQQ:25eV
FILENAME=hmdb_intermediate.mgf
SEQ=*..*
IONMODE=Positive
ORGANISM=HMDB
NAME=HMDB:HMDB00082-133 Cytidine triphosphate M+H
PI=HMDB
DATACOLLECTOR=HMDB
SMILES=NC1=NC(=O)N(C=C1)[C@@H]1O[C@H](COP(O)(=O)OP(O)(=O)OP(O)(O)=O)[C@@H](O)[C@H]1O
INCHI=InChI=1S/C9H16N3O14P3/c10-5-1-2-12(9(15)11-5)8-7(14)6(13)4(24-8)3-23-28(19,20)26-29(21,22)25-27(16,17)18/h1-2,4,6-8,13-14H,3H2,(H,19,20)(H,21,22)(H2,10,11,15)(H2,16,17,18)/t4-,6-,7-,8-/m1/s1
INCHIAUX=N/A
PUBMED=N/A
SUBMITUSER=mwang87
TAGS=
LIBRARYQUALITY=3
SPECTRUMID=CCMSLIB00000425736
SCANS=708
359.781 100.0 
END IONS

BEGIN IONS
PEPMASS=289.217
CHARGE=1+
MSLEVEL=2
SOURCE_INSTRUMENT=Positive-Quattro_QQQ:25eV
FILENAME=hmdb_intermediate.mgf
SEQ=*..*
IONMODE=Positive
ORGANISM=HMDB
NAME=HMDB:HMDB00899-1275 Androstanedione M+H
PI=HMDB
DATACOLLECTOR=HMDB
SMILES=[H][C@@]12CCC(=O)[C@@]1(C)CC[C@@]1([H])[C@@]2([H])CC[C@@]2([H])CC(=O)CC[C@]12C
INCHI=InChI=1S/C19H28O2/c1-18-9-7-13(20)11-12(18)3-4-14-15-5-6-17(21)19(15,2)10-8-16(14)18/h12,14-16H,3-11H2,1-2H3/t12-,14-,15-,16-,18-,19-/m0/s1
INCHIAUX=N/A
PUBMED=N/A
SUBMITUSER=mwang87
TAGS=
LIBRARYQUALITY=3
SPECTRUMID=CCMSLIB00000425737
SCANS=709
81.116 97.38 
93.1 54.585 
95.098 52.402 
97.066 100.0 
145.011 56.332 
159.026 50.218 
161.017 57.642 
171.035 72.489 
213.037 85.153 
END IONS

BEGIN IONS
PEPMASS=89.1079
CHARGE=1+
MSLEVEL=2
SOURCE_INSTRUMENT=Positive-Quattro_QQQ:10eV
FILENAME=hmdb_intermediate.mgf
SEQ=*..*
IONMODE=Positive
ORGANISM=HMDB
NAME=HMDB:HMDB01414-1568 Putrescine M+H
PI=HMDB
DATACOLLECTOR=HMDB
SMILES=NCCCCN
INCHI=InChI=1S/C4H12N2/c5-3-1-2-4-6/h1-6H2
INCHIAUX=N/A
PUBMED=N/A
SUBMITUSER=mwang87
TAGS=
LIBRARYQUALITY=3
SPECTRUMID=CCMSLIB00000425738
SCANS=710
72.141 100.0 
END IONS

BEGIN IONS
PEPMASS=151.112
CHARGE=1+
MSLEVEL=2
SOURCE_INSTRUMENT=Positive-Quattro_QQQ:40eV
FILENAME=hmdb_intermediate.mgf
SEQ=*..*
IONMODE=Positive
ORGANISM=HMDB
NAME=HMDB:HMDB04487-2396 (+)-(S)-Carvone M+H
PI=HMDB
DATACOLLECTOR=HMDB
SMILES=CC(=C)[C@H]1CC=C(C)C(=O)C1
INCHI=InChI=1S/C10H14O/c1-7(2)9-5-4-8(3)10(11)6-9/h4,9H,1,5-6H2,2-3H3/t9-/m0/s1
INCHIAUX=N/A
PUBMED=N/A
SUBMITUSER=mwang87
TAGS=
LIBRARYQUALITY=3
SPECTRUMID=CCMSLIB00000425739
SCANS=711
91.0 51.198 
94.0 100.0 
109.0 55.397 
END IONS

BEGIN IONS
PEPMASS=190.087
CHARGE=1+
MSLEVEL=2
SOURCE_INSTRUMENT=Positive-Quattro_QQQ:40eV
FILENAME=hmdb_intermediate.mgf
SEQ=*..*
IONMODE=Positive
ORGANISM=HMDB
NAME=HMDB:HMDB02302-2051 3-Indolepropionic acid M+H
PI=HMDB
DATACOLLECTOR=HMDB
SMILES=OC(=O)CCC1=CNC2=CC=CC=C12
INCHI=InChI=1S/C11H11NO2/c13-11(14)6-5-8-7-12-10-4-2-1-3-9(8)10/h1-4,7,12H,5-6H2,(H,13,14)
INCHIAUX=N/A
PUBMED=N/A
SUBMITUSER=mwang87
TAGS=
LIBRARYQUALITY=3
SPECTRUMID=CCMSLIB00000425740
SCANS=712
76.97 100.0 
129.87 97.258 
END IONS

BEGIN IONS
PEPMASS=397.347
CHARGE=1+
MSLEVEL=2
SOURCE_INSTRUMENT=Positive-Quattro_QQQ:10eV
FILENAME=hmdb_intermediate.mgf
SEQ=*..*
IONMODE=Positive
ORGANISM=HMDB
NAME=HMDB:HMDB00878-1238 Ergosterol M+H
PI=HMDB
DATACOLLECTOR=HMDB
SMILES=CC(C)[C@@H](C)\C=C\[C@@H](C)C1CCC2C3=CC=C4C[C@@H](O)CC[C@]4(C)C3CC[C@]12C
INCHI=InChI=1S/C28H44O/c1-18(2)19(3)7-8-20(4)24-11-12-25-23-10-9-21-17-22(29)13-15-27(21,5)26(23)14-16-28(24,25)6/h7-10,18-20,22,24-26,29H,11-17H2,1-6H3/b8-7+/t19-,20+,22-,24?,25?,26?,27-,28+/m0/s1
INCHIAUX=N/A
PUBMED=N/A
SUBMITUSER=mwang87
TAGS=
LIBRARYQUALITY=3
SPECTRUMID=CCMSLIB00000425741
SCANS=713
397.01 100.0 
397.861 71.338 
END IONS

BEGIN IONS
PEPMASS=442.147
CHARGE=1+
MSLEVEL=2
SOURCE_INSTRUMENT=Positive-Quattro_QQQ:10eV
FILENAME=hmdb_intermediate.mgf
SEQ=*..*
IONMODE=Positive
ORGANISM=HMDB
NAME=HMDB:HMDB00121-174 Folic acid M+H
PI=HMDB
DATACOLLECTOR=HMDB
SMILES=NC1=NC(=O)C2=NC(CNC3=CC=C(C=C3)C(=O)N[C@@H](CCC(O)=O)C(O)=O)=CN=C2N1
INCHI=InChI=1S/C19H19N7O6/c20-19-25-15-14(17(30)26-19)23-11(8-22-15)7-21-10-3-1-9(2-4-10)16(29)24-12(18(31)32)5-6-13(27)28/h1-4,8,12,21H,5-7H2,(H,24,29)(H,27,28)(H,31,32)(H3,20,22,25,26,30)/t12-/m0/s1
INCHIAUX=N/A
PUBMED=N/A
SUBMITUSER=mwang87
TAGS=
LIBRARYQUALITY=3
SPECTRUMID=CCMSLIB00000425742
SCANS=714
441.91 100.0 
END IONS

BEGIN IONS
PEPMASS=355.358
CHARGE=1+
MSLEVEL=2
SOURCE_INSTRUMENT=Positive-Quattro_QQQ:40eV
FILENAME=hmdb_intermediate.mgf
SEQ=*..*
IONMODE=Positive
ORGANISM=HMDB
NAME=HMDB:HMDB01160-1441 Tricosanoic acid M+H
PI=HMDB
DATACOLLECTOR=HMDB
SMILES=CCCCCCCCCCCCCCCCCCCCCCC(O)=O
INCHI=InChI=1S/C23H46O2/c1-2-3-4-5-6-7-8-9-10-11-12-13-14-15-16-17-18-19-20-21-22-23(24)25/h2-22H2,1H3,(H,24,25)
INCHIAUX=N/A
PUBMED=N/A
SUBMITUSER=mwang87
TAGS=
LIBRARYQUALITY=3
SPECTRUMID=CCMSLIB00000425743
SCANS=715
72.48 88.794 
84.11 77.962 
90.04 100.0 
112.98 62.409 
119.63 68.009 
130.16 62.409 
130.5 66.68 
142.83 71.755 
147.88 66.801 
182.22 69.358 
186.38 79.324 
206.15 68.169 
242.7 83.664 
250.34 65.443 
251.68 65.908 
253.13 80.964 
265.58 82.307 
267.1 80.377 
END IONS

BEGIN IONS
PEPMASS=260.054
CHARGE=1+
MSLEVEL=2
SOURCE_INSTRUMENT=Positive-Quattro_QQQ:40eV
FILENAME=hmdb_intermediate.mgf
SEQ=*..*
IONMODE=Positive
ORGANISM=HMDB
NAME=HMDB:HMDB01254-1486 Glucosamine 6-phosphate M+H
PI=HMDB
DATACOLLECTOR=HMDB
SMILES=N[C@H]1[C@@H](O)O[C@H](COP(O)(O)=O)[C@@H](O)[C@@H]1O
INCHI=InChI=1S/C6H14NO8P/c7-3-5(9)4(8)2(15-6(3)10)1-14-16(11,12)13/h2-6,8-10H,1,7H2,(H2,11,12,13)/t2-,3-,4-,5-,6+/m1/s1
INCHIAUX=N/A
PUBMED=N/A
SUBMITUSER=mwang87
TAGS=
LIBRARYQUALITY=3
SPECTRUMID=CCMSLIB00000425744
SCANS=716
80.0 100.0 
81.0 70.486 
84.0 96.939 
99.0 53.461 
END IONS

BEGIN IONS
PEPMASS=73.029
CHARGE=1+
MSLEVEL=2
SOURCE_INSTRUMENT=Positive-Quattro_QQQ:25eV
FILENAME=hmdb_intermediate.mgf
SEQ=*..*
IONMODE=Positive
ORGANISM=HMDB
NAME=HMDB:HMDB01167-1443 Pyruvaldehyde M+H
PI=HMDB
DATACOLLECTOR=HMDB
SMILES=CC(=O)C=O
INCHI=InChI=1S/C3H4O2/c1-3(5)2-4/h2H,1H3
INCHIAUX=N/A
PUBMED=N/A
SUBMITUSER=mwang87
TAGS=
LIBRARYQUALITY=3
SPECTRUMID=CCMSLIB00000425745
SCANS=717
43.0 70.842 
45.0 100.0 
73.0 57.254 
END IONS

BEGIN IONS
PEPMASS=173.06
CHARGE=1+
MSLEVEL=2
SOURCE_INSTRUMENT=Positive-Quattro_QQQ:40eV
FILENAME=hmdb_intermediate.mgf
SEQ=*..*
IONMODE=Positive
ORGANISM=HMDB
NAME=HMDB:HMDB01892-1803 Menadione M+H
PI=HMDB
DATACOLLECTOR=HMDB
SMILES=CC1=CC(=O)C2=CC=CC=C2C1=O
INCHI=InChI=1S/C11H8O2/c1-7-6-10(12)8-4-2-3-5-9(8)11(7)13/h2-6H,1H3
INCHIAUX=N/A
PUBMED=N/A
SUBMITUSER=mwang87
TAGS=
LIBRARYQUALITY=3
SPECTRUMID=CCMSLIB00000425746
SCANS=718
77.343 100.0 
77.594 71.556 
END IONS

BEGIN IONS
PEPMASS=91.0759
CHARGE=1+
MSLEVEL=2
SOURCE_INSTRUMENT=Positive-Quattro_QQQ:10eV
FILENAME=hmdb_intermediate.mgf
SEQ=*..*
IONMODE=Positive
ORGANISM=HMDB
NAME=HMDB:HMDB03156-2203 2,3-Butanediol M+H
PI=HMDB
DATACOLLECTOR=HMDB
SMILES=CC(O)C(C)O
INCHI=InChI=1S/C4H10O2/c1-3(5)4(2)6/h3-6H,1-2H3
INCHIAUX=N/A
PUBMED=N/A
SUBMITUSER=mwang87
TAGS=
LIBRARYQUALITY=3
SPECTRUMID=CCMSLIB00000425747
SCANS=719
90.0 100.0 
END IONS

BEGIN IONS
PEPMASS=158.082
CHARGE=1+
MSLEVEL=2
SOURCE_INSTRUMENT=Positive-Quattro_QQQ:25eV
FILENAME=hmdb_intermediate.mgf
SEQ=*..*
IONMODE=Positive
ORGANISM=HMDB
NAME=HMDB:HMDB00959-1364 Tiglylglycine M+H
PI=HMDB
DATACOLLECTOR=HMDB
SMILES=C\C=C(/C)C(=O)NCC(O)=O
INCHI=InChI=1S/C7H11NO3/c1-3-5(2)7(11)8-4-6(9)10/h3H,4H2,1-2H3,(H,8,11)(H,9,10)/b5-3+
INCHIAUX=N/A
PUBMED=N/A
SUBMITUSER=mwang87
TAGS=
LIBRARYQUALITY=3
SPECTRUMID=CCMSLIB00000425748
SCANS=720
78.0 76.009 
79.0 100.0 
END IONS

BEGIN IONS
PEPMASS=103.04
CHARGE=1+
MSLEVEL=2
SOURCE_INSTRUMENT=Positive-Quattro_QQQ:10eV
FILENAME=hmdb_intermediate.mgf
SEQ=*..*
IONMODE=Positive
ORGANISM=HMDB
NAME=HMDB:HMDB01259-1493 Succinic acid semialdehyde M+H
PI=HMDB
DATACOLLECTOR=HMDB
SMILES=OC(=O)CCC=O
INCHI=InChI=1S/C4H6O3/c5-3-1-2-4(6)7/h3H,1-2H2,(H,6,7)
INCHIAUX=N/A
PUBMED=N/A
SUBMITUSER=mwang87
TAGS=
LIBRARYQUALITY=3
SPECTRUMID=CCMSLIB00000425749
SCANS=721
85.0 100.0 
END IONS

BEGIN IONS
PEPMASS=99.0446
CHARGE=1+
MSLEVEL=2
SOURCE_INSTRUMENT=Negative-Quattro_QQQ:10eV
FILENAME=hmdb_intermediate.mgf
SEQ=*..*
IONMODE=Negative
ORGANISM=HMDB
NAME=HMDB:HMDB01470-1592 Tiglic acid M-H
PI=HMDB
DATACOLLECTOR=HMDB
SMILES=C\C=C(/C)C(O)=O
INCHI=InChI=1S/C5H8O2/c1-3-4(2)5(6)7/h3H,1-2H3,(H,6,7)/b4-3+
INCHIAUX=N/A
PUBMED=N/A
SUBMITUSER=mwang87
TAGS=
LIBRARYQUALITY=3
SPECTRUMID=CCMSLIB00000425750
SCANS=722
55.563 100.0 
99.29 90.09 
END IONS

BEGIN IONS
PEPMASS=289.18
CHARGE=1+
MSLEVEL=2
SOURCE_INSTRUMENT=Positive-Quattro_QQQ:10eV
FILENAME=hmdb_intermediate.mgf
SEQ=*..*
IONMODE=Positive
ORGANISM=HMDB
NAME=HMDB:HMDB00153-236 Estriol M+H
PI=HMDB
DATACOLLECTOR=HMDB
SMILES=[H][C@@]12C[C@@H](O)[C@H](O)[C@@]1(C)CC[C@]1([H])C3=C(CC[C@@]21[H])C=C(O)C=C3
INCHI=InChI=1S/C18H24O3/c1-18-7-6-13-12-5-3-11(19)8-10(12)2-4-14(13)15(18)9-16(20)17(18)21/h3,5,8,13-17,19-21H,2,4,6-7,9H2,1H3/t13-,14-,15+,16-,17+,18+/m1/s1
INCHIAUX=N/A
PUBMED=N/A
SUBMITUSER=mwang87
TAGS=
LIBRARYQUALITY=3
SPECTRUMID=CCMSLIB00000425751
SCANS=723
107.199 100.0 
END IONS

BEGIN IONS
PEPMASS=130.05
CHARGE=1+
MSLEVEL=2
SOURCE_INSTRUMENT=Positive-Quattro_QQQ:10eV
FILENAME=hmdb_intermediate.mgf
SEQ=*..*
IONMODE=Positive
ORGANISM=HMDB
NAME=HMDB:HMDB01369-1537 Pyrroline hydroxycarboxylic acid M+H
PI=HMDB
DATACOLLECTOR=HMDB
SMILES=OC1CC(N=C1)C(O)=O
INCHI=InChI=1S/C5H7NO3/c7-3-1-4(5(8)9)6-2-3/h2-4,7H,1H2,(H,8,9)
INCHIAUX=N/A
PUBMED=N/A
SUBMITUSER=mwang87
TAGS=
LIBRARYQUALITY=3
SPECTRUMID=CCMSLIB00000425752
SCANS=724
84.334 100.0 
130.194 66.667 
END IONS

BEGIN IONS
PEPMASS=786.601
CHARGE=1+
MSLEVEL=2
SOURCE_INSTRUMENT=Positive-Quattro_QQQ:40eV
FILENAME=hmdb_intermediate.mgf
SEQ=*..*
IONMODE=Positive
ORGANISM=HMDB
NAME=HMDB:HMDB00593-821 PC(18:1(9Z)/18:1(9Z))  M+H
PI=HMDB
DATACOLLECTOR=HMDB
SMILES=CCCCCCCC\C=C/CCCCCCCC(=O)OCC(COP([O-])(=O)OCC[N+](C)(C)C)OC(=O)CCCCCCC\C=C/CCCCCCCC
INCHI=InChI=1S/C44H84NO8P/c1-6-8-10-12-14-16-18-20-22-24-26-28-30-32-34-36-43(46)50-40-42(41-52-54(48,49)51-39-38-45(3,4)5)53-44(47)37-35-33-31-29-27-25-23-21-19-17-15-13-11-9-7-2/h20-23,42H,6-19,24-41H2,1-5H3/b22-20-,23-21-
INCHIAUX=N/A
PUBMED=N/A
SUBMITUSER=mwang87
TAGS=
LIBRARYQUALITY=3
SPECTRUMID=CCMSLIB00000425753
SCANS=725
183.0 100.0 
184.0 51.213 
END IONS

BEGIN IONS
PEPMASS=157.061
CHARGE=1+
MSLEVEL=2
SOURCE_INSTRUMENT=Positive-Quattro_QQQ:25eV
FILENAME=hmdb_intermediate.mgf
SEQ=*..*
IONMODE=Positive
ORGANISM=HMDB
NAME=HMDB:HMDB00544-765 5-Hydroxymethyl-4-methyluracil M+H
PI=HMDB
DATACOLLECTOR=HMDB
SMILES=CC1=C(CO)C(=O)NC(=O)N1
INCHI=InChI=1S/C6H8N2O3/c1-3-4(2-9)5(10)8-6(11)7-3/h9H,2H2,1H3,(H2,7,8,10,11)
INCHIAUX=N/A
PUBMED=N/A
SUBMITUSER=mwang87
TAGS=
LIBRARYQUALITY=3
SPECTRUMID=CCMSLIB00000425754
SCANS=726
42.342 86.184 
55.216 87.5 
96.056 100.0 
END IONS

BEGIN IONS
PEPMASS=238.094
CHARGE=1+
MSLEVEL=2
SOURCE_INSTRUMENT=Positive-Quattro_QQQ:10eV
FILENAME=hmdb_intermediate.mgf
SEQ=*..*
IONMODE=Positive
ORGANISM=HMDB
NAME=HMDB:HMDB00238-400 Sepiapterin M+H
PI=HMDB
DATACOLLECTOR=HMDB
SMILES=C[C@H](O)C(=O)C1=NC2=C(NC1)NC(N)=NC2=O
INCHI=InChI=1S/C9H11N5O3/c1-3(15)6(16)4-2-11-7-5(12-4)8(17)14-9(10)13-7/h3,15H,2H2,1H3,(H4,10,11,13,14,17)/t3-/m0/s1
INCHIAUX=N/A
PUBMED=N/A
SUBMITUSER=mwang87
TAGS=
LIBRARYQUALITY=3
SPECTRUMID=CCMSLIB00000425755
SCANS=727
191.269 57.491 
192.134 100.0 
192.505 67.942 
219.825 85.518 
238.121 69.984 
END IONS

BEGIN IONS
PEPMASS=131.071
CHARGE=1+
MSLEVEL=2
SOURCE_INSTRUMENT=Negative-Quattro_QQQ:25eV
FILENAME=hmdb_intermediate.mgf
SEQ=*..*
IONMODE=Negative
ORGANISM=HMDB
NAME=HMDB:HMDB01624-1664 2-Hydroxycaproic acid M-H
PI=HMDB
DATACOLLECTOR=HMDB
SMILES=CCCCC(O)C(O)=O
INCHI=InChI=1S/C6H12O3/c1-2-3-4-5(7)6(8)9/h5,7H,2-4H2,1H3,(H,8,9)
INCHIAUX=N/A
PUBMED=N/A
SUBMITUSER=mwang87
TAGS=
LIBRARYQUALITY=3
SPECTRUMID=CCMSLIB00000425756
SCANS=728
45.583 100.0 
85.363 98.63 
END IONS

BEGIN IONS
PEPMASS=109.065
CHARGE=1+
MSLEVEL=2
SOURCE_INSTRUMENT=Positive-Quattro_QQQ:25eV
FILENAME=hmdb_intermediate.mgf
SEQ=*..*
IONMODE=Positive
ORGANISM=HMDB
NAME=HMDB:HMDB02055-1972 o-Cresol M+H
PI=HMDB
DATACOLLECTOR=HMDB
SMILES=CC1=CC=CC=C1O
INCHI=InChI=1S/C7H8O/c1-6-4-2-3-5-7(6)8/h2-5,8H,1H3
INCHIAUX=N/A
PUBMED=N/A
SUBMITUSER=mwang87
TAGS=
LIBRARYQUALITY=3
SPECTRUMID=CCMSLIB00000425757
SCANS=729
65.0 53.127 
93.0 100.0 
END IONS

BEGIN IONS
PEPMASS=155.144
CHARGE=1+
MSLEVEL=2
SOURCE_INSTRUMENT=Positive-Quattro_QQQ:25eV
FILENAME=hmdb_intermediate.mgf
SEQ=*..*
IONMODE=Positive
ORGANISM=HMDB
NAME=HMDB:HMDB04472-2392 Eucalyptol M+H
PI=HMDB
DATACOLLECTOR=HMDB
SMILES=CC12CCC(CC1)C(C)(C)O2
INCHI=InChI=1S/C10H18O/c1-9(2)8-4-6-10(3,11-9)7-5-8/h8H,4-7H2,1-3H3
INCHIAUX=N/A
PUBMED=N/A
SUBMITUSER=mwang87
TAGS=
LIBRARYQUALITY=3
SPECTRUMID=CCMSLIB00000425758
SCANS=730
81.0 100.0 
END IONS

BEGIN IONS
PEPMASS=465.304
CHARGE=1+
MSLEVEL=2
SOURCE_INSTRUMENT=Negative-Quattro_QQQ:10eV
FILENAME=hmdb_intermediate.mgf
SEQ=*..*
IONMODE=Negative
ORGANISM=HMDB
NAME=HMDB:HMDB00653-891 Cholesterol sulfate M-H
PI=HMDB
DATACOLLECTOR=HMDB
SMILES=[H][C@@]12CC[C@H]([C@H](C)CCCC(C)C)[C@@]1(C)CC[C@@]1([H])[C@@]2([H])CC=C2C[C@H](CC[C@]12C)OS(O)(=O)=O
INCHI=InChI=1S/C27H46O4S/c1-18(2)7-6-8-19(3)23-11-12-24-22-10-9-20-17-21(31-32(28,29)30)13-15-26(20,4)25(22)14-16-27(23,24)5/h9,18-19,21-25H,6-8,10-17H2,1-5H3,(H,28,29,30)/t19-,21+,22+,23-,24+,25+,26+,27-/m1/s1
INCHIAUX=N/A
PUBMED=N/A
SUBMITUSER=mwang87
TAGS=
LIBRARYQUALITY=3
SPECTRUMID=CCMSLIB00000425759
SCANS=731
465.48 96.9263704402 
465.72 100.0 
END IONS

BEGIN IONS
PEPMASS=373.159
CHARGE=1+
MSLEVEL=2
SOURCE_INSTRUMENT=Positive-Quattro_QQQ:40eV
FILENAME=hmdb_intermediate.mgf
SEQ=*..*
IONMODE=Positive
ORGANISM=HMDB
NAME=HMDB:HMDB02873-2151 Deacetyldiltiazem M+H
PI=HMDB
DATACOLLECTOR=HMDB
SMILES=COC1=CC=C(C=C1)[C@@H]1SC2=CC=CC=C2N(CCN(C)C)C(=O)[C@@H]1O
INCHI=InChI=1S/C20H24N2O3S/c1-21(2)12-13-22-16-6-4-5-7-17(16)26-19(18(23)20(22)24)14-8-10-15(25-3)11-9-14/h4-11,18-19,23H,12-13H2,1-3H3/t18-,19+/m1/s1
INCHIAUX=N/A
PUBMED=N/A
SUBMITUSER=mwang87
TAGS=
LIBRARYQUALITY=3
SPECTRUMID=CCMSLIB00000425760
SCANS=732
108.0 51.217 
149.0 100.0 
150.0 59.904 
177.0 91.499 
178.0 55.378 
END IONS

BEGIN IONS
PEPMASS=275.092
CHARGE=1+
MSLEVEL=2
SOURCE_INSTRUMENT=Positive-Quattro_QQQ:40eV
FILENAME=hmdb_intermediate.mgf
SEQ=*..*
IONMODE=Positive
ORGANISM=HMDB
NAME=HMDB:HMDB03306-2235 Phloretin M+H
PI=HMDB
DATACOLLECTOR=HMDB
SMILES=OC1=CC=C(CCC(=O)C2=C(O)C=C(O)C=C2O)C=C1
INCHI=InChI=1S/C15H14O5/c16-10-4-1-9(2-5-10)3-6-12(18)15-13(19)7-11(17)8-14(15)20/h1-2,4-5,7-8,16-17,19-20H,3,6H2
INCHIAUX=N/A
PUBMED=N/A
SUBMITUSER=mwang87
TAGS=
LIBRARYQUALITY=3
SPECTRUMID=CCMSLIB00000425761
SCANS=733
90.0 100.0 
127.0 53.496 
151.0 87.365 
152.0 79.517 
END IONS

BEGIN IONS
PEPMASS=271.061
CHARGE=1+
MSLEVEL=2
SOURCE_INSTRUMENT=Negative-Quattro_QQQ:25eV
FILENAME=hmdb_intermediate.mgf
SEQ=*..*
IONMODE=Negative
ORGANISM=HMDB
NAME=HMDB:HMDB02670-2123 Naringenin M-H
PI=HMDB
DATACOLLECTOR=HMDB
SMILES=OC1=CC=C(C=C1)[C@@H]1CC(=O)C2=C(O)C=C(O)C=C2O1
INCHI=InChI=1S/C15H12O5/c16-9-3-1-8(2-4-9)13-7-12(19)15-11(18)5-10(17)6-14(15)20-13/h1-6,13,16-18H,7H2/t13-/m0/s1
INCHIAUX=N/A
PUBMED=N/A
SUBMITUSER=mwang87
TAGS=
LIBRARYQUALITY=3
SPECTRUMID=CCMSLIB00000425762
SCANS=734
106.0 61.733 
118.0 100.0 
119.0 69.739 
150.0 56.049 
END IONS

BEGIN IONS
PEPMASS=238.094
CHARGE=1+
MSLEVEL=2
SOURCE_INSTRUMENT=Positive-Quattro_QQQ:25eV
FILENAME=hmdb_intermediate.mgf
SEQ=*..*
IONMODE=Positive
ORGANISM=HMDB
NAME=HMDB:HMDB00238-401 Sepiapterin M+H
PI=HMDB
DATACOLLECTOR=HMDB
SMILES=C[C@H](O)C(=O)C1=NC2=C(NC1)NC(N)=NC2=O
INCHI=InChI=1S/C9H11N5O3/c1-3(15)6(16)4-2-11-7-5(12-4)8(17)14-9(10)13-7/h3,15H,2H2,1H3,(H4,10,11,13,14,17)/t3-/m0/s1
INCHIAUX=N/A
PUBMED=N/A
SUBMITUSER=mwang87
TAGS=
LIBRARYQUALITY=3
SPECTRUMID=CCMSLIB00000425763
SCANS=735
69.401 65.601 
149.242 66.854 
165.681 60.159 
175.076 66.439 
191.516 100.0 
END IONS

BEGIN IONS
PEPMASS=87.0446
CHARGE=1+
MSLEVEL=2
SOURCE_INSTRUMENT=Positive-Quattro_QQQ:10eV
FILENAME=hmdb_intermediate.mgf
SEQ=*..*
IONMODE=Positive
ORGANISM=HMDB
NAME=HMDB:HMDB03407-2286 Diacetyl M+H
PI=HMDB
DATACOLLECTOR=HMDB
SMILES=CC(=O)C(C)=O
INCHI=InChI=1S/C4H6O2/c1-3(5)4(2)6/h1-2H3
INCHIAUX=N/A
PUBMED=N/A
SUBMITUSER=mwang87
TAGS=
LIBRARYQUALITY=3
SPECTRUMID=CCMSLIB00000425764
SCANS=736
87.0 100.0 
END IONS

BEGIN IONS
PEPMASS=101.024
CHARGE=1+
MSLEVEL=2
SOURCE_INSTRUMENT=Negative-Quattro_QQQ:40eV
FILENAME=hmdb_intermediate.mgf
SEQ=*..*
IONMODE=Negative
ORGANISM=HMDB
NAME=HMDB:HMDB00005-9 2-Ketobutyric acid M-H
PI=HMDB
DATACOLLECTOR=HMDB
SMILES=CCC(=O)C(O)=O
INCHI=InChI=1S/C4H6O3/c1-2-3(5)4(6)7/h2H2,1H3,(H,6,7)
INCHIAUX=N/A
PUBMED=N/A
SUBMITUSER=mwang87
TAGS=
LIBRARYQUALITY=3
SPECTRUMID=CCMSLIB00000425765
SCANS=737
101.26 100.0 
END IONS

BEGIN IONS
PEPMASS=178.087
CHARGE=1+
MSLEVEL=2
SOURCE_INSTRUMENT=Positive-Quattro_QQQ:40eV
FILENAME=hmdb_intermediate.mgf
SEQ=*..*
IONMODE=Positive
ORGANISM=HMDB
NAME=HMDB:HMDB01855-1722 5-Hydroxytryptophol M+H
PI=HMDB
DATACOLLECTOR=HMDB
SMILES=OCCC1=CNC2=CC=C(O)C=C12
INCHI=InChI=1S/C10H11NO2/c12-4-3-7-6-11-10-2-1-8(13)5-9(7)10/h1-2,5-6,11-13H,3-4H2
INCHIAUX=N/A
PUBMED=N/A
SUBMITUSER=mwang87
TAGS=
LIBRARYQUALITY=3
SPECTRUMID=CCMSLIB00000425766
SCANS=738
115.08 88.761469429 
117.06 62.6218549572 
159.12 52.5707590484 
160.14 100.0 
END IONS

BEGIN IONS
PEPMASS=121.065
CHARGE=1+
MSLEVEL=2
SOURCE_INSTRUMENT=Positive-Quattro_QQQ:40eV
FILENAME=hmdb_intermediate.mgf
SEQ=*..*
IONMODE=Positive
ORGANISM=HMDB
NAME=HMDB:HMDB06236-2480 Phenylacetaldehyde M+H
PI=HMDB
DATACOLLECTOR=HMDB
SMILES=O=CCC1=CC=CC=C1
INCHI=InChI=1S/C8H8O/c9-7-6-8-4-2-1-3-5-8/h1-5,7H,6H2
INCHIAUX=N/A
PUBMED=N/A
SUBMITUSER=mwang87
TAGS=
LIBRARYQUALITY=3
SPECTRUMID=CCMSLIB00000425767
SCANS=739
51.0 70.02 
77.0 100.0 
END IONS

BEGIN IONS
PEPMASS=78.0377
CHARGE=1+
MSLEVEL=2
SOURCE_INSTRUMENT=Positive-Quattro_QQQ:40eV
FILENAME=hmdb_intermediate.mgf
SEQ=*..*
IONMODE=Positive
ORGANISM=HMDB
NAME=HMDB:HMDB60150-2178 Cysteamine M+H
PI=HMDB
DATACOLLECTOR=HMDB
SMILES=NCCS
INCHI=InChI=1S/C2H7NS/c3-1-2-4/h4H,1-3H2
INCHIAUX=N/A
PUBMED=N/A
SUBMITUSER=mwang87
TAGS=
LIBRARYQUALITY=3
SPECTRUMID=CCMSLIB00000425768
SCANS=740
27.0 100.0 
35.0 54.918 
61.0 71.955 
END IONS

BEGIN IONS
PEPMASS=181.071
CHARGE=1+
MSLEVEL=2
SOURCE_INSTRUMENT=Positive-Quattro_QQQ:10eV
FILENAME=hmdb_intermediate.mgf
SEQ=*..*
IONMODE=Positive
ORGANISM=HMDB
NAME=HMDB:HMDB00169-269 D-Mannose M+H
PI=HMDB
DATACOLLECTOR=HMDB
SMILES=OC[C@H]1OC(O)[C@@H](O)[C@@H](O)[C@@H]1O
INCHI=InChI=1S/C6H12O6/c7-1-2-3(8)4(9)5(10)6(11)12-2/h2-11H,1H2/t2-,3-,4+,5+,6?/m1/s1
INCHIAUX=N/A
PUBMED=N/A
SUBMITUSER=mwang87
TAGS=
LIBRARYQUALITY=3
SPECTRUMID=CCMSLIB00000425769
SCANS=741
85.098 100.0 
144.976 76.37 
162.982 64.041 
END IONS

BEGIN IONS
PEPMASS=201.185
CHARGE=1+
MSLEVEL=2
SOURCE_INSTRUMENT=Positive-Quattro_QQQ:40eV
FILENAME=hmdb_intermediate.mgf
SEQ=*..*
IONMODE=Positive
ORGANISM=HMDB
NAME=HMDB:HMDB00638-872 Dodecanoic acid M+H
PI=HMDB
DATACOLLECTOR=HMDB
SMILES=CCCCCCCCCCCC(O)=O
INCHI=InChI=1S/C12H24O2/c1-2-3-4-5-6-7-8-9-10-11-12(13)14/h2-11H2,1H3,(H,13,14)
INCHIAUX=N/A
PUBMED=N/A
SUBMITUSER=mwang87
TAGS=
LIBRARYQUALITY=3
SPECTRUMID=CCMSLIB00000425770
SCANS=742
41.0 88.908 
42.0 50.681 
43.0 92.964 
44.0 58.727 
55.0 100.0 
128.0 56.502 
END IONS

BEGIN IONS
PEPMASS=73.0653
CHARGE=1+
MSLEVEL=2
SOURCE_INSTRUMENT=Positive-Quattro_QQQ:25eV
FILENAME=hmdb_intermediate.mgf
SEQ=*..*
IONMODE=Positive
ORGANISM=HMDB
NAME=HMDB:HMDB00474-693 Butanone M+H
PI=HMDB
DATACOLLECTOR=HMDB
SMILES=CCC(C)=O
INCHI=InChI=1S/C4H8O/c1-3-4(2)5/h3H2,1-2H3
INCHIAUX=N/A
PUBMED=N/A
SUBMITUSER=mwang87
TAGS=
LIBRARYQUALITY=3
SPECTRUMID=CCMSLIB00000425771
SCANS=743
43.0 58.463 
73.0 100.0 
END IONS

BEGIN IONS
PEPMASS=33.034
CHARGE=1+
MSLEVEL=2
SOURCE_INSTRUMENT=Positive-Quattro_QQQ:40eV
FILENAME=hmdb_intermediate.mgf
SEQ=*..*
IONMODE=Positive
ORGANISM=HMDB
NAME=HMDB:HMDB01875-1770 Methanol M+H
PI=HMDB
DATACOLLECTOR=HMDB
SMILES=CO
INCHI=InChI=1S/CH4O/c1-2/h2H,1H3
INCHIAUX=N/A
PUBMED=N/A
SUBMITUSER=mwang87
TAGS=
LIBRARYQUALITY=3
SPECTRUMID=CCMSLIB00000425772
SCANS=744
19.852 100.0 
END IONS

BEGIN IONS
PEPMASS=143.107
CHARGE=1+
MSLEVEL=2
SOURCE_INSTRUMENT=Negative-Quattro_QQQ:40eV
FILENAME=hmdb_intermediate.mgf
SEQ=*..*
IONMODE=Negative
ORGANISM=HMDB
NAME=HMDB:HMDB00482-700 Caprylic acid M-H
PI=HMDB
DATACOLLECTOR=HMDB
SMILES=CCCCCCCC(O)=O
INCHI=InChI=1S/C8H16O2/c1-2-3-4-5-6-7-8(9)10/h2-7H2,1H3,(H,9,10)
INCHIAUX=N/A
PUBMED=N/A
SUBMITUSER=mwang87
TAGS=
LIBRARYQUALITY=3
SPECTRUMID=CCMSLIB00000425773
SCANS=745
58.48 67.669 
143.286 100.0 
END IONS

BEGIN IONS
PEPMASS=295.129
CHARGE=1+
MSLEVEL=2
SOURCE_INSTRUMENT=Positive-Quattro_QQQ:10eV
FILENAME=hmdb_intermediate.mgf
SEQ=*..*
IONMODE=Positive
ORGANISM=HMDB
NAME=HMDB:HMDB01894-1807 Aspartame M+H
PI=HMDB
DATACOLLECTOR=HMDB
SMILES=COC(=O)[C@H](CC1=CC=CC=C1)NC(=O)[C@@H](N)CC(O)=O
INCHI=InChI=1S/C14H18N2O5/c1-21-14(20)11(7-9-5-3-2-4-6-9)16-13(19)10(15)8-12(17)18/h2-6,10-11H,7-8,15H2,1H3,(H,16,19)(H,17,18)/t10-,11-/m0/s1
INCHIAUX=N/A
PUBMED=N/A
SUBMITUSER=mwang87
TAGS=
LIBRARYQUALITY=3
SPECTRUMID=CCMSLIB00000425774
SCANS=746
168.511 52.972 
177.571 77.021 
207.486 51.368 
233.305 100.0 
235.54 87.173 
237.029 65.532 
248.078 59.92 
295.378 61.791 
END IONS

BEGIN IONS
PEPMASS=109.065
CHARGE=1+
MSLEVEL=2
SOURCE_INSTRUMENT=Positive-Quattro_QQQ:40eV
FILENAME=hmdb_intermediate.mgf
SEQ=*..*
IONMODE=Positive
ORGANISM=HMDB
NAME=HMDB:HMDB02055-1973 o-Cresol M+H
PI=HMDB
DATACOLLECTOR=HMDB
SMILES=CC1=CC=CC=C1O
INCHI=InChI=1S/C7H8O/c1-6-4-2-3-5-7(6)8/h2-5,8H,1H3
INCHIAUX=N/A
PUBMED=N/A
SUBMITUSER=mwang87
TAGS=
LIBRARYQUALITY=3
SPECTRUMID=CCMSLIB00000425775
SCANS=747
39.0 53.565 
64.0 100.0 
65.0 52.504 
END IONS

BEGIN IONS
PEPMASS=60.0562
CHARGE=1+
MSLEVEL=2
SOURCE_INSTRUMENT=Positive-Quattro_QQQ:10eV
FILENAME=hmdb_intermediate.mgf
SEQ=*..*
IONMODE=Positive
ORGANISM=HMDB
NAME=HMDB:HMDB01842-1690 Guanidine M+H
PI=HMDB
DATACOLLECTOR=HMDB
SMILES=NC(N)=N
INCHI=InChI=1S/CH5N3/c2-1(3)4/h(H5,2,3,4)
INCHIAUX=N/A
PUBMED=N/A
SUBMITUSER=mwang87
TAGS=
LIBRARYQUALITY=3
SPECTRUMID=CCMSLIB00000425776
SCANS=748
60.0 100.0 
END IONS

BEGIN IONS
PEPMASS=269.089
CHARGE=1+
MSLEVEL=2
SOURCE_INSTRUMENT=Positive-Quattro_QQQ:25eV
FILENAME=hmdb_intermediate.mgf
SEQ=*..*
IONMODE=Positive
ORGANISM=HMDB
NAME=HMDB:HMDB00195-317 Inosine M+H
PI=HMDB
DATACOLLECTOR=HMDB
SMILES=OC[C@H]1O[C@H]([C@H](O)[C@@H]1O)N1C=NC2=C1N=CNC2=O
INCHI=InChI=1S/C10H12N4O5/c15-1-4-6(16)7(17)10(19-4)14-3-13-5-8(14)11-2-12-9(5)18/h2-4,6-7,10,15-17H,1H2,(H,11,12,18)/t4-,6-,7-,10-/m1/s1
INCHIAUX=N/A
PUBMED=N/A
SUBMITUSER=mwang87
TAGS=
LIBRARYQUALITY=3
SPECTRUMID=CCMSLIB00000425777
SCANS=749
136.987 100.0 
END IONS

BEGIN IONS
PEPMASS=197.067
CHARGE=1+
MSLEVEL=2
SOURCE_INSTRUMENT=Positive-Quattro_QQQ:25eV
FILENAME=hmdb_intermediate.mgf
SEQ=*..*
IONMODE=Positive
ORGANISM=HMDB
NAME=HMDB:HMDB01982-1924 3,7-Dimethyluric acid M+H
PI=HMDB
DATACOLLECTOR=HMDB
SMILES=CN1C(=O)NC2=C1C(=O)NC(=O)N2C
INCHI=InChI=1S/C7H8N4O3/c1-10-3-4(8-6(10)13)11(2)7(14)9-5(3)12/h1-2H3,(H,8,13)(H,9,12,14)
INCHIAUX=N/A
PUBMED=N/A
SUBMITUSER=mwang87
TAGS=
LIBRARYQUALITY=3
SPECTRUMID=CCMSLIB00000425778
SCANS=750
42.0 80.19 
69.0 56.654 
83.0 100.0 
182.0 50.022 
197.0 51.153 
END IONS

BEGIN IONS
PEPMASS=161.045
CHARGE=1+
MSLEVEL=2
SOURCE_INSTRUMENT=Positive-Quattro_QQQ:25eV
FILENAME=hmdb_intermediate.mgf
SEQ=*..*
IONMODE=Positive
ORGANISM=HMDB
NAME=HMDB:HMDB00398-607 3-Oxoadipic acid M+H
PI=HMDB
DATACOLLECTOR=HMDB
SMILES=OC(=O)CCC(=O)CC(O)=O
INCHI=InChI=1S/C6H8O5/c7-4(3-6(10)11)1-2-5(8)9/h1-3H2,(H,8,9)(H,10,11)
INCHIAUX=N/A
PUBMED=N/A
SUBMITUSER=mwang87
TAGS=
LIBRARYQUALITY=3
SPECTRUMID=CCMSLIB00000425779
SCANS=751
142.48 63.021 
160.13 90.517 
160.77 100.0 
END IONS

BEGIN IONS
PEPMASS=176.071
CHARGE=1+
MSLEVEL=2
SOURCE_INSTRUMENT=Positive-Quattro_QQQ:10eV
FILENAME=hmdb_intermediate.mgf
SEQ=*..*
IONMODE=Positive
ORGANISM=HMDB
NAME=HMDB:HMDB00197-319 Indoleacetic acid M+H
PI=HMDB
DATACOLLECTOR=HMDB
SMILES=OC(=O)CC1=CNC2=C1C=CC=C2
INCHI=InChI=1S/C10H9NO2/c12-10(13)5-7-6-11-9-4-2-1-3-8(7)9/h1-4,6,11H,5H2,(H,12,13)
INCHIAUX=N/A
PUBMED=N/A
SUBMITUSER=mwang87
TAGS=
LIBRARYQUALITY=3
SPECTRUMID=CCMSLIB00000425780
SCANS=752
129.923 100.0 
END IONS

BEGIN IONS
PEPMASS=219.123
CHARGE=1+
MSLEVEL=2
SOURCE_INSTRUMENT=Positive-Quattro_QQQ:40eV
FILENAME=hmdb_intermediate.mgf
SEQ=*..*
IONMODE=Positive
ORGANISM=HMDB
NAME=HMDB:HMDB00350-563 3-Hydroxysebacic acid M+H
PI=HMDB
DATACOLLECTOR=HMDB
SMILES=OC(CCCCCCC(O)=O)CC(O)=O
INCHI=InChI=1S/C10H18O5/c11-8(7-10(14)15)5-3-1-2-4-6-9(12)13/h8,11H,1-7H2,(H,12,13)(H,14,15)
INCHIAUX=N/A
PUBMED=N/A
SUBMITUSER=mwang87
TAGS=
LIBRARYQUALITY=3
SPECTRUMID=CCMSLIB00000425781
SCANS=753
67.0 91.954 
91.0 100.0 
END IONS

BEGIN IONS
PEPMASS=169.05
CHARGE=1+
MSLEVEL=2
SOURCE_INSTRUMENT=Positive-Quattro_QQQ:10eV
FILENAME=hmdb_intermediate.mgf
SEQ=*..*
IONMODE=Positive
ORGANISM=HMDB
NAME=HMDB:HMDB01868-1753 5-Methoxysalicylic acid M+H
PI=HMDB
DATACOLLECTOR=HMDB
SMILES=COC1=CC(C(O)=O)=C(O)C=C1
INCHI=InChI=1S/C8H8O4/c1-12-5-2-3-7(9)6(4-5)8(10)11/h2-4,9H,1H3,(H,10,11)
INCHIAUX=N/A
PUBMED=N/A
SUBMITUSER=mwang87
TAGS=
LIBRARYQUALITY=3
SPECTRUMID=CCMSLIB00000425782
SCANS=754
111.62 53.357 
127.911 53.004 
168.641 100.0 
169.518 82.058 
END IONS

BEGIN IONS
PEPMASS=100.022
CHARGE=1+
MSLEVEL=2
SOURCE_INSTRUMENT=Positive-Quattro_QQQ:25eV
FILENAME=hmdb_intermediate.mgf
SEQ=*..*
IONMODE=Positive
ORGANISM=HMDB
NAME=HMDB:HMDB05843-2461 Allyl isothiocyanate M+H
PI=HMDB
DATACOLLECTOR=HMDB
SMILES=C=CCN=C=S
INCHI=InChI=1S/C4H5NS/c1-2-3-5-4-6/h2H,1,3H2
INCHIAUX=N/A
PUBMED=N/A
SUBMITUSER=mwang87
TAGS=
LIBRARYQUALITY=3
SPECTRUMID=CCMSLIB00000425783
SCANS=755
41.28 100.0 
66.92 88.253 
72.8 50.288 
END IONS

BEGIN IONS
PEPMASS=191.019
CHARGE=1+
MSLEVEL=2
SOURCE_INSTRUMENT=Negative-Quattro_QQQ:40eV
FILENAME=hmdb_intermediate.mgf
SEQ=*..*
IONMODE=Negative
ORGANISM=HMDB
NAME=HMDB:HMDB01874-1767 D-threo-Isocitric acid M-H
PI=HMDB
DATACOLLECTOR=HMDB
SMILES=O[C@H]([C@H](CC(O)=O)C(O)=O)C(O)=O
INCHI=InChI=1S/C6H8O7/c7-3(8)1-2(5(10)11)4(9)6(12)13/h2,4,9H,1H2,(H,7,8)(H,10,11)(H,12,13)/t2-,4+/m0/s1
INCHIAUX=N/A
PUBMED=N/A
SUBMITUSER=mwang87
TAGS=
LIBRARYQUALITY=3
SPECTRUMID=CCMSLIB00000425784
SCANS=756
65.433 100.0 
65.682 55.555 
END IONS

BEGIN IONS
PEPMASS=154.05
CHARGE=1+
MSLEVEL=2
SOURCE_INSTRUMENT=Positive-Quattro_QQQ:25eV
FILENAME=hmdb_intermediate.mgf
SEQ=*..*
IONMODE=Positive
ORGANISM=HMDB
NAME=HMDB:HMDB01972-1915 3-Aminosalicylic acid M+H
PI=HMDB
DATACOLLECTOR=HMDB
SMILES=NC1=CC=CC(C(O)=O)=C1O
INCHI=InChI=1S/C7H7NO3/c8-5-3-1-2-4(6(5)9)7(10)11/h1-3,9H,8H2,(H,10,11)
INCHIAUX=N/A
PUBMED=N/A
SUBMITUSER=mwang87
TAGS=
LIBRARYQUALITY=3
SPECTRUMID=CCMSLIB00000425785
SCANS=757
80.0 100.0 
90.0 50.245 
108.0 65.052 
END IONS

BEGIN IONS
PEPMASS=651.608
CHARGE=1+
MSLEVEL=2
SOURCE_INSTRUMENT=Positive-Quattro_QQQ:40eV
FILENAME=hmdb_intermediate.mgf
SEQ=*..*
IONMODE=Positive
ORGANISM=HMDB
NAME=HMDB:HMDB00918-1305 CE(18:1(9Z)) M+H
PI=HMDB
DATACOLLECTOR=HMDB
SMILES=CCCCCCCC\C=C/CCCCCCCC(=O)O[C@H]1CC[C@@]2(C)C(=CC[C@@]3([H])[C@]4([H])CC[C@]([H])([C@H](C)CCCC(C)C)[C@@]4(C)CC[C@]23[H])C1
INCHI=InChI=1S/C45H78O2/c1-7-8-9-10-11-12-13-14-15-16-17-18-19-20-21-25-43(46)47-38-30-32-44(5)37(34-38)26-27-39-41-29-28-40(36(4)24-22-23-35(2)3)45(41,6)33-31-42(39)44/h14-15,26,35-36,38-42H,7-13,16-25,27-34H2,1-6H3/b15-14-/t36-,38+,39+,40-,41+,42+,44+,45-/m1/s1
INCHIAUX=N/A
PUBMED=N/A
SUBMITUSER=mwang87
TAGS=
LIBRARYQUALITY=3
SPECTRUMID=CCMSLIB00000425786
SCANS=758
175.0 95.961 
440.0 100.0 
586.0 96.667 
END IONS

BEGIN IONS
PEPMASS=163.061
CHARGE=1+
MSLEVEL=2
SOURCE_INSTRUMENT=Positive-Quattro_QQQ:40eV
FILENAME=hmdb_intermediate.mgf
SEQ=*..*
IONMODE=Positive
ORGANISM=HMDB
NAME=HMDB:HMDB00355-569 3-Hydroxymethylglutaric acid M+H
PI=HMDB
DATACOLLECTOR=HMDB
SMILES=CC(O)(CC(O)=O)CC(O)=O
INCHI=InChI=1S/C6H10O5/c1-6(11,2-4(7)8)3-5(9)10/h11H,2-3H2,1H3,(H,7,8)(H,9,10)
INCHIAUX=N/A
PUBMED=N/A
SUBMITUSER=mwang87
TAGS=
LIBRARYQUALITY=3
SPECTRUMID=CCMSLIB00000425787
SCANS=759
55.378 78.484 
76.937 83.501 
78.058 81.624 
104.478 100.0 
END IONS

BEGIN IONS
PEPMASS=138.055
CHARGE=1+
MSLEVEL=2
SOURCE_INSTRUMENT=Positive-Quattro_QQQ:25eV
FILENAME=hmdb_intermediate.mgf
SEQ=*..*
IONMODE=Positive
ORGANISM=HMDB
NAME=HMDB:HMDB01392-1551 p-Aminobenzoic acid M+H
PI=HMDB
DATACOLLECTOR=HMDB
SMILES=NC1=CC=C(C=C1)C(O)=O
INCHI=InChI=1S/C7H7NO2/c8-6-3-1-5(2-4-6)7(9)10/h1-4H,8H2,(H,9,10)
INCHIAUX=N/A
PUBMED=N/A
SUBMITUSER=mwang87
TAGS=
LIBRARYQUALITY=3
SPECTRUMID=CCMSLIB00000425788
SCANS=760
65.157 61.24 
77.055 87.597 
92.077 100.0 
END IONS

BEGIN IONS
PEPMASS=153.076
CHARGE=1+
MSLEVEL=2
SOURCE_INSTRUMENT=Positive-Quattro_QQQ:25eV
FILENAME=hmdb_intermediate.mgf
SEQ=*..*
IONMODE=Positive
ORGANISM=HMDB
NAME=HMDB:HMDB01851-1715 L-Arabitol M+H
PI=HMDB
DATACOLLECTOR=HMDB
SMILES=OC[C@H](O)C(O)[C@@H](O)CO
INCHI=InChI=1S/C5H12O5/c6-1-3(8)5(10)4(9)2-7/h3-10H,1-2H2/t3-,4-/m0/s1
INCHIAUX=N/A
PUBMED=N/A
SUBMITUSER=mwang87
TAGS=
LIBRARYQUALITY=3
SPECTRUMID=CCMSLIB00000425789
SCANS=761
42.0 57.385 
43.0 55.811 
56.0 61.551 
57.0 52.209 
58.0 82.19 
60.0 57.577 
68.0 87.66 
72.0 64.187 
74.0 87.082 
88.0 100.0 
END IONS

BEGIN IONS
PEPMASS=176.056
CHARGE=1+
MSLEVEL=2
SOURCE_INSTRUMENT=Positive-Quattro_QQQ:10eV
FILENAME=hmdb_intermediate.mgf
SEQ=*..*
IONMODE=Positive
ORGANISM=HMDB
NAME=HMDB:HMDB00812-1161 N-Acetyl-L-aspartic acid M+H
PI=HMDB
DATACOLLECTOR=HMDB
SMILES=CC(=O)N[C@@H](CC(O)=O)C(O)=O
INCHI=InChI=1S/C6H9NO5/c1-3(8)7-4(6(11)12)2-5(9)10/h4H,2H2,1H3,(H,7,8)(H,9,10)(H,11,12)/t4-/m0/s1
INCHIAUX=N/A
PUBMED=N/A
SUBMITUSER=mwang87
TAGS=
LIBRARYQUALITY=3
SPECTRUMID=CCMSLIB00000425790
SCANS=762
133.999 100.0 
END IONS

BEGIN IONS
PEPMASS=112.087
CHARGE=1+
MSLEVEL=2
SOURCE_INSTRUMENT=Positive-Quattro_QQQ:25eV
FILENAME=hmdb_intermediate.mgf
SEQ=*..*
IONMODE=Positive
ORGANISM=HMDB
NAME=HMDB:HMDB00870-1224 Histamine M+H
PI=HMDB
DATACOLLECTOR=HMDB
SMILES=NCCC1=CNC=N1
INCHI=InChI=1S/C5H9N3/c6-2-1-5-3-7-4-8-5/h3-4H,1-2,6H2,(H,7,8)
INCHIAUX=N/A
PUBMED=N/A
SUBMITUSER=mwang87
TAGS=
LIBRARYQUALITY=3
SPECTRUMID=CCMSLIB00000425791
SCANS=763
41.332 57.872 
68.041 97.872 
94.993 100.0 
END IONS

BEGIN IONS
PEPMASS=159.066
CHARGE=1+
MSLEVEL=2
SOURCE_INSTRUMENT=Negative-Quattro_QQQ:10eV
FILENAME=hmdb_intermediate.mgf
SEQ=*..*
IONMODE=Negative
ORGANISM=HMDB
NAME=HMDB:HMDB00857-1205 Pimelic acid M-H
PI=HMDB
DATACOLLECTOR=HMDB
SMILES=OC(=O)CCCCCC(O)=O
INCHI=InChI=1S/C7H12O4/c8-6(9)4-2-1-3-5-7(10)11/h1-5H2,(H,8,9)(H,10,11)
INCHIAUX=N/A
PUBMED=N/A
SUBMITUSER=mwang87
TAGS=
LIBRARYQUALITY=3
SPECTRUMID=CCMSLIB00000425792
SCANS=764
97.086 100.0 
END IONS

BEGIN IONS
PEPMASS=44.9851
CHARGE=1+
MSLEVEL=2
SOURCE_INSTRUMENT=Negative-Quattro_QQQ:10eV
FILENAME=hmdb_intermediate.mgf
SEQ=*..*
IONMODE=Negative
ORGANISM=HMDB
NAME=HMDB:HMDB02786-2131 Nitrite M-H
PI=HMDB
DATACOLLECTOR=HMDB
SMILES=[O-]N=O
INCHI=InChI=1S/HNO2/c2-1-3/h(H,2,3)/p-1
INCHIAUX=N/A
PUBMED=N/A
SUBMITUSER=mwang87
TAGS=
LIBRARYQUALITY=3
SPECTRUMID=CCMSLIB00000425793
SCANS=765
44.0 100.0 
END IONS

BEGIN IONS
PEPMASS=343.124
CHARGE=1+
MSLEVEL=2
SOURCE_INSTRUMENT=Positive-Quattro_QQQ:10eV
FILENAME=hmdb_intermediate.mgf
SEQ=*..*
IONMODE=Positive
ORGANISM=HMDB
NAME=HMDB:HMDB11740-2496 Turanose M+H
PI=HMDB
DATACOLLECTOR=HMDB
SMILES=OC[C@@H](O)[C@@H](O)[C@H](O[C@H]1O[C@H](CO)[C@@H](O)[C@H](O)[C@H]1O)C(=O)CO
INCHI=InChI=1S/C12H22O11/c13-1-4(16)7(18)11(5(17)2-14)23-12-10(21)9(20)8(19)6(3-15)22-12/h4,6-16,18-21H,1-3H2/t4-,6-,7-,8-,9+,10-,11-,12-/m1/s1
INCHIAUX=N/A
PUBMED=N/A
SUBMITUSER=mwang87
TAGS=
LIBRARYQUALITY=3
SPECTRUMID=CCMSLIB00000425794
SCANS=766
85.02 80.4945026128 
127.02 60.439559792 
145.08 100.0 
289.08 77.1978046262 
325.14 76.9230732967 
343.2 62.6373623783 
END IONS

BEGIN IONS
PEPMASS=159.041
CHARGE=1+
MSLEVEL=2
SOURCE_INSTRUMENT=Positive-Quattro_QQQ:40eV
FILENAME=hmdb_intermediate.mgf
SEQ=*..*
IONMODE=Positive
ORGANISM=HMDB
NAME=HMDB:HMDB03349-2258 L-Dihydroorotic acid M+H
PI=HMDB
DATACOLLECTOR=HMDB
SMILES=OC(=O)[C@@H]1CC(=O)NC(=O)N1
INCHI=InChI=1S/C5H6N2O4/c8-3-1-2(4(9)10)6-5(11)7-3/h2H,1H2,(H,9,10)(H2,6,7,8,11)/t2-/m0/s1
INCHIAUX=N/A
PUBMED=N/A
SUBMITUSER=mwang87
TAGS=
LIBRARYQUALITY=3
SPECTRUMID=CCMSLIB00000425795
SCANS=767
28.0 82.524 
43.0 100.0 
44.0 82.211 
45.0 50.236 
53.0 64.848 
70.0 67.244 
71.0 54.908 
END IONS

BEGIN IONS
PEPMASS=140.995
CHARGE=1+
MSLEVEL=2
SOURCE_INSTRUMENT=Positive-Quattro_QQQ:10eV
FILENAME=hmdb_intermediate.mgf
SEQ=*..*
IONMODE=Positive
ORGANISM=HMDB
NAME=HMDB:HMDB04110-2364 Phosphonoacetate M+H
PI=HMDB
DATACOLLECTOR=HMDB
SMILES=OC(=O)CP(O)(O)=O
INCHI=InChI=1S/C2H5O5P/c3-2(4)1-8(5,6)7/h1H2,(H,3,4)(H2,5,6,7)
INCHIAUX=N/A
PUBMED=N/A
SUBMITUSER=mwang87
TAGS=
LIBRARYQUALITY=3
SPECTRUMID=CCMSLIB00000425796
SCANS=768
123.0 100.0 
END IONS

BEGIN IONS
PEPMASS=219.123
CHARGE=1+
MSLEVEL=2
SOURCE_INSTRUMENT=Positive-Quattro_QQQ:10eV
FILENAME=hmdb_intermediate.mgf
SEQ=*..*
IONMODE=Positive
ORGANISM=HMDB
NAME=HMDB:HMDB00350-561 3-Hydroxysebacic acid M+H
PI=HMDB
DATACOLLECTOR=HMDB
SMILES=OC(CCCCCCC(O)=O)CC(O)=O
INCHI=InChI=1S/C10H18O5/c11-8(7-10(14)15)5-3-1-2-4-6-9(12)13/h8,11H,1-7H2,(H,12,13)(H,14,15)
INCHIAUX=N/A
PUBMED=N/A
SUBMITUSER=mwang87
TAGS=
LIBRARYQUALITY=3
SPECTRUMID=CCMSLIB00000425797
SCANS=769
183.0 100.0 
219.0 82.477 
END IONS

BEGIN IONS
PEPMASS=409.295
CHARGE=1+
MSLEVEL=2
SOURCE_INSTRUMENT=Positive-Quattro_QQQ:40eV
FILENAME=hmdb_intermediate.mgf
SEQ=*..*
IONMODE=Positive
ORGANISM=HMDB
NAME=HMDB:HMDB00364-581 3a,6a,7b-Trihydroxy-5b-cholanoic acid M+H
PI=HMDB
DATACOLLECTOR=HMDB
SMILES=[H][C@@]12CC[C@H]([C@H](C)CCC(O)=O)[C@@]1(C)CC[C@@]1([H])[C@@]2([H])[C@@H](O)[C@H](O)[C@]2([H])C[C@H](O)CC[C@]12C
INCHI=InChI=1S/C24H40O5/c1-13(4-7-19(26)27)15-5-6-16-20-17(9-11-23(15,16)2)24(3)10-8-14(25)12-18(24)21(28)22(20)29/h13-18,20-22,25,28-29H,4-12H2,1-3H3,(H,26,27)/t13-,14-,15-,16+,17+,18+,20+,21-,22-,23-,24-/m1/s1
INCHIAUX=N/A
PUBMED=N/A
SUBMITUSER=mwang87
TAGS=
LIBRARYQUALITY=3
SPECTRUMID=CCMSLIB00000425798
SCANS=770
23.7 75.658 
69.6 57.063 
79.29 63.438 
81.27 78.816 
85.74 83.236 
94.92 100.0 
100.61 57.883 
104.77 53.179 
119.11 72.383 
133.55 58.273 
142.78 58.426 
144.91 55.834 
146.32 68.27 
147.26 58.956 
159.41 50.301 
161.2 92.515 
194.92 65.058 
END IONS

BEGIN IONS
PEPMASS=343.124
CHARGE=1+
MSLEVEL=2
SOURCE_INSTRUMENT=Positive-Quattro_QQQ:40eV
FILENAME=hmdb_intermediate.mgf
SEQ=*..*
IONMODE=Positive
ORGANISM=HMDB
NAME=HMDB:HMDB00163-259 D-Maltose M+H
PI=HMDB
DATACOLLECTOR=HMDB
SMILES=OC[C@H]1O[C@H](O[C@H]2[C@H](O)[C@H](O)[C@@H](O)O[C@@H]2CO)[C@H](O)[C@@H](O)[C@@H]1O
INCHI=InChI=1S/C12H22O11/c13-1-3-5(15)6(16)9(19)12(22-3)23-10-4(2-14)21-11(20)8(18)7(10)17/h3-20H,1-2H2/t3-,4-,5-,6+,7-,8+,9-,10-,11+,12-/m1/s1
INCHIAUX=N/A
PUBMED=N/A
SUBMITUSER=mwang87
TAGS=
LIBRARYQUALITY=3
SPECTRUMID=CCMSLIB00000425799
SCANS=771
56.1 84.843 
68.72 91.581 
69.72 77.954 
84.48 72.669 
93.86 90.551 
97.99 74.059 
110.24 71.26 
117.64 73.846 
143.59 100.0 
147.6 79.612 
149.42 79.767 
244.33 98.48 
END IONS

BEGIN IONS
PEPMASS=241.032
CHARGE=1+
MSLEVEL=2
SOURCE_INSTRUMENT=Positive-Quattro_QQQ:10eV
FILENAME=hmdb_intermediate.mgf
SEQ=*..*
IONMODE=Positive
ORGANISM=HMDB
NAME=HMDB:HMDB00192-307 L-Cystine M+H
PI=HMDB
DATACOLLECTOR=HMDB
SMILES=N[C@@H](CSSC[C@H](N)C(O)=O)C(O)=O
INCHI=InChI=1S/C6H12N2O4S2/c7-3(5(9)10)1-13-14-2-4(8)6(11)12/h3-4H,1-2,7-8H2,(H,9,10)(H,11,12)/t3-,4-/m0/s1
INCHIAUX=N/A
PUBMED=N/A
SUBMITUSER=mwang87
TAGS=
LIBRARYQUALITY=3
SPECTRUMID=CCMSLIB00000425800
SCANS=772
151.869 51.128 
240.871 100.0 
END IONS

BEGIN IONS
PEPMASS=301.217
CHARGE=1+
MSLEVEL=2
SOURCE_INSTRUMENT=Positive-Quattro_QQQ:40eV
FILENAME=hmdb_intermediate.mgf
SEQ=*..*
IONMODE=Positive
ORGANISM=HMDB
NAME=HMDB:HMDB06219-2477 13-cis-Retinoic acid M+H
PI=HMDB
DATACOLLECTOR=HMDB
SMILES=C\C(\C=C\C1=C(C)CCCC1(C)C)=C/C=C/C(/C)=C\C(O)=O
INCHI=InChI=1S/C20H28O2/c1-15(8-6-9-16(2)14-19(21)22)11-12-18-17(3)10-7-13-20(18,4)5/h6,8-9,11-12,14H,7,10,13H2,1-5H3,(H,21,22)/b9-6+,12-11+,15-8+,16-14-
INCHIAUX=N/A
PUBMED=N/A
SUBMITUSER=mwang87
TAGS=
LIBRARYQUALITY=3
SPECTRUMID=CCMSLIB00000425801
SCANS=773
80.99 95.676 
104.95 100.0 
END IONS

BEGIN IONS
PEPMASS=165.076
CHARGE=1+
MSLEVEL=2
SOURCE_INSTRUMENT=Positive-Quattro_QQQ:25eV
FILENAME=hmdb_intermediate.mgf
SEQ=*..*
IONMODE=Positive
ORGANISM=HMDB
NAME=HMDB:HMDB00849-1200 Rhamnose M+H
PI=HMDB
DATACOLLECTOR=HMDB
SMILES=C[C@@H]1OC(O)[C@H](O)[C@H](O)[C@H]1O
INCHI=InChI=1S/C6H12O5/c1-2-3(7)4(8)5(9)6(10)11-2/h2-10H,1H3/t2-,3-,4+,5+,6?/m0/s1
INCHIAUX=N/A
PUBMED=N/A
SUBMITUSER=mwang87
TAGS=
LIBRARYQUALITY=3
SPECTRUMID=CCMSLIB00000425802
SCANS=774
69.0 89.597 
101.0 100.0 
END IONS

BEGIN IONS
PEPMASS=103.04
CHARGE=1+
MSLEVEL=2
SOURCE_INSTRUMENT=Negative-Quattro_QQQ:25eV
FILENAME=hmdb_intermediate.mgf
SEQ=*..*
IONMODE=Negative
ORGANISM=HMDB
NAME=HMDB:HMDB00729-1024 Alpha-Hydroxyisobutyric acid M-H
PI=HMDB
DATACOLLECTOR=HMDB
SMILES=CC(C)(O)C(O)=O
INCHI=InChI=1S/C4H8O3/c1-4(2,7)3(5)6/h7H,1-2H3,(H,5,6)
INCHIAUX=N/A
PUBMED=N/A
SUBMITUSER=mwang87
TAGS=
LIBRARYQUALITY=3
SPECTRUMID=CCMSLIB00000425803
SCANS=775
57.469 100.0 
END IONS

BEGIN IONS
PEPMASS=185.154
CHARGE=1+
MSLEVEL=2
SOURCE_INSTRUMENT=Negative-Quattro_QQQ:25eV
FILENAME=hmdb_intermediate.mgf
SEQ=*..*
IONMODE=Negative
ORGANISM=HMDB
NAME=HMDB:HMDB00947-1343 Undecanoic acid M-H
PI=HMDB
DATACOLLECTOR=HMDB
SMILES=CCCCCCCCCCC(O)=O
INCHI=InChI=1S/C11H22O2/c1-2-3-4-5-6-7-8-9-10-11(12)13/h2-10H2,1H3,(H,12,13)
INCHIAUX=N/A
PUBMED=N/A
SUBMITUSER=mwang87
TAGS=
LIBRARYQUALITY=3
SPECTRUMID=CCMSLIB00000425804
SCANS=776
184.686 100.0 
END IONS

BEGIN IONS
PEPMASS=149.045
CHARGE=1+
MSLEVEL=2
SOURCE_INSTRUMENT=Positive-Quattro_QQQ:25eV
FILENAME=hmdb_intermediate.mgf
SEQ=*..*
IONMODE=Positive
ORGANISM=HMDB
NAME=HMDB:HMDB00694-965 L-2-Hydroxyglutaric acid M+H
PI=HMDB
DATACOLLECTOR=HMDB
SMILES=O[C@@H](CCC(O)=O)C(O)=O
INCHI=InChI=1S/C5H8O5/c6-3(5(9)10)1-2-4(7)8/h3,6H,1-2H2,(H,7,8)(H,9,10)/t3-/m0/s1
INCHIAUX=N/A
PUBMED=N/A
SUBMITUSER=mwang87
TAGS=
LIBRARYQUALITY=3
SPECTRUMID=CCMSLIB00000425805
SCANS=777
85.0 100.0 
END IONS

BEGIN IONS
PEPMASS=119.071
CHARGE=1+
MSLEVEL=2
SOURCE_INSTRUMENT=Positive-Quattro_QQQ:40eV
FILENAME=hmdb_intermediate.mgf
SEQ=*..*
IONMODE=Positive
ORGANISM=HMDB
NAME=HMDB:HMDB00754-1082 3-Hydroxyisovaleric acid M+H
PI=HMDB
DATACOLLECTOR=HMDB
SMILES=CC(C)(O)CC(O)=O
INCHI=InChI=1S/C5H10O3/c1-5(2,8)3-4(6)7/h8H,3H2,1-2H3,(H,6,7)
INCHIAUX=N/A
PUBMED=N/A
SUBMITUSER=mwang87
TAGS=
LIBRARYQUALITY=3
SPECTRUMID=CCMSLIB00000425806
SCANS=778
58.452 79.349 
73.029 100.0 
END IONS

BEGIN IONS
PEPMASS=127.051
CHARGE=1+
MSLEVEL=2
SOURCE_INSTRUMENT=Positive-Quattro_QQQ:10eV
FILENAME=hmdb_intermediate.mgf
SEQ=*..*
IONMODE=Positive
ORGANISM=HMDB
NAME=HMDB:HMDB00262-454 Thymine M+H
PI=HMDB
DATACOLLECTOR=HMDB
SMILES=CC1=CNC(=O)NC1=O
INCHI=InChI=1S/C5H6N2O2/c1-3-2-6-5(9)7-4(3)8/h2H,1H3,(H2,6,7,8,9)
INCHIAUX=N/A
PUBMED=N/A
SUBMITUSER=mwang87
TAGS=
LIBRARYQUALITY=3
SPECTRUMID=CCMSLIB00000425807
SCANS=779
126.961 100.0 
END IONS

BEGIN IONS
PEPMASS=195.088
CHARGE=1+
MSLEVEL=2
SOURCE_INSTRUMENT=Positive-Quattro_QQQ:40eV
FILENAME=hmdb_intermediate.mgf
SEQ=*..*
IONMODE=Positive
ORGANISM=HMDB
NAME=HMDB:HMDB01847-1704 Caffeine M+H
PI=HMDB
DATACOLLECTOR=HMDB
SMILES=CN1C=NC2=C1C(=O)N(C)C(=O)N2C
INCHI=InChI=1S/C8H10N4O2/c1-10-4-9-6-5(10)7(13)12(3)8(14)11(6)2/h4H,1-3H3
INCHIAUX=N/A
PUBMED=N/A
SUBMITUSER=mwang87
TAGS=
LIBRARYQUALITY=3
SPECTRUMID=CCMSLIB00000425808
SCANS=780
42.485 100.0 
42.611 94.836 
END IONS

BEGIN IONS
PEPMASS=106.05
CHARGE=1+
MSLEVEL=2
SOURCE_INSTRUMENT=Positive-Quattro_QQQ:10eV
FILENAME=hmdb_intermediate.mgf
SEQ=*..*
IONMODE=Positive
ORGANISM=HMDB
NAME=HMDB:HMDB03406-2283 D-Serine M+H
PI=HMDB
DATACOLLECTOR=HMDB
SMILES=N[C@H](CO)C(O)=O
INCHI=InChI=1S/C3H7NO3/c4-2(1-5)3(6)7/h2,5H,1,4H2,(H,6,7)/t2-/m1/s1
INCHIAUX=N/A
PUBMED=N/A
SUBMITUSER=mwang87
TAGS=
LIBRARYQUALITY=3
SPECTRUMID=CCMSLIB00000425809
SCANS=781
60.01 100.0 
END IONS

BEGIN IONS
PEPMASS=45.034
CHARGE=1+
MSLEVEL=2
SOURCE_INSTRUMENT=Positive-Quattro_QQQ:40eV
FILENAME=hmdb_intermediate.mgf
SEQ=*..*
IONMODE=Positive
ORGANISM=HMDB
NAME=HMDB:HMDB00990-1380 Acetaldehyde M+H
PI=HMDB
DATACOLLECTOR=HMDB
SMILES=CC=O
INCHI=InChI=1S/C2H4O/c1-2-3/h2H,1H3
INCHIAUX=N/A
PUBMED=N/A
SUBMITUSER=mwang87
TAGS=
LIBRARYQUALITY=3
SPECTRUMID=CCMSLIB00000425810
SCANS=782
29.157 53.415 
30.285 100.0 
31.538 50.723 
45.074 82.582 
46.202 67.291 
48.082 69.982 
END IONS

BEGIN IONS
PEPMASS=206.082
CHARGE=1+
MSLEVEL=2
SOURCE_INSTRUMENT=Positive-Quattro_QQQ:40eV
FILENAME=hmdb_intermediate.mgf
SEQ=*..*
IONMODE=Positive
ORGANISM=HMDB
NAME=HMDB:HMDB00671-926 Indolelactic acid M+H
PI=HMDB
DATACOLLECTOR=HMDB
SMILES=OC(CC1=CNC2=C1C=CC=C2)C(O)=O
INCHI=InChI=1S/C11H11NO3/c13-10(11(14)15)5-7-6-12-9-4-2-1-3-8(7)9/h1-4,6,10,12-13H,5H2,(H,14,15)
INCHIAUX=N/A
PUBMED=N/A
SUBMITUSER=mwang87
TAGS=
LIBRARYQUALITY=3
SPECTRUMID=CCMSLIB00000425811
SCANS=783
90.927 55.738 
130.034 100.0 
END IONS

BEGIN IONS
PEPMASS=189.124
CHARGE=1+
MSLEVEL=2
SOURCE_INSTRUMENT=Positive-Quattro_QQQ:25eV
FILENAME=hmdb_intermediate.mgf
SEQ=*..*
IONMODE=Positive
ORGANISM=HMDB
NAME=HMDB:HMDB00759-1090 Glycyl-L-leucine M+H
PI=HMDB
DATACOLLECTOR=HMDB
SMILES=CC(C)C[C@H](NC(=O)CN)C(O)=O
INCHI=InChI=1S/C8H16N2O3/c1-5(2)3-6(8(12)13)10-7(11)4-9/h5-6H,3-4,9H2,1-2H3,(H,10,11)(H,12,13)/t6-/m0/s1
INCHIAUX=N/A
PUBMED=N/A
SUBMITUSER=mwang87
TAGS=
LIBRARYQUALITY=3
SPECTRUMID=CCMSLIB00000425812
SCANS=784
86.112 100.0 
END IONS

BEGIN IONS
PEPMASS=145.05
CHARGE=1+
MSLEVEL=2
SOURCE_INSTRUMENT=Positive-Quattro_QQQ:25eV
FILENAME=hmdb_intermediate.mgf
SEQ=*..*
IONMODE=Positive
ORGANISM=HMDB
NAME=HMDB:HMDB00393-601 3-Hexenedioic acid M+H
PI=HMDB
DATACOLLECTOR=HMDB
SMILES=OC(=O)C\C=C\CC(O)=O
INCHI=InChI=1S/C6H8O4/c7-5(8)3-1-2-4-6(9)10/h1-2H,3-4H2,(H,7,8)(H,9,10)/b2-1+
INCHIAUX=N/A
PUBMED=N/A
SUBMITUSER=mwang87
TAGS=
LIBRARYQUALITY=3
SPECTRUMID=CCMSLIB00000425813
SCANS=785
99.1 100.0 
104.1 56.7839474994 
END IONS

BEGIN IONS
PEPMASS=133.05
CHARGE=1+
MSLEVEL=2
SOURCE_INSTRUMENT=Positive-Quattro_QQQ:10eV
FILENAME=hmdb_intermediate.mgf
SEQ=*..*
IONMODE=Positive
ORGANISM=HMDB
NAME=HMDB:HMDB02001-1935 Dimethylmalonic acid M+H
PI=HMDB
DATACOLLECTOR=HMDB
SMILES=CC(C)(C(O)=O)C(O)=O
INCHI=InChI=1S/C5H8O4/c1-5(2,3(6)7)4(8)9/h1-2H3,(H,6,7)(H,8,9)
INCHIAUX=N/A
PUBMED=N/A
SUBMITUSER=mwang87
TAGS=
LIBRARYQUALITY=3
SPECTRUMID=CCMSLIB00000425814
SCANS=786
87.0 100.0 
END IONS

BEGIN IONS
PEPMASS=118.087
CHARGE=1+
MSLEVEL=2
SOURCE_INSTRUMENT=Positive-Quattro_QQQ:40eV
FILENAME=hmdb_intermediate.mgf
SEQ=*..*
IONMODE=Positive
ORGANISM=HMDB
NAME=HMDB:HMDB00043-74 Betaine M+H
PI=HMDB
DATACOLLECTOR=HMDB
SMILES=C[N+](C)(C)CC([O-])=O
INCHI=InChI=1S/C5H11NO2/c1-6(2,3)4-5(7)8/h4H2,1-3H3
INCHIAUX=N/A
PUBMED=N/A
SUBMITUSER=mwang87
TAGS=
LIBRARYQUALITY=3
SPECTRUMID=CCMSLIB00000425815
SCANS=787
58.237 100.0 
END IONS

BEGIN IONS
PEPMASS=337.131
CHARGE=1+
MSLEVEL=2
SOURCE_INSTRUMENT=Positive-Quattro_QQQ:25eV
FILENAME=hmdb_intermediate.mgf
SEQ=*..*
IONMODE=Positive
ORGANISM=HMDB
NAME=HMDB:HMDB03409-2290 Berberine M+H
PI=HMDB
DATACOLLECTOR=HMDB
SMILES=COC1=C(OC)C2=C[N+]3=C(C=C2C=C1)C1=CC2=C(OCO2)C=C1CC3
INCHI=InChI=1S/C20H18NO4/c1-22-17-4-3-12-7-16-14-9-19-18(24-11-25-19)8-13(14)5-6-21(16)10-15(12)20(17)23-2/h3-4,7-10H,5-6,11H2,1-2H3/q+1
INCHIAUX=N/A
PUBMED=N/A
SUBMITUSER=mwang87
TAGS=
LIBRARYQUALITY=3
SPECTRUMID=CCMSLIB00000425816
SCANS=788
321.253 100.0 
END IONS

BEGIN IONS
PEPMASS=151.112
CHARGE=1+
MSLEVEL=2
SOURCE_INSTRUMENT=Positive-Quattro_QQQ:40eV
FILENAME=hmdb_intermediate.mgf
SEQ=*..*
IONMODE=Positive
ORGANISM=HMDB
NAME=HMDB:HMDB01878-1776 Thymol M+H
PI=HMDB
DATACOLLECTOR=HMDB
SMILES=CC(C)C1=C(O)C=C(C)C=C1
INCHI=InChI=1S/C10H14O/c1-7(2)9-5-4-8(3)6-10(9)11/h4-7,11H,1-3H3
INCHIAUX=N/A
PUBMED=N/A
SUBMITUSER=mwang87
TAGS=
LIBRARYQUALITY=3
SPECTRUMID=CCMSLIB00000425817
SCANS=789
52.531 62.255 
65.636 61.234 
66.884 61.434 
67.883 69.189 
78.866 71.437 
80.863 100.0 
94.217 61.847 
109.694 51.437 
END IONS

BEGIN IONS
PEPMASS=142.027
CHARGE=1+
MSLEVEL=2
SOURCE_INSTRUMENT=Positive-Quattro_QQQ:25eV
FILENAME=hmdb_intermediate.mgf
SEQ=*..*
IONMODE=Positive
ORGANISM=HMDB
NAME=HMDB:HMDB60151-371 O-Phosphoethanolamine M+H
PI=HMDB
DATACOLLECTOR=HMDB
SMILES=NCCOP(O)(O)=O
INCHI=InChI=1S/C2H8NO4P/c3-1-2-7-8(4,5)6/h1-3H2,(H2,4,5,6)
INCHIAUX=N/A
PUBMED=N/A
SUBMITUSER=mwang87
TAGS=
LIBRARYQUALITY=3
SPECTRUMID=CCMSLIB00000425818
SCANS=790
44.621 100.0 
END IONS

BEGIN IONS
PEPMASS=177.062
CHARGE=1+
MSLEVEL=2
SOURCE_INSTRUMENT=Positive-Quattro_QQQ:40eV
FILENAME=hmdb_intermediate.mgf
SEQ=*..*
IONMODE=Positive
ORGANISM=HMDB
NAME=HMDB:HMDB01209-1468 Allantoic acid M+H
PI=HMDB
DATACOLLECTOR=HMDB
SMILES=NC(=O)NC(NC(N)=O)C(O)=O
INCHI=InChI=1S/C4H8N4O4/c5-3(11)7-1(2(9)10)8-4(6)12/h1H,(H,9,10)(H3,5,7,11)(H3,6,8,12)
INCHIAUX=N/A
PUBMED=N/A
SUBMITUSER=mwang87
TAGS=
LIBRARYQUALITY=3
SPECTRUMID=CCMSLIB00000425819
SCANS=791
61.0 100.0 
END IONS

BEGIN IONS
PEPMASS=90.0555
CHARGE=1+
MSLEVEL=2
SOURCE_INSTRUMENT=Positive-Quattro_QQQ:25eV
FILENAME=hmdb_intermediate.mgf
SEQ=*..*
IONMODE=Positive
ORGANISM=HMDB
NAME=HMDB:HMDB00161-252 L-Alanine M+H
PI=HMDB
DATACOLLECTOR=HMDB
SMILES=C[C@H](N)C(O)=O
INCHI=InChI=1S/C3H7NO2/c1-2(4)3(5)6/h2H,4H2,1H3,(H,5,6)/t2-/m0/s1
INCHIAUX=N/A
PUBMED=N/A
SUBMITUSER=mwang87
TAGS=
LIBRARYQUALITY=3
SPECTRUMID=CCMSLIB00000425820
SCANS=792
44.294 100.0 
END IONS

BEGIN IONS
PEPMASS=211.082
CHARGE=1+
MSLEVEL=2
SOURCE_INSTRUMENT=Positive-Quattro_QQQ:40eV
FILENAME=hmdb_intermediate.mgf
SEQ=*..*
IONMODE=Positive
ORGANISM=HMDB
NAME=HMDB:HMDB03219-2214 Sedoheptulose M+H
PI=HMDB
DATACOLLECTOR=HMDB
SMILES=OCC(O)C(O)C(O)C(O)C(=O)CO
INCHI=InChI=1S/C7H14O7/c8-1-3(10)5(12)7(14)6(13)4(11)2-9/h3,5-10,12-14H,1-2H2
INCHIAUX=N/A
PUBMED=N/A
SUBMITUSER=mwang87
TAGS=
LIBRARYQUALITY=3
SPECTRUMID=CCMSLIB00000425821
SCANS=793
56.0 100.0 
68.0 78.597 
69.0 72.433 
76.0 75.461 
77.0 73.974 
110.0 75.977 
END IONS

BEGIN IONS
PEPMASS=117.055
CHARGE=1+
MSLEVEL=2
SOURCE_INSTRUMENT=Positive-Quattro_QQQ:25eV
FILENAME=hmdb_intermediate.mgf
SEQ=*..*
IONMODE=Positive
ORGANISM=HMDB
NAME=HMDB:HMDB00019-32 Alpha-ketoisovaleric acid M+H
PI=HMDB
DATACOLLECTOR=HMDB
SMILES=CC(C)C(=O)C(O)=O
INCHI=InChI=1S/C5H8O3/c1-3(2)4(6)5(7)8/h3H,1-2H3,(H,7,8)
INCHIAUX=N/A
PUBMED=N/A
SUBMITUSER=mwang87
TAGS=
LIBRARYQUALITY=3
SPECTRUMID=CCMSLIB00000425822
SCANS=794
85.0 100.0 
END IONS

BEGIN IONS
PEPMASS=89.0239
CHARGE=1+
MSLEVEL=2
SOURCE_INSTRUMENT=Negative-Quattro_QQQ:10eV
FILENAME=hmdb_intermediate.mgf
SEQ=*..*
IONMODE=Negative
ORGANISM=HMDB
NAME=HMDB:HMDB00190-301 L-Lactic acid M-H
PI=HMDB
DATACOLLECTOR=HMDB
SMILES=C[C@H](O)C(O)=O
INCHI=InChI=1S/C3H6O3/c1-2(4)3(5)6/h2,4H,1H3,(H,5,6)/t2-/m0/s1
INCHIAUX=N/A
PUBMED=N/A
SUBMITUSER=mwang87
TAGS=
LIBRARYQUALITY=3
SPECTRUMID=CCMSLIB00000425823
SCANS=795
89.277 100.0 
END IONS

BEGIN IONS
PEPMASS=132.066
CHARGE=1+
MSLEVEL=2
SOURCE_INSTRUMENT=Positive-Quattro_QQQ:40eV
FILENAME=hmdb_intermediate.mgf
SEQ=*..*
IONMODE=Positive
ORGANISM=HMDB
NAME=HMDB:HMDB00766-1106 N-Acetyl-L-alanine M+H
PI=HMDB
DATACOLLECTOR=HMDB
SMILES=C[C@H](NC(C)=O)C(O)=O
INCHI=InChI=1S/C5H9NO3/c1-3(5(8)9)6-4(2)7/h3H,1-2H3,(H,6,7)(H,8,9)/t3-/m0/s1
INCHIAUX=N/A
PUBMED=N/A
SUBMITUSER=mwang87
TAGS=
LIBRARYQUALITY=3
SPECTRUMID=CCMSLIB00000425824
SCANS=796
43.195 100.0 
44.397 98.485 
END IONS

BEGIN IONS
PEPMASS=131.13
CHARGE=1+
MSLEVEL=2
SOURCE_INSTRUMENT=Positive-Quattro_QQQ:10eV
FILENAME=hmdb_intermediate.mgf
SEQ=*..*
IONMODE=Positive
ORGANISM=HMDB
NAME=HMDB:HMDB01432-1577 Agmatine M+H
PI=HMDB
DATACOLLECTOR=HMDB
SMILES=NCCCCNC(N)=N
INCHI=InChI=1S/C5H14N4/c6-3-1-2-4-9-5(7)8/h1-4,6H2,(H4,7,8,9)
INCHIAUX=N/A
PUBMED=N/A
SUBMITUSER=mwang87
TAGS=
LIBRARYQUALITY=3
SPECTRUMID=CCMSLIB00000425825
SCANS=797
72.0 100.0 
131.0 55.346 
END IONS

BEGIN IONS
PEPMASS=154.05
CHARGE=1+
MSLEVEL=2
SOURCE_INSTRUMENT=Positive-Quattro_QQQ:10eV
FILENAME=hmdb_intermediate.mgf
SEQ=*..*
IONMODE=Positive
ORGANISM=HMDB
NAME=HMDB:HMDB01972-1914 3-Aminosalicylic acid M+H
PI=HMDB
DATACOLLECTOR=HMDB
SMILES=NC1=CC=CC(C(O)=O)=C1O
INCHI=InChI=1S/C7H7NO3/c8-5-3-1-2-4(6(5)9)7(10)11/h1-3,9H,8H2,(H,10,11)
INCHIAUX=N/A
PUBMED=N/A
SUBMITUSER=mwang87
TAGS=
LIBRARYQUALITY=3
SPECTRUMID=CCMSLIB00000425826
SCANS=798
136.0 100.0 
END IONS

BEGIN IONS
PEPMASS=184.097
CHARGE=1+
MSLEVEL=2
SOURCE_INSTRUMENT=Positive-Quattro_QQQ:10eV
FILENAME=hmdb_intermediate.mgf
SEQ=*..*
IONMODE=Positive
ORGANISM=HMDB
NAME=HMDB:HMDB00819-1164 Normetanephrine M+H
PI=HMDB
DATACOLLECTOR=HMDB
SMILES=COC1=CC(=CC=C1O)C(O)CN
INCHI=InChI=1S/C9H13NO3/c1-13-9-4-6(8(12)5-10)2-3-7(9)11/h2-4,8,11-12H,5,10H2,1H3
INCHIAUX=N/A
PUBMED=N/A
SUBMITUSER=mwang87
TAGS=
LIBRARYQUALITY=3
SPECTRUMID=CCMSLIB00000425827
SCANS=799
165.995 100.0 
END IONS

BEGIN IONS
PEPMASS=219.113
CHARGE=1+
MSLEVEL=2
SOURCE_INSTRUMENT=Positive-Quattro_QQQ:10eV
FILENAME=hmdb_intermediate.mgf
SEQ=*..*
IONMODE=Positive
ORGANISM=HMDB
NAME=HMDB:HMDB01238-1478 N-Acetylserotonin M+H
PI=HMDB
DATACOLLECTOR=HMDB
SMILES=CC(=O)NCCC1=CNC2=C1C=C(O)C=C2
INCHI=InChI=1S/C12H14N2O2/c1-8(15)13-5-4-9-7-14-12-3-2-10(16)6-11(9)12/h2-3,6-7,14,16H,4-5H2,1H3,(H,13,15)
INCHIAUX=N/A
PUBMED=N/A
SUBMITUSER=mwang87
TAGS=
LIBRARYQUALITY=3
SPECTRUMID=CCMSLIB00000425828
SCANS=800
160.0 100.0 
END IONS

BEGIN IONS
PEPMASS=162.092
CHARGE=1+
MSLEVEL=2
SOURCE_INSTRUMENT=Positive-Quattro_QQQ:10eV
FILENAME=hmdb_intermediate.mgf
SEQ=*..*
IONMODE=Positive
ORGANISM=HMDB
NAME=HMDB:HMDB03447-2313 Tryptophanol M+H
PI=HMDB
DATACOLLECTOR=HMDB
SMILES=OCCC1=CNC2=CC=CC=C12
INCHI=InChI=1S/C10H11NO/c12-6-5-8-7-11-10-4-2-1-3-9(8)10/h1-4,7,11-12H,5-6H2
INCHIAUX=N/A
PUBMED=N/A
SUBMITUSER=mwang87
TAGS=
LIBRARYQUALITY=3
SPECTRUMID=CCMSLIB00000425829
SCANS=801
144.0 100.0 
162.0 69.869 
END IONS

BEGIN IONS
PEPMASS=777.695
CHARGE=1+
MSLEVEL=2
SOURCE_INSTRUMENT=Positive-Quattro_QQQ:10eV
FILENAME=hmdb_intermediate.mgf
SEQ=*..*
IONMODE=Positive
ORGANISM=HMDB
NAME=HMDB:HMDB00248-424 Thyroxine M+H
PI=HMDB
DATACOLLECTOR=HMDB
SMILES=N[C@@H](CC1=CC(I)=C(OC2=CC(I)=C(O)C(I)=C2)C(I)=C1)C(O)=O
INCHI=InChI=1S/C15H11I4NO4/c16-8-4-7(5-9(17)13(8)21)24-14-10(18)1-6(2-11(14)19)3-12(20)15(22)23/h1-2,4-5,12,21H,3,20H2,(H,22,23)/t12-/m0/s1
INCHIAUX=N/A
PUBMED=N/A
SUBMITUSER=mwang87
TAGS=
LIBRARYQUALITY=3
SPECTRUMID=CCMSLIB00000425830
SCANS=802
133.445 61.785 
199.623 51.596 
207.047 51.596 
243.285 74.527 
258.007 97.458 
270.088 61.785 
389.011 54.137 
421.481 61.785 
571.636 54.137 
575.789 74.527 
585.355 100.0 
630.542 56.69 
657.478 61.785 
698.134 51.596 
760.817 61.785 
END IONS

BEGIN IONS
PEPMASS=198.077
CHARGE=1+
MSLEVEL=2
SOURCE_INSTRUMENT=Positive-Quattro_QQQ:10eV
FILENAME=hmdb_intermediate.mgf
SEQ=*..*
IONMODE=Positive
ORGANISM=HMDB
NAME=HMDB:HMDB00181-286 L-Dopa M+H
PI=HMDB
DATACOLLECTOR=HMDB
SMILES=N[C@@H](CC1=CC(O)=C(O)C=C1)C(O)=O
INCHI=InChI=1S/C9H11NO4/c10-6(9(13)14)3-5-1-2-7(11)8(12)4-5/h1-2,4,6,11-12H,3,10H2,(H,13,14)/t6-/m0/s1
INCHIAUX=N/A
PUBMED=N/A
SUBMITUSER=mwang87
TAGS=
LIBRARYQUALITY=3
SPECTRUMID=CCMSLIB00000425831
SCANS=803
151.998 100.0 
180.96 81.553 
197.967 71.845 
END IONS

BEGIN IONS
PEPMASS=301.217
CHARGE=1+
MSLEVEL=2
SOURCE_INSTRUMENT=Positive-Quattro_QQQ:25eV
FILENAME=hmdb_intermediate.mgf
SEQ=*..*
IONMODE=Positive
ORGANISM=HMDB
NAME=HMDB:HMDB01852-1718 All-trans-retinoic acid M+H
PI=HMDB
DATACOLLECTOR=HMDB
SMILES=C\C(\C=C\C1=C(C)CCCC1(C)C)=C/C=C/C(/C)=C/C(O)=O
INCHI=InChI=1S/C20H28O2/c1-15(8-6-9-16(2)14-19(21)22)11-12-18-17(3)10-7-13-20(18,4)5/h6,8-9,11-12,14H,7,10,13H2,1-5H3,(H,21,22)/b9-6+,12-11+,15-8+,16-14+
INCHIAUX=N/A
PUBMED=N/A
SUBMITUSER=mwang87
TAGS=
LIBRARYQUALITY=3
SPECTRUMID=CCMSLIB00000425832
SCANS=804
147.042 77.624 
181.967 72.788 
218.883 100.0 
229.574 71.819 
243.62 78.316 
254.808 61.046 
283.401 99.17 
END IONS

BEGIN IONS
PEPMASS=109.065
CHARGE=1+
MSLEVEL=2
SOURCE_INSTRUMENT=Positive-Quattro_QQQ:10eV
FILENAME=hmdb_intermediate.mgf
SEQ=*..*
IONMODE=Positive
ORGANISM=HMDB
NAME=HMDB:HMDB01858-1729 p-Cresol M+H
PI=HMDB
DATACOLLECTOR=HMDB
SMILES=CC1=CC=C(O)C=C1
INCHI=InChI=1S/C7H8O/c1-6-2-4-7(8)5-3-6/h2-5,8H,1H3
INCHIAUX=N/A
PUBMED=N/A
SUBMITUSER=mwang87
TAGS=
LIBRARYQUALITY=3
SPECTRUMID=CCMSLIB00000425833
SCANS=805
108.0 100.0 
END IONS

BEGIN IONS
PEPMASS=147.077
CHARGE=1+
MSLEVEL=2
SOURCE_INSTRUMENT=Positive-Quattro_QQQ:40eV
FILENAME=hmdb_intermediate.mgf
SEQ=*..*
IONMODE=Positive
ORGANISM=HMDB
NAME=HMDB:HMDB03423-2303 D-Glutamine M+H
PI=HMDB
DATACOLLECTOR=HMDB
SMILES=N[C@H](CCC(N)=O)C(O)=O
INCHI=InChI=1S/C5H10N2O3/c6-3(5(9)10)1-2-4(7)8/h3H,1-2,6H2,(H2,7,8)(H,9,10)/t3-/m1/s1
INCHIAUX=N/A
PUBMED=N/A
SUBMITUSER=mwang87
TAGS=
LIBRARYQUALITY=3
SPECTRUMID=CCMSLIB00000425834
SCANS=806
56.06 100.0 
END IONS

BEGIN IONS
PEPMASS=415.394
CHARGE=1+
MSLEVEL=2
SOURCE_INSTRUMENT=Positive-Quattro_QQQ:25eV
FILENAME=hmdb_intermediate.mgf
SEQ=*..*
IONMODE=Positive
ORGANISM=HMDB
NAME=HMDB:HMDB00852-1203 Beta-Sitosterol M+H
PI=HMDB
DATACOLLECTOR=HMDB
SMILES=[H][C@@]1(CC[C@@]2([H])[C@]3([H])CC=C4C[C@@H](O)CC[C@]4(C)[C@@]3([H])CC[C@]12C)[C@H](C)CC[C@@H](CC)C(C)C
INCHI=InChI=1S/C29H50O/c1-7-21(19(2)3)9-8-20(4)25-12-13-26-24-11-10-22-18-23(30)14-16-28(22,5)27(24)15-17-29(25,26)6/h10,19-21,23-27,30H,7-9,11-18H2,1-6H3/t20-,21-,23+,24+,25-,26+,27+,28+,29-/m1/s1
INCHIAUX=N/A
PUBMED=N/A
SUBMITUSER=mwang87
TAGS=
LIBRARYQUALITY=3
SPECTRUMID=CCMSLIB00000425835
SCANS=807
57.135 53.351 
81.106 75.258 
95.118 67.01 
97.023 61.34 
108.99 68.041 
133.027 53.351 
159.01 61.082 
161.017 50.0 
172.955 60.309 
175.056 52.835 
212.833 50.258 
397.138 64.433 
415.153 100.0 
END IONS

BEGIN IONS
PEPMASS=262.14
CHARGE=1+
MSLEVEL=2
SOURCE_INSTRUMENT=Positive-Quattro_QQQ:25eV
FILENAME=hmdb_intermediate.mgf
SEQ=*..*
IONMODE=Positive
ORGANISM=HMDB
NAME=HMDB:HMDB04987-2425 Alpha-Aspartyl-lysine M+H
PI=HMDB
DATACOLLECTOR=HMDB
SMILES=NCCCC[C@H](NC(=O)[C@@H](N)CC(O)=O)C(O)=O
INCHI=InChI=1S/C10H19N3O5/c11-4-2-1-3-7(10(17)18)13-9(16)6(12)5-8(14)15/h6-7H,1-5,11-12H2,(H,13,16)(H,14,15)(H,17,18)/t6-,7-/m0/s1
INCHIAUX=N/A
PUBMED=N/A
SUBMITUSER=mwang87
TAGS=
LIBRARYQUALITY=3
SPECTRUMID=CCMSLIB00000425836
SCANS=808
84.0 100.0 
END IONS

BEGIN IONS
PEPMASS=104.071
CHARGE=1+
MSLEVEL=2
SOURCE_INSTRUMENT=Positive-Quattro_QQQ:10eV
FILENAME=hmdb_intermediate.mgf
SEQ=*..*
IONMODE=Positive
ORGANISM=HMDB
NAME=HMDB:HMDB00112-162 Gamma-Aminobutyric acid M+H
PI=HMDB
DATACOLLECTOR=HMDB
SMILES=NCCCC(O)=O
INCHI=InChI=1S/C4H9NO2/c5-3-1-2-4(6)7/h1-3,5H2,(H,6,7)
INCHIAUX=N/A
PUBMED=N/A
SUBMITUSER=mwang87
TAGS=
LIBRARYQUALITY=3
SPECTRUMID=CCMSLIB00000425837
SCANS=809
69.012 50.655 
103.962 100.0 
END IONS

BEGIN IONS
PEPMASS=415.394
CHARGE=1+
MSLEVEL=2
SOURCE_INSTRUMENT=Positive-Quattro_QQQ:10eV
FILENAME=hmdb_intermediate.mgf
SEQ=*..*
IONMODE=Positive
ORGANISM=HMDB
NAME=HMDB:HMDB00852-1202 Beta-Sitosterol M+H
PI=HMDB
DATACOLLECTOR=HMDB
SMILES=[H][C@@]1(CC[C@@]2([H])[C@]3([H])CC=C4C[C@@H](O)CC[C@]4(C)[C@@]3([H])CC[C@]12C)[C@H](C)CC[C@@H](CC)C(C)C
INCHI=InChI=1S/C29H50O/c1-7-21(19(2)3)9-8-20(4)25-12-13-26-24-11-10-22-18-23(30)14-16-28(22,5)27(24)15-17-29(25,26)6/h10,19-21,23-27,30H,7-9,11-18H2,1-6H3/t20-,21-,23+,24+,25-,26+,27+,28+,29-/m1/s1
INCHIAUX=N/A
PUBMED=N/A
SUBMITUSER=mwang87
TAGS=
LIBRARYQUALITY=3
SPECTRUMID=CCMSLIB00000425838
SCANS=810
415.106 100.0 
END IONS

BEGIN IONS
PEPMASS=313.311
CHARGE=1+
MSLEVEL=2
SOURCE_INSTRUMENT=Positive-Quattro_QQQ:40eV
FILENAME=hmdb_intermediate.mgf
SEQ=*..*
IONMODE=Positive
ORGANISM=HMDB
NAME=HMDB:HMDB00801-1140 Phytanic acid M+H
PI=HMDB
DATACOLLECTOR=HMDB
SMILES=CC(C)CCCC(C)CCCC(C)CCCC(C)CC(O)=O
INCHI=InChI=1S/C20H40O2/c1-16(2)9-6-10-17(3)11-7-12-18(4)13-8-14-19(5)15-20(21)22/h16-19H,6-15H2,1-5H3,(H,21,22)
INCHIAUX=N/A
PUBMED=N/A
SUBMITUSER=mwang87
TAGS=
LIBRARYQUALITY=3
SPECTRUMID=CCMSLIB00000425839
SCANS=811
66.62 60.729 
69.02 80.299 
71.15 100.0 
81.27 53.435 
END IONS

BEGIN IONS
PEPMASS=137.046
CHARGE=1+
MSLEVEL=2
SOURCE_INSTRUMENT=Positive-Quattro_QQQ:40eV
FILENAME=hmdb_intermediate.mgf
SEQ=*..*
IONMODE=Positive
ORGANISM=HMDB
NAME=HMDB:HMDB00157-244 Hypoxanthine M+H
PI=HMDB
DATACOLLECTOR=HMDB
SMILES=OC1=NC=NC2=C1NC=N2
INCHI=InChI=1S/C5H4N4O/c10-5-3-4(7-1-6-3)8-2-9-5/h1-2H,(H2,6,7,8,9,10)
INCHIAUX=N/A
PUBMED=N/A
SUBMITUSER=mwang87
TAGS=
LIBRARYQUALITY=3
SPECTRUMID=CCMSLIB00000425840
SCANS=812
55.204 100.0 
END IONS

BEGIN IONS
PEPMASS=136.043
CHARGE=1+
MSLEVEL=2
SOURCE_INSTRUMENT=Positive-Quattro_QQQ:10eV
FILENAME=hmdb_intermediate.mgf
SEQ=*..*
IONMODE=Positive
ORGANISM=HMDB
NAME=HMDB:HMDB02108-2007 Methylcysteine M+H
PI=HMDB
DATACOLLECTOR=HMDB
SMILES=CSC[C@H](N)C(O)=O
INCHI=InChI=1S/C4H9NO2S/c1-8-2-3(5)4(6)7/h3H,2,5H2,1H3,(H,6,7)/t3-/m0/s1
INCHIAUX=N/A
PUBMED=N/A
SUBMITUSER=mwang87
TAGS=
LIBRARYQUALITY=3
SPECTRUMID=CCMSLIB00000425841
SCANS=813
119.0 100.0 
END IONS

BEGIN IONS
PEPMASS=137.133
CHARGE=1+
MSLEVEL=2
SOURCE_INSTRUMENT=Positive-Quattro_QQQ:10eV
FILENAME=hmdb_intermediate.mgf
SEQ=*..*
IONMODE=Positive
ORGANISM=HMDB
NAME=HMDB:HMDB04321-2382 (+)-Limonene M+H
PI=HMDB
DATACOLLECTOR=HMDB
SMILES=CC(=C)[C@@H]1CCC(C)=CC1
INCHI=InChI=1S/C10H16/c1-8(2)10-6-4-9(3)5-7-10/h4,10H,1,5-7H2,2-3H3/t10-/m0/s1
INCHIAUX=N/A
PUBMED=N/A
SUBMITUSER=mwang87
TAGS=
LIBRARYQUALITY=3
SPECTRUMID=CCMSLIB00000425842
SCANS=814
136.0 100.0 
END IONS

BEGIN IONS
PEPMASS=308.111
CHARGE=1+
MSLEVEL=2
SOURCE_INSTRUMENT=Positive-Quattro_QQQ:10eV
FILENAME=hmdb_intermediate.mgf
SEQ=*..*
IONMODE=Positive
ORGANISM=HMDB
NAME=HMDB:HMDB05005-2436 Tolnaftate M+H
PI=HMDB
DATACOLLECTOR=HMDB
SMILES=CN(C(=S)OC1=CC2=CC=CC=C2C=C1)C1=CC=CC(C)=C1
INCHI=InChI=1S/C19H17NOS/c1-14-6-5-9-17(12-14)20(2)19(22)21-18-11-10-15-7-3-4-8-16(15)13-18/h3-13H,1-2H3
INCHIAUX=N/A
PUBMED=N/A
SUBMITUSER=mwang87
TAGS=
LIBRARYQUALITY=3
SPECTRUMID=CCMSLIB00000425843
SCANS=815
147.0 100.0 
307.0 75.217 
END IONS

BEGIN IONS
PEPMASS=289.217
CHARGE=1+
MSLEVEL=2
SOURCE_INSTRUMENT=Positive-Quattro_QQQ:40eV
FILENAME=hmdb_intermediate.mgf
SEQ=*..*
IONMODE=Positive
ORGANISM=HMDB
NAME=HMDB:HMDB00628-857 Epitestosterone M+H
PI=HMDB
DATACOLLECTOR=HMDB
SMILES=[H][C@@]12CC[C@@H](O)[C@@]1(C)CC[C@@]1([H])[C@@]2([H])CCC2=CC(=O)CC[C@]12C
INCHI=InChI=1S/C19H28O2/c1-18-9-7-13(20)11-12(18)3-4-14-15-5-6-17(21)19(15,2)10-8-16(14)18/h11,14-17,21H,3-10H2,1-2H3/t14-,15-,16-,17+,18-,19-/m0/s1
INCHIAUX=N/A
PUBMED=N/A
SUBMITUSER=mwang87
TAGS=
LIBRARYQUALITY=3
SPECTRUMID=CCMSLIB00000425844
SCANS=816
79.293 50.333 
97.225 100.0 
109.172 88.0 
END IONS

BEGIN IONS
PEPMASS=143.009
CHARGE=1+
MSLEVEL=2
SOURCE_INSTRUMENT=Positive-Quattro_QQQ:10eV
FILENAME=hmdb_intermediate.mgf
SEQ=*..*
IONMODE=Positive
ORGANISM=HMDB
NAME=HMDB:HMDB02818-2137 Alloxan M+H
PI=HMDB
DATACOLLECTOR=HMDB
SMILES=O=C1NC(=O)C(=O)C(=O)N1
INCHI=InChI=1S/C4H2N2O4/c7-1-2(8)5-4(10)6-3(1)9/h(H2,5,6,8,9,10)
INCHIAUX=N/A
PUBMED=N/A
SUBMITUSER=mwang87
TAGS=
LIBRARYQUALITY=3
SPECTRUMID=CCMSLIB00000425845
SCANS=817
77.0 100.0 
END IONS

BEGIN IONS
PEPMASS=373.159
CHARGE=1+
MSLEVEL=2
SOURCE_INSTRUMENT=Positive-Quattro_QQQ:10eV
FILENAME=hmdb_intermediate.mgf
SEQ=*..*
IONMODE=Positive
ORGANISM=HMDB
NAME=HMDB:HMDB02873-2149 Deacetyldiltiazem M+H
PI=HMDB
DATACOLLECTOR=HMDB
SMILES=COC1=CC=C(C=C1)[C@@H]1SC2=CC=CC=C2N(CCN(C)C)C(=O)[C@@H]1O
INCHI=InChI=1S/C20H24N2O3S/c1-21(2)12-13-22-16-6-4-5-7-17(16)26-19(18(23)20(22)24)14-8-10-15(25-3)11-9-14/h4-11,18-19,23H,12-13H2,1-3H3/t18-,19+/m1/s1
INCHIAUX=N/A
PUBMED=N/A
SUBMITUSER=mwang87
TAGS=
LIBRARYQUALITY=3
SPECTRUMID=CCMSLIB00000425846
SCANS=818
372.0 100.0 
373.0 71.955 
END IONS

BEGIN IONS
PEPMASS=166.087
CHARGE=1+
MSLEVEL=2
SOURCE_INSTRUMENT=Positive-Quattro_QQQ:40eV
FILENAME=hmdb_intermediate.mgf
SEQ=*..*
IONMODE=Positive
ORGANISM=HMDB
NAME=HMDB:HMDB04992-2429 Benzocaine M+H
PI=HMDB
DATACOLLECTOR=HMDB
SMILES=CCOC(=O)C1=CC=C(N)C=C1
INCHI=InChI=1S/C9H11NO2/c1-2-12-9(11)7-3-5-8(10)6-4-7/h3-6H,2,10H2,1H3
INCHIAUX=N/A
PUBMED=N/A
SUBMITUSER=mwang87
TAGS=
LIBRARYQUALITY=3
SPECTRUMID=CCMSLIB00000425847
SCANS=819
64.871 100.0 
91.73 52.372 
END IONS

BEGIN IONS
PEPMASS=59.0497
CHARGE=1+
MSLEVEL=2
SOURCE_INSTRUMENT=Positive-Quattro_QQQ:40eV
FILENAME=hmdb_intermediate.mgf
SEQ=*..*
IONMODE=Positive
ORGANISM=HMDB
NAME=HMDB:HMDB01659-1674 Acetone M+H
PI=HMDB
DATACOLLECTOR=HMDB
SMILES=CC(C)=O
INCHI=InChI=1S/C3H6O/c1-3(2)4/h1-2H3
INCHIAUX=N/A
PUBMED=N/A
SUBMITUSER=mwang87
TAGS=
LIBRARYQUALITY=3
SPECTRUMID=CCMSLIB00000425848
SCANS=820
42.0 74.115 
43.0 68.052 
58.0 100.0 
59.0 68.986 
END IONS

BEGIN IONS
PEPMASS=181.071
CHARGE=1+
MSLEVEL=2
SOURCE_INSTRUMENT=Positive-Quattro_QQQ:10eV
FILENAME=hmdb_intermediate.mgf
SEQ=*..*
IONMODE=Positive
ORGANISM=HMDB
NAME=HMDB:HMDB03449-2316 Beta-D-Galactose M+H
PI=HMDB
DATACOLLECTOR=HMDB
SMILES=OC[C@H]1O[C@@H](O)[C@H](O)[C@@H](O)[C@H]1O
INCHI=InChI=1S/C6H12O6/c7-1-2-3(8)4(9)5(10)6(11)12-2/h2-11H,1H2/t2-,3+,4+,5-,6-/m1/s1
INCHIAUX=N/A
PUBMED=N/A
SUBMITUSER=mwang87
TAGS=
LIBRARYQUALITY=3
SPECTRUMID=CCMSLIB00000425849
SCANS=821
139.0 100.0 
181.0 61.3496932515 
END IONS

BEGIN IONS
PEPMASS=283.264
CHARGE=1+
MSLEVEL=2
SOURCE_INSTRUMENT=Positive-Quattro_QQQ:10eV
FILENAME=hmdb_intermediate.mgf
SEQ=*..*
IONMODE=Positive
ORGANISM=HMDB
NAME=HMDB:HMDB00207-334 Oleic acid M+H
PI=HMDB
DATACOLLECTOR=HMDB
SMILES=CCCCCCCC\C=C/CCCCCCCC(O)=O
INCHI=InChI=1S/C18H34O2/c1-2-3-4-5-6-7-8-9-10-11-12-13-14-15-16-17-18(19)20/h9-10H,2-8,11-17H2,1H3,(H,19,20)/b10-9-
INCHIAUX=N/A
PUBMED=N/A
SUBMITUSER=mwang87
TAGS=
LIBRARYQUALITY=3
SPECTRUMID=CCMSLIB00000425850
SCANS=822
247.0 92.741 
265.0 96.679 
283.0 100.0 
END IONS

BEGIN IONS
PEPMASS=130.998
CHARGE=1+
MSLEVEL=2
SOURCE_INSTRUMENT=Negative-Quattro_QQQ:25eV
FILENAME=hmdb_intermediate.mgf
SEQ=*..*
IONMODE=Negative
ORGANISM=HMDB
NAME=HMDB:HMDB00223-368 Oxalacetic acid M-H
PI=HMDB
DATACOLLECTOR=HMDB
SMILES=OC(=O)CC(=O)C(O)=O
INCHI=InChI=1S/C4H4O5/c5-2(4(8)9)1-3(6)7/h1H2,(H,6,7)(H,8,9)
INCHIAUX=N/A
PUBMED=N/A
SUBMITUSER=mwang87
TAGS=
LIBRARYQUALITY=3
SPECTRUMID=CCMSLIB00000425851
SCANS=823
43.613 100.0 
87.264 74.694 
END IONS

BEGIN IONS
PEPMASS=391.285
CHARGE=1+
MSLEVEL=2
SOURCE_INSTRUMENT=Positive-Quattro_QQQ:10eV
FILENAME=hmdb_intermediate.mgf
SEQ=*..*
IONMODE=Positive
ORGANISM=HMDB
NAME=HMDB:HMDB00467-677 Nutriacholic acid M+H
PI=HMDB
DATACOLLECTOR=HMDB
SMILES=[H][C@@]12CCC([C@@H](C)CCC(O)=O)[C@@]1(C)CC[C@@]1([H])[C@@]2([H])C(=O)C[C@]2([H])C[C@H](O)CC[C@]12C
INCHI=InChI=1S/C24H38O4/c1-14(4-7-21(27)28)17-5-6-18-22-19(9-11-24(17,18)3)23(2)10-8-16(25)12-15(23)13-20(22)26/h14-19,22,25H,4-13H2,1-3H3,(H,27,28)/t14-,15-,16+,17?,18-,19-,22-,23-,24+/m0/s1
INCHIAUX=N/A
PUBMED=N/A
SUBMITUSER=mwang87
TAGS=
LIBRARYQUALITY=3
SPECTRUMID=CCMSLIB00000425852
SCANS=824
215.053 100.0 
END IONS

BEGIN IONS
PEPMASS=158.082
CHARGE=1+
MSLEVEL=2
SOURCE_INSTRUMENT=Positive-Quattro_QQQ:10eV
FILENAME=hmdb_intermediate.mgf
SEQ=*..*
IONMODE=Positive
ORGANISM=HMDB
NAME=HMDB:HMDB00959-1363 Tiglylglycine M+H
PI=HMDB
DATACOLLECTOR=HMDB
SMILES=C\C=C(/C)C(=O)NCC(O)=O
INCHI=InChI=1S/C7H11NO3/c1-3-5(2)7(11)8-4-6(9)10/h3H,4H2,1-2H3,(H,8,11)(H,9,10)/b5-3+
INCHIAUX=N/A
PUBMED=N/A
SUBMITUSER=mwang87
TAGS=
LIBRARYQUALITY=3
SPECTRUMID=CCMSLIB00000425853
SCANS=825
78.0 74.959 
79.0 100.0 
END IONS

BEGIN IONS
PEPMASS=133.061
CHARGE=1+
MSLEVEL=2
SOURCE_INSTRUMENT=Positive-Quattro_QQQ:10eV
FILENAME=hmdb_intermediate.mgf
SEQ=*..*
IONMODE=Positive
ORGANISM=HMDB
NAME=HMDB:HMDB00168-266 L-Asparagine M+H
PI=HMDB
DATACOLLECTOR=HMDB
SMILES=N[C@@H](CC(N)=O)C(O)=O
INCHI=InChI=1S/C4H8N2O3/c5-2(4(8)9)1-3(6)7/h2H,1,5H2,(H2,6,7)(H,8,9)/t2-/m0/s1
INCHIAUX=N/A
PUBMED=N/A
SUBMITUSER=mwang87
TAGS=
LIBRARYQUALITY=3
SPECTRUMID=CCMSLIB00000425854
SCANS=826
74.043 78.049 
87.101 100.0 
132.9 62.805 
END IONS

BEGIN IONS
PEPMASS=74.0718
CHARGE=1+
MSLEVEL=2
SOURCE_INSTRUMENT=Positive-Quattro_QQQ:25eV
FILENAME=hmdb_intermediate.mgf
SEQ=*..*
IONMODE=Positive
ORGANISM=HMDB
NAME=HMDB:HMDB01522-1623 Methylguanidine M+H
PI=HMDB
DATACOLLECTOR=HMDB
SMILES=CNC(N)=N
INCHI=InChI=1S/C2H7N3/c1-5-2(3)4/h1H3,(H4,3,4,5)
INCHIAUX=N/A
PUBMED=N/A
SUBMITUSER=mwang87
TAGS=
LIBRARYQUALITY=3
SPECTRUMID=CCMSLIB00000425855
SCANS=827
57.146 100.0 
END IONS

BEGIN IONS
PEPMASS=182.082
CHARGE=1+
MSLEVEL=2
SOURCE_INSTRUMENT=Positive-Quattro_QQQ:10eV
FILENAME=hmdb_intermediate.mgf
SEQ=*..*
IONMODE=Positive
ORGANISM=HMDB
NAME=HMDB:HMDB06050-2466 o-Tyrosine M+H
PI=HMDB
DATACOLLECTOR=HMDB
SMILES=NC(CC1=CC=CC=C1O)C(O)=O
INCHI=InChI=1S/C9H11NO3/c10-7(9(12)13)5-6-3-1-2-4-8(6)11/h1-4,7,11H,5,10H2,(H,12,13)
INCHIAUX=N/A
PUBMED=N/A
SUBMITUSER=mwang87
TAGS=
LIBRARYQUALITY=3
SPECTRUMID=CCMSLIB00000425856
SCANS=828
182.1 100.0 
END IONS

BEGIN IONS
PEPMASS=151.112
CHARGE=1+
MSLEVEL=2
SOURCE_INSTRUMENT=Positive-Quattro_QQQ:10eV
FILENAME=hmdb_intermediate.mgf
SEQ=*..*
IONMODE=Positive
ORGANISM=HMDB
NAME=HMDB:HMDB04487-2394 (+)-(S)-Carvone M+H
PI=HMDB
DATACOLLECTOR=HMDB
SMILES=CC(=C)[C@H]1CC=C(C)C(=O)C1
INCHI=InChI=1S/C10H14O/c1-7(2)9-5-4-8(3)10(11)6-9/h4,9H,1,5-6H2,2-3H3/t9-/m0/s1
INCHIAUX=N/A
PUBMED=N/A
SUBMITUSER=mwang87
TAGS=
LIBRARYQUALITY=3
SPECTRUMID=CCMSLIB00000425857
SCANS=829
109.0 100.0 
151.0 57.807 
END IONS

BEGIN IONS
PEPMASS=153.076
CHARGE=1+
MSLEVEL=2
SOURCE_INSTRUMENT=Positive-Quattro_QQQ:40eV
FILENAME=hmdb_intermediate.mgf
SEQ=*..*
IONMODE=Positive
ORGANISM=HMDB
NAME=HMDB:HMDB01851-1716 L-Arabitol M+H
PI=HMDB
DATACOLLECTOR=HMDB
SMILES=OC[C@H](O)C(O)[C@@H](O)CO
INCHI=InChI=1S/C5H12O5/c6-1-3(8)5(10)4(9)2-7/h3-10H,1-2H2/t3-,4-/m0/s1
INCHIAUX=N/A
PUBMED=N/A
SUBMITUSER=mwang87
TAGS=
LIBRARYQUALITY=3
SPECTRUMID=CCMSLIB00000425858
SCANS=830
58.0 100.0 
END IONS

BEGIN IONS
PEPMASS=315.149
CHARGE=1+
MSLEVEL=2
SOURCE_INSTRUMENT=Positive-Quattro_QQQ:25eV
FILENAME=hmdb_intermediate.mgf
SEQ=*..*
IONMODE=Positive
ORGANISM=HMDB
NAME=HMDB:HMDB01930-1870 Ranitidine M+H
PI=HMDB
DATACOLLECTOR=HMDB
SMILES=CN\C(NCCSCC1=CC=C(CN(C)C)O1)=C/[N+]([O-])=O
INCHI=InChI=1S/C13H22N4O3S/c1-14-13(9-17(18)19)15-6-7-21-10-12-5-4-11(20-12)8-16(2)3/h4-5,9,14-15H,6-8,10H2,1-3H3/b13-9+
INCHIAUX=N/A
PUBMED=N/A
SUBMITUSER=mwang87
TAGS=
LIBRARYQUALITY=3
SPECTRUMID=CCMSLIB00000425859
SCANS=831
98.317 100.0 
124.625 52.621 
129.762 76.243 
175.869 58.028 
END IONS

BEGIN IONS
PEPMASS=178.087
CHARGE=1+
MSLEVEL=2
SOURCE_INSTRUMENT=Positive-Quattro_QQQ:10eV
FILENAME=hmdb_intermediate.mgf
SEQ=*..*
IONMODE=Positive
ORGANISM=HMDB
NAME=HMDB:HMDB01855-1720 5-Hydroxytryptophol M+H
PI=HMDB
DATACOLLECTOR=HMDB
SMILES=OCCC1=CNC2=CC=C(O)C=C12
INCHI=InChI=1S/C10H11NO2/c12-4-3-7-6-11-10-2-1-8(13)5-9(7)10/h1-2,5-6,11-13H,3-4H2
INCHIAUX=N/A
PUBMED=N/A
SUBMITUSER=mwang87
TAGS=
LIBRARYQUALITY=3
SPECTRUMID=CCMSLIB00000425860
SCANS=832
160.14 90.5751035081 
178.14 100.0 
END IONS

BEGIN IONS
PEPMASS=87.0446
CHARGE=1+
MSLEVEL=2
SOURCE_INSTRUMENT=Positive-Quattro_QQQ:25eV
FILENAME=hmdb_intermediate.mgf
SEQ=*..*
IONMODE=Positive
ORGANISM=HMDB
NAME=HMDB:HMDB03407-2287 Diacetyl M+H
PI=HMDB
DATACOLLECTOR=HMDB
SMILES=CC(=O)C(C)=O
INCHI=InChI=1S/C4H6O2/c1-3(5)4(2)6/h1-2H3
INCHIAUX=N/A
PUBMED=N/A
SUBMITUSER=mwang87
TAGS=
LIBRARYQUALITY=3
SPECTRUMID=CCMSLIB00000425861
SCANS=833
43.0 100.0 
45.0 52.601 
49.0 78.639 
69.0 67.146 
73.0 68.206 
END IONS

BEGIN IONS
PEPMASS=154.087
CHARGE=1+
MSLEVEL=2
SOURCE_INSTRUMENT=Positive-Quattro_QQQ:25eV
FILENAME=hmdb_intermediate.mgf
SEQ=*..*
IONMODE=Positive
ORGANISM=HMDB
NAME=HMDB:HMDB00073-121 Dopamine M+H
PI=HMDB
DATACOLLECTOR=HMDB
SMILES=NCCC1=CC=C(O)C(O)=C1
INCHI=InChI=1S/C8H11NO2/c9-4-3-6-1-2-7(10)8(11)5-6/h1-2,5,10-11H,3-4,9H2
INCHIAUX=N/A
PUBMED=N/A
SUBMITUSER=mwang87
TAGS=
LIBRARYQUALITY=3
SPECTRUMID=CCMSLIB00000425862
SCANS=834
91.091 100.0 
END IONS

BEGIN IONS
PEPMASS=139.051
CHARGE=1+
MSLEVEL=2
SOURCE_INSTRUMENT=Positive-Quattro_QQQ:25eV
FILENAME=hmdb_intermediate.mgf
SEQ=*..*
IONMODE=Positive
ORGANISM=HMDB
NAME=HMDB:HMDB00301-514 Urocanic acid M+H
PI=HMDB
DATACOLLECTOR=HMDB
SMILES=OC(=O)\C=C\C1=CNC=N1
INCHI=InChI=1S/C6H6N2O2/c9-6(10)2-1-5-3-7-4-8-5/h1-4H,(H,7,8)(H,9,10)/b2-1+
INCHIAUX=N/A
PUBMED=N/A
SUBMITUSER=mwang87
TAGS=
LIBRARYQUALITY=3
SPECTRUMID=CCMSLIB00000425863
SCANS=835
92.994 100.0 
END IONS

BEGIN IONS
PEPMASS=131.118
CHARGE=1+
MSLEVEL=2
SOURCE_INSTRUMENT=Positive-Quattro_QQQ:10eV
FILENAME=hmdb_intermediate.mgf
SEQ=*..*
IONMODE=Positive
ORGANISM=HMDB
NAME=HMDB:HMDB02064-1975 N-Acetylputrescine M+H
PI=HMDB
DATACOLLECTOR=HMDB
SMILES=CC(=O)NCCCCN
INCHI=InChI=1S/C6H14N2O/c1-6(9)8-5-3-2-4-7/h2-5,7H2,1H3,(H,8,9)
INCHIAUX=N/A
PUBMED=N/A
SUBMITUSER=mwang87
TAGS=
LIBRARYQUALITY=3
SPECTRUMID=CCMSLIB00000425864
SCANS=836
72.0 59.069 
114.0 100.0 
END IONS

BEGIN IONS
PEPMASS=143.107
CHARGE=1+
MSLEVEL=2
SOURCE_INSTRUMENT=Positive-Quattro_QQQ:10eV
FILENAME=hmdb_intermediate.mgf
SEQ=*..*
IONMODE=Positive
ORGANISM=HMDB
NAME=HMDB:HMDB00392-597 2-Octenoic acid M+H
PI=HMDB
DATACOLLECTOR=HMDB
SMILES=CCCCC\C=C/C(O)=O
INCHI=InChI=1S/C8H14O2/c1-2-3-4-5-6-7-8(9)10/h6-7H,2-5H2,1H3,(H,9,10)/b7-6-
INCHIAUX=N/A
PUBMED=N/A
SUBMITUSER=mwang87
TAGS=
LIBRARYQUALITY=3
SPECTRUMID=CCMSLIB00000425865
SCANS=837
72.0 100.0 
END IONS

BEGIN IONS
PEPMASS=164.038
CHARGE=1+
MSLEVEL=2
SOURCE_INSTRUMENT=Positive-Quattro_QQQ:10eV
FILENAME=hmdb_intermediate.mgf
SEQ=*..*
IONMODE=Positive
ORGANISM=HMDB
NAME=HMDB:HMDB01890-1795 Acetylcysteine M+H
PI=HMDB
DATACOLLECTOR=HMDB
SMILES=CC(=O)N[C@@H](CS)C(O)=O
INCHI=InChI=1S/C5H9NO3S/c1-3(7)6-4(2-10)5(8)9/h4,10H,2H2,1H3,(H,6,7)(H,8,9)/t4-/m0/s1
INCHIAUX=N/A
PUBMED=N/A
SUBMITUSER=mwang87
TAGS=
LIBRARYQUALITY=3
SPECTRUMID=CCMSLIB00000425866
SCANS=838
121.992 100.0 
END IONS

BEGIN IONS
PEPMASS=208.097
CHARGE=1+
MSLEVEL=2
SOURCE_INSTRUMENT=Positive-Quattro_QQQ:25eV
FILENAME=hmdb_intermediate.mgf
SEQ=*..*
IONMODE=Positive
ORGANISM=HMDB
NAME=HMDB:HMDB00860-1215 Phenylpropionylglycine M+H
PI=HMDB
DATACOLLECTOR=HMDB
SMILES=OC(=O)CNC(=O)CCC1=CC=CC=C1
INCHI=InChI=1S/C11H13NO3/c13-10(12-8-11(14)15)7-6-9-4-2-1-3-5-9/h1-5H,6-8H2,(H,12,13)(H,14,15)
INCHIAUX=N/A
PUBMED=N/A
SUBMITUSER=mwang87
TAGS=
LIBRARYQUALITY=3
SPECTRUMID=CCMSLIB00000425867
SCANS=839
105.237 100.0 
END IONS

BEGIN IONS
PEPMASS=377.146
CHARGE=1+
MSLEVEL=2
SOURCE_INSTRUMENT=Positive-Quattro_QQQ:10eV
FILENAME=hmdb_intermediate.mgf
SEQ=*..*
IONMODE=Positive
ORGANISM=HMDB
NAME=HMDB:HMDB00244-412 Riboflavin M+H
PI=HMDB
DATACOLLECTOR=HMDB
SMILES=CC1=C(C)C=C2N(C[C@H](O)[C@H](O)[C@H](O)CO)C3=NC(=O)NC(=O)C3=NC2=C1
INCHI=InChI=1S/C17H20N4O6/c1-7-3-9-10(4-8(7)2)21(5-11(23)14(25)12(24)6-22)15-13(18-9)16(26)20-17(27)19-15/h3-4,11-12,14,22-25H,5-6H2,1-2H3,(H,20,26,27)/t11-,12+,14-/m0/s1
INCHIAUX=N/A
PUBMED=N/A
SUBMITUSER=mwang87
TAGS=
LIBRARYQUALITY=3
SPECTRUMID=CCMSLIB00000425868
SCANS=840
376.0 83.661 
377.0 100.0 
END IONS

BEGIN IONS
PEPMASS=184.097
CHARGE=1+
MSLEVEL=2
SOURCE_INSTRUMENT=Positive-Quattro_QQQ:25eV
FILENAME=hmdb_intermediate.mgf
SEQ=*..*
IONMODE=Positive
ORGANISM=HMDB
NAME=HMDB:HMDB00819-1165 Normetanephrine M+H
PI=HMDB
DATACOLLECTOR=HMDB
SMILES=COC1=CC(=CC=C1O)C(O)CN
INCHI=InChI=1S/C9H13NO3/c1-13-9-4-6(8(12)5-10)2-3-7(9)11/h2-4,8,11-12H,5,10H2,1H3
INCHIAUX=N/A
PUBMED=N/A
SUBMITUSER=mwang87
TAGS=
LIBRARYQUALITY=3
SPECTRUMID=CCMSLIB00000425869
SCANS=841
79.094 78.873 
106.061 85.915 
121.004 68.075 
133.997 100.0 
END IONS

BEGIN IONS
PEPMASS=153.041
CHARGE=1+
MSLEVEL=2
SOURCE_INSTRUMENT=Positive-Quattro_QQQ:25eV
FILENAME=hmdb_intermediate.mgf
SEQ=*..*
IONMODE=Positive
ORGANISM=HMDB
NAME=HMDB:HMDB00292-496 Xanthine M+H
PI=HMDB
DATACOLLECTOR=HMDB
SMILES=O=C1NC2=C(NC=N2)C(=O)N1
INCHI=InChI=1S/C5H4N4O2/c10-4-2-3(7-1-6-2)8-5(11)9-4/h1H,(H3,6,7,8,9,10,11)
INCHIAUX=N/A
PUBMED=N/A
SUBMITUSER=mwang87
TAGS=
LIBRARYQUALITY=3
SPECTRUMID=CCMSLIB00000425870
SCANS=842
81.912 53.933 
109.927 100.0 
END IONS

BEGIN IONS
PEPMASS=276.11
CHARGE=1+
MSLEVEL=2
SOURCE_INSTRUMENT=Positive-Quattro_QQQ:40eV
FILENAME=hmdb_intermediate.mgf
SEQ=*..*
IONMODE=Positive
ORGANISM=HMDB
NAME=HMDB:HMDB01786-1683 Ethenodeoxyadenosine M+H
PI=HMDB
DATACOLLECTOR=HMDB
SMILES=OC[C@H]1O[C@H](C[C@@H]1O)N1C=NC2=C1N=CN1C=CN=C21
INCHI=InChI=1S/C12H13N5O3/c18-4-8-7(19)3-9(20-8)17-6-14-10-11-13-1-2-16(11)5-15-12(10)17/h1-2,5-9,18-19H,3-4H2/t7-,8+,9+/m0/s1
INCHIAUX=N/A
PUBMED=N/A
SUBMITUSER=mwang87
TAGS=
LIBRARYQUALITY=3
SPECTRUMID=CCMSLIB00000425871
SCANS=843
160.038 100.0 
END IONS

BEGIN IONS
PEPMASS=167.034
CHARGE=1+
MSLEVEL=2
SOURCE_INSTRUMENT=Negative-Quattro_QQQ:10eV
FILENAME=hmdb_intermediate.mgf
SEQ=*..*
IONMODE=Negative
ORGANISM=HMDB
NAME=HMDB:HMDB00484-701 Vanillic acid M-H
PI=HMDB
DATACOLLECTOR=HMDB
SMILES=COC1=CC(=CC=C1O)C(O)=O
INCHI=InChI=1S/C8H8O4/c1-12-7-4-5(8(10)11)2-3-6(7)9/h2-4,9H,1H3,(H,10,11)
INCHIAUX=N/A
PUBMED=N/A
SUBMITUSER=mwang87
TAGS=
LIBRARYQUALITY=3
SPECTRUMID=CCMSLIB00000425872
SCANS=844
151.929 70.0 
166.924 100.0 
END IONS

BEGIN IONS
PEPMASS=444.032
CHARGE=1+
MSLEVEL=2
SOURCE_INSTRUMENT=Positive-Quattro_QQQ:40eV
FILENAME=hmdb_intermediate.mgf
SEQ=*..*
IONMODE=Positive
ORGANISM=HMDB
NAME=HMDB:HMDB01201-1462 Guanosine diphosphate M+H
PI=HMDB
DATACOLLECTOR=HMDB
SMILES=NC1=NC2=C(N=CN2[C@@H]2O[C@H](COP(O)(=O)OP(O)(O)=O)[C@@H](O)[C@H]2O)C(=O)N1
INCHI=InChI=1S/C10H15N5O11P2/c11-10-13-7-4(8(18)14-10)12-2-15(7)9-6(17)5(16)3(25-9)1-24-28(22,23)26-27(19,20)21/h2-3,5-6,9,16-17H,1H2,(H,22,23)(H2,19,20,21)(H3,11,13,14,18)/t3-,5-,6-,9-/m1/s1
INCHIAUX=N/A
PUBMED=N/A
SUBMITUSER=mwang87
TAGS=
LIBRARYQUALITY=3
SPECTRUMID=CCMSLIB00000425873
SCANS=845
152.0 100.0 
END IONS

BEGIN IONS
PEPMASS=85.0653
CHARGE=1+
MSLEVEL=2
SOURCE_INSTRUMENT=Positive-Quattro_QQQ:10eV
FILENAME=hmdb_intermediate.mgf
SEQ=*..*
IONMODE=Positive
ORGANISM=HMDB
NAME=HMDB:HMDB01184-1451 Methyl propenyl ketone M+H
PI=HMDB
DATACOLLECTOR=HMDB
SMILES=C\C=C\C(C)=O
INCHI=InChI=1S/C5H8O/c1-3-4-5(2)6/h3-4H,1-2H3/b4-3+
INCHIAUX=N/A
PUBMED=N/A
SUBMITUSER=mwang87
TAGS=
LIBRARYQUALITY=3
SPECTRUMID=CCMSLIB00000425874
SCANS=846
67.027 100.0 
84.97 79.59 
END IONS

BEGIN IONS
PEPMASS=209.03
CHARGE=1+
MSLEVEL=2
SOURCE_INSTRUMENT=Negative-Quattro_QQQ:25eV
FILENAME=hmdb_intermediate.mgf
SEQ=*..*
IONMODE=Negative
ORGANISM=HMDB
NAME=HMDB:HMDB00663-907 Glucaric acid M-H
PI=HMDB
DATACOLLECTOR=HMDB
SMILES=O[C@@H]([C@H](O)[C@@H](O)C(O)=O)[C@H](O)C(O)=O
INCHI=InChI=1S/C6H10O8/c7-1(3(9)5(11)12)2(8)4(10)6(13)14/h1-4,7-10H,(H,11,12)(H,13,14)/t1-,2-,3-,4+/m0/s1
INCHIAUX=N/A
PUBMED=N/A
SUBMITUSER=mwang87
TAGS=
LIBRARYQUALITY=3
SPECTRUMID=CCMSLIB00000425875
SCANS=847
57.509 73.140516022 
59.465 54.8553870165 
71.381 94.2837633517 
85.318 100.0 
END IONS

BEGIN IONS
PEPMASS=60.0562
CHARGE=1+
MSLEVEL=2
SOURCE_INSTRUMENT=Positive-Quattro_QQQ:40eV
FILENAME=hmdb_intermediate.mgf
SEQ=*..*
IONMODE=Positive
ORGANISM=HMDB
NAME=HMDB:HMDB01842-1692 Guanidine M+H
PI=HMDB
DATACOLLECTOR=HMDB
SMILES=NC(N)=N
INCHI=InChI=1S/CH5N3/c2-1(3)4/h(H5,2,3,4)
INCHIAUX=N/A
PUBMED=N/A
SUBMITUSER=mwang87
TAGS=
LIBRARYQUALITY=3
SPECTRUMID=CCMSLIB00000425876
SCANS=848
43.0 100.0 
END IONS

BEGIN IONS
PEPMASS=127.051
CHARGE=1+
MSLEVEL=2
SOURCE_INSTRUMENT=Positive-Quattro_QQQ:10eV
FILENAME=hmdb_intermediate.mgf
SEQ=*..*
IONMODE=Positive
ORGANISM=HMDB
NAME=HMDB:HMDB02024-1950 Imidazoleacetic acid M+H
PI=HMDB
DATACOLLECTOR=HMDB
SMILES=OC(=O)CC1=CN=CN1
INCHI=InChI=1S/C5H6N2O2/c8-5(9)1-4-2-6-3-7-4/h2-3H,1H2,(H,6,7)(H,8,9)
INCHIAUX=N/A
PUBMED=N/A
SUBMITUSER=mwang87
TAGS=
LIBRARYQUALITY=3
SPECTRUMID=CCMSLIB00000425877
SCANS=849
81.0 100.0 
127.0 53.55 
END IONS

BEGIN IONS
PEPMASS=240.11
CHARGE=1+
MSLEVEL=2
SOURCE_INSTRUMENT=Positive-Quattro_QQQ:10eV
FILENAME=hmdb_intermediate.mgf
SEQ=*..*
IONMODE=Positive
ORGANISM=HMDB
NAME=HMDB:HMDB00038-63 Dihydrobiopterin M+H
PI=HMDB
DATACOLLECTOR=HMDB
SMILES=CC(O)C(O)C1=NC2=C(NC1)N=C(N)NC2=O
INCHI=InChI=1S/C9H13N5O3/c1-3(15)6(16)4-2-11-7-5(12-4)8(17)14-9(10)13-7/h3,6,15-16H,2H2,1H3,(H4,10,11,13,14,17)
INCHIAUX=N/A
PUBMED=N/A
SUBMITUSER=mwang87
TAGS=
LIBRARYQUALITY=3
SPECTRUMID=CCMSLIB00000425878
SCANS=850
237.0 54.843 
238.0 100.0 
239.0 61.314 
END IONS

BEGIN IONS
PEPMASS=143.046
CHARGE=1+
MSLEVEL=2
SOURCE_INSTRUMENT=Positive-Quattro_QQQ:40eV
FILENAME=hmdb_intermediate.mgf
SEQ=*..*
IONMODE=Positive
ORGANISM=HMDB
NAME=HMDB:HMDB00469-685 5-Hydroxymethyluracil M+H
PI=HMDB
DATACOLLECTOR=HMDB
SMILES=OCC1=CNC(=O)NC1=O
INCHI=InChI=1S/C5H6N2O3/c8-2-3-1-6-5(10)7-4(3)9/h1,8H,2H2,(H2,6,7,9,10)
INCHIAUX=N/A
PUBMED=N/A
SUBMITUSER=mwang87
TAGS=
LIBRARYQUALITY=3
SPECTRUMID=CCMSLIB00000425879
SCANS=851
54.265 69.767 
55.264 100.0 
82.074 57.364 
END IONS

BEGIN IONS
PEPMASS=87.081
CHARGE=1+
MSLEVEL=2
SOURCE_INSTRUMENT=Positive-Quattro_QQQ:25eV
FILENAME=hmdb_intermediate.mgf
SEQ=*..*
IONMODE=Positive
ORGANISM=HMDB
NAME=HMDB:HMDB06478-2485 Iso-Valeraldehyde M+H
PI=HMDB
DATACOLLECTOR=HMDB
SMILES=CC(C)CC=O
INCHI=InChI=1S/C5H10O/c1-5(2)3-4-6/h4-5H,3H2,1-2H3
INCHIAUX=N/A
PUBMED=N/A
SUBMITUSER=mwang87
TAGS=
LIBRARYQUALITY=3
SPECTRUMID=CCMSLIB00000425880
SCANS=852
86.39 88.657 
86.91 100.0 
END IONS

BEGIN IONS
PEPMASS=181.05
CHARGE=1+
MSLEVEL=2
SOURCE_INSTRUMENT=Positive-Quattro_QQQ:40eV
FILENAME=hmdb_intermediate.mgf
SEQ=*..*
IONMODE=Positive
ORGANISM=HMDB
NAME=HMDB:HMDB01964-1913 Caffeic acid M+H
PI=HMDB
DATACOLLECTOR=HMDB
SMILES=OC(=O)\C=C/C1=CC=C(O)C(O)=C1
INCHI=InChI=1S/C9H8O4/c10-7-3-1-6(5-8(7)11)2-4-9(12)13/h1-5,10-11H,(H,12,13)/b4-2-
INCHIAUX=N/A
PUBMED=N/A
SUBMITUSER=mwang87
TAGS=
LIBRARYQUALITY=3
SPECTRUMID=CCMSLIB00000425881
SCANS=853
88.0 100.0 
END IONS

BEGIN IONS
PEPMASS=232.155
CHARGE=1+
MSLEVEL=2
SOURCE_INSTRUMENT=Positive-Quattro_QQQ:25eV
FILENAME=hmdb_intermediate.mgf
SEQ=*..*
IONMODE=Positive
ORGANISM=HMDB
NAME=HMDB:HMDB00736-1045 Isobutyryl-L-carnitine M+H
PI=HMDB
DATACOLLECTOR=HMDB
SMILES=CC(C)C(=O)OC(CC([O-])=O)C[N+](C)(C)C
INCHI=InChI=1S/C11H21NO4/c1-8(2)11(15)16-9(6-10(13)14)7-12(3,4)5/h8-9H,6-7H2,1-5H3
INCHIAUX=N/A
PUBMED=N/A
SUBMITUSER=mwang87
TAGS=
LIBRARYQUALITY=3
SPECTRUMID=CCMSLIB00000425882
SCANS=854
84.0 100.0 
END IONS

BEGIN IONS
PEPMASS=141.066
CHARGE=1+
MSLEVEL=2
SOURCE_INSTRUMENT=Positive-Quattro_QQQ:40eV
FILENAME=hmdb_intermediate.mgf
SEQ=*..*
IONMODE=Positive
ORGANISM=HMDB
NAME=HMDB:HMDB02820-2142 Methylimidazoleacetic acid M+H
PI=HMDB
DATACOLLECTOR=HMDB
SMILES=CN1C=NC(CC(O)=O)=C1
INCHI=InChI=1S/C6H8N2O2/c1-8-3-5(7-4-8)2-6(9)10/h3-4H,2H2,1H3,(H,9,10)
INCHIAUX=N/A
PUBMED=N/A
SUBMITUSER=mwang87
TAGS=
LIBRARYQUALITY=3
SPECTRUMID=CCMSLIB00000425883
SCANS=855
42.0 100.0 
68.0 52.853 
81.0 64.771 
95.0 56.403 
END IONS

BEGIN IONS
PEPMASS=138.092
CHARGE=1+
MSLEVEL=2
SOURCE_INSTRUMENT=Positive-Quattro_QQQ:25eV
FILENAME=hmdb_intermediate.mgf
SEQ=*..*
IONMODE=Positive
ORGANISM=HMDB
NAME=HMDB:HMDB00306-523 Tyramine M+H
PI=HMDB
DATACOLLECTOR=HMDB
SMILES=NCCC1=CC=C(O)C=C1
INCHI=InChI=1S/C8H11NO/c9-6-5-7-1-3-8(10)4-2-7/h1-4,10H,5-6,9H2
INCHIAUX=N/A
PUBMED=N/A
SUBMITUSER=mwang87
TAGS=
LIBRARYQUALITY=3
SPECTRUMID=CCMSLIB00000425884
SCANS=856
77.087 100.0 
END IONS

BEGIN IONS
PEPMASS=291.232
CHARGE=1+
MSLEVEL=2
SOURCE_INSTRUMENT=Positive-Quattro_QQQ:40eV
FILENAME=hmdb_intermediate.mgf
SEQ=*..*
IONMODE=Positive
ORGANISM=HMDB
NAME=HMDB:HMDB00546-769 Epietiocholanolone M+H
PI=HMDB
DATACOLLECTOR=HMDB
SMILES=[H][C@@]12CCC(=O)[C@@]1(C)CC[C@@]1([H])[C@@]2([H])CC[C@]2([H])C[C@@H](O)CC[C@]12C
INCHI=InChI=1S/C19H30O2/c1-18-9-7-13(20)11-12(18)3-4-14-15-5-6-17(21)19(15,2)10-8-16(14)18/h12-16,20H,3-11H2,1-2H3/t12-,13+,14+,15+,16+,18+,19+/m1/s1
INCHIAUX=N/A
PUBMED=N/A
SUBMITUSER=mwang87
TAGS=
LIBRARYQUALITY=3
SPECTRUMID=CCMSLIB00000425885
SCANS=857
59.927 62.607 
69.377 100.0 
87.419 56.999 
90.487 73.823 
133.814 55.137 
163.764 56.999 
190.525 55.137 
193.839 58.883 
194.699 55.137 
201.941 96.254 
254.732 96.254 
267.133 79.43 
285.182 53.275 
293.654 55.137 
303.477 62.607 
END IONS

BEGIN IONS
PEPMASS=202.144
CHARGE=1+
MSLEVEL=2
SOURCE_INSTRUMENT=Positive-Quattro_QQQ:25eV
FILENAME=hmdb_intermediate.mgf
SEQ=*..*
IONMODE=Positive
ORGANISM=HMDB
NAME=HMDB:HMDB00832-1182 Capryloylglycine M+H
PI=HMDB
DATACOLLECTOR=HMDB
SMILES=CCCCCCCC(=O)NCC(O)=O
INCHI=InChI=1S/C10H19NO3/c1-2-3-4-5-6-7-9(12)11-8-10(13)14/h2-8H2,1H3,(H,11,12)(H,13,14)
INCHIAUX=N/A
PUBMED=N/A
SUBMITUSER=mwang87
TAGS=
LIBRARYQUALITY=3
SPECTRUMID=CCMSLIB00000425886
SCANS=858
56.892 100.0 
57.52 79.736 
END IONS

BEGIN IONS
PEPMASS=147.066
CHARGE=1+
MSLEVEL=2
SOURCE_INSTRUMENT=Positive-Quattro_QQQ:10eV
FILENAME=hmdb_intermediate.mgf
SEQ=*..*
IONMODE=Positive
ORGANISM=HMDB
NAME=HMDB:HMDB00752-1074 Methylglutaric acid M+H
PI=HMDB
DATACOLLECTOR=HMDB
SMILES=CC(CC(O)=O)CC(O)=O
INCHI=InChI=1S/C6H10O4/c1-4(2-5(7)8)3-6(9)10/h4H,2-3H2,1H3,(H,7,8)(H,9,10)
INCHIAUX=N/A
PUBMED=N/A
SUBMITUSER=mwang87
TAGS=
LIBRARYQUALITY=3
SPECTRUMID=CCMSLIB00000425887
SCANS=859
100.49 55.294 
101.487 100.0 
101.612 69.929 
END IONS

BEGIN IONS
PEPMASS=101.097
CHARGE=1+
MSLEVEL=2
SOURCE_INSTRUMENT=Positive-Quattro_QQQ:10eV
FILENAME=hmdb_intermediate.mgf
SEQ=*..*
IONMODE=Positive
ORGANISM=HMDB
NAME=HMDB:HMDB00753-1077 3-Hexanone M+H
PI=HMDB
DATACOLLECTOR=HMDB
SMILES=CCCC(=O)CC
INCHI=InChI=1S/C6H12O/c1-3-5-6(7)4-2/h3-5H2,1-2H3
INCHIAUX=N/A
PUBMED=N/A
SUBMITUSER=mwang87
TAGS=
LIBRARYQUALITY=3
SPECTRUMID=CCMSLIB00000425888
SCANS=860
101.04 100.0 
END IONS

BEGIN IONS
PEPMASS=285.083
CHARGE=1+
MSLEVEL=2
SOURCE_INSTRUMENT=Positive-Quattro_QQQ:40eV
FILENAME=hmdb_intermediate.mgf
SEQ=*..*
IONMODE=Positive
ORGANISM=HMDB
NAME=HMDB:HMDB00299-509 Xanthosine M+H
PI=HMDB
DATACOLLECTOR=HMDB
SMILES=OC[C@H]1O[C@H]([C@H](O)[C@@H]1O)N1C=NC2=C1N=C(O)N=C2O
INCHI=InChI=1S/C10H12N4O6/c15-1-3-5(16)6(17)9(20-3)14-2-11-4-7(14)12-10(19)13-8(4)18/h2-3,5-6,9,15-17H,1H2,(H2,12,13,18,19)/t3-,5-,6-,9-/m1/s1
INCHIAUX=N/A
PUBMED=N/A
SUBMITUSER=mwang87
TAGS=
LIBRARYQUALITY=3
SPECTRUMID=CCMSLIB00000425889
SCANS=861
57.199 54.0 
135.901 100.0 
END IONS

BEGIN IONS
PEPMASS=161.045
CHARGE=1+
MSLEVEL=2
SOURCE_INSTRUMENT=Negative-Quattro_QQQ:40eV
FILENAME=hmdb_intermediate.mgf
SEQ=*..*
IONMODE=Negative
ORGANISM=HMDB
NAME=HMDB:HMDB00321-536 2-Hydroxyadipic acid M-H
PI=HMDB
DATACOLLECTOR=HMDB
SMILES=OC(CCCC(O)=O)C(O)=O
INCHI=InChI=1S/C6H10O5/c7-4(6(10)11)2-1-3-5(8)9/h4,7H,1-3H2,(H,8,9)(H,10,11)
INCHIAUX=N/A
PUBMED=N/A
SUBMITUSER=mwang87
TAGS=
LIBRARYQUALITY=3
SPECTRUMID=CCMSLIB00000425890
SCANS=862
43.63 100.0 
45.562 53.333 
59.422 92.0 
END IONS

BEGIN IONS
PEPMASS=115.112
CHARGE=1+
MSLEVEL=2
SOURCE_INSTRUMENT=Positive-Quattro_QQQ:25eV
FILENAME=hmdb_intermediate.mgf
SEQ=*..*
IONMODE=Positive
ORGANISM=HMDB
NAME=HMDB:HMDB03671-2341 2-Heptanone M+H
PI=HMDB
DATACOLLECTOR=HMDB
SMILES=CCCCCC(C)=O
INCHI=InChI=1S/C7H14O/c1-3-4-5-6-7(2)8/h3-6H2,1-2H3
INCHIAUX=N/A
PUBMED=N/A
SUBMITUSER=mwang87
TAGS=
LIBRARYQUALITY=3
SPECTRUMID=CCMSLIB00000425891
SCANS=863
73.94 100.0 
END IONS

BEGIN IONS
PEPMASS=523.998
CHARGE=1+
MSLEVEL=2
SOURCE_INSTRUMENT=Positive-Quattro_QQQ:40eV
FILENAME=hmdb_intermediate.mgf
SEQ=*..*
IONMODE=Positive
ORGANISM=HMDB
NAME=HMDB:HMDB01273-1503 Guanosine triphosphate M+H
PI=HMDB
DATACOLLECTOR=HMDB
SMILES=NC1=NC2=C(N=CN2[C@@H]2O[C@H](COP(O)(=O)OP(O)(=O)OP(O)(O)=O)[C@@H](O)[C@H]2O)C(=O)N1
INCHI=InChI=1S/C10H16N5O14P3/c11-10-13-7-4(8(18)14-10)12-2-15(7)9-6(17)5(16)3(27-9)1-26-31(22,23)29-32(24,25)28-30(19,20)21/h2-3,5-6,9,16-17H,1H2,(H,22,23)(H,24,25)(H2,19,20,21)(H3,11,13,14,18)/t3-,5-,6-,9-/m1/s1
INCHIAUX=N/A
PUBMED=N/A
SUBMITUSER=mwang87
TAGS=
LIBRARYQUALITY=3
SPECTRUMID=CCMSLIB00000425892
SCANS=864
190.0 100.0 
END IONS

BEGIN IONS
PEPMASS=262.14
CHARGE=1+
MSLEVEL=2
SOURCE_INSTRUMENT=Positive-Quattro_QQQ:10eV
FILENAME=hmdb_intermediate.mgf
SEQ=*..*
IONMODE=Positive
ORGANISM=HMDB
NAME=HMDB:HMDB04987-2424 Alpha-Aspartyl-lysine M+H
PI=HMDB
DATACOLLECTOR=HMDB
SMILES=NCCCC[C@H](NC(=O)[C@@H](N)CC(O)=O)C(O)=O
INCHI=InChI=1S/C10H19N3O5/c11-4-2-1-3-7(10(17)18)13-9(16)6(12)5-8(14)15/h6-7H,1-5,11-12H2,(H,13,16)(H,14,15)(H,17,18)/t6-,7-/m0/s1
INCHIAUX=N/A
PUBMED=N/A
SUBMITUSER=mwang87
TAGS=
LIBRARYQUALITY=3
SPECTRUMID=CCMSLIB00000425893
SCANS=865
262.0 100.0 
END IONS

BEGIN IONS
PEPMASS=273.185
CHARGE=1+
MSLEVEL=2
SOURCE_INSTRUMENT=Positive-Quattro_QQQ:10eV
FILENAME=hmdb_intermediate.mgf
SEQ=*..*
IONMODE=Positive
ORGANISM=HMDB
NAME=HMDB:HMDB00151-230 Estradiol M+H
PI=HMDB
DATACOLLECTOR=HMDB
SMILES=[H][C@@]12CC[C@H](O)[C@@]1(C)CC[C@]1([H])C3=C(CC[C@@]21[H])C=C(O)C=C3
INCHI=InChI=1S/C18H24O2/c1-18-9-8-14-13-5-3-12(19)10-11(13)2-4-15(14)16(18)6-7-17(18)20/h3,5,10,14-17,19-20H,2,4,6-9H2,1H3/t14-,15-,16+,17+,18+/m1/s1
INCHIAUX=N/A
PUBMED=N/A
SUBMITUSER=mwang87
TAGS=
LIBRARYQUALITY=3
SPECTRUMID=CCMSLIB00000425894
SCANS=866
273.09 100.0 
END IONS

BEGIN IONS
PEPMASS=343.124
CHARGE=1+
MSLEVEL=2
SOURCE_INSTRUMENT=Positive-Quattro_QQQ:25eV
FILENAME=hmdb_intermediate.mgf
SEQ=*..*
IONMODE=Positive
ORGANISM=HMDB
NAME=HMDB:HMDB00055-88 Cellobiose M+H
PI=HMDB
DATACOLLECTOR=HMDB
SMILES=OC[C@H]1O[C@@H](O[C@H]2[C@H](O)[C@@H](O)[C@H](O)O[C@@H]2CO)[C@H](O)[C@@H](O)[C@@H]1O
INCHI=InChI=1S/C12H22O11/c13-1-3-5(15)6(16)9(19)12(22-3)23-10-4(2-14)21-11(20)8(18)7(10)17/h3-20H,1-2H2/t3-,4-,5-,6+,7-,8-,9-,10-,11-,12+/m1/s1
INCHIAUX=N/A
PUBMED=N/A
SUBMITUSER=mwang87
TAGS=
LIBRARYQUALITY=3
SPECTRUMID=CCMSLIB00000425895
SCANS=867
85.253 100.0 
END IONS

BEGIN IONS
PEPMASS=284.099
CHARGE=1+
MSLEVEL=2
SOURCE_INSTRUMENT=Positive-Quattro_QQQ:10eV
FILENAME=hmdb_intermediate.mgf
SEQ=*..*
IONMODE=Positive
ORGANISM=HMDB
NAME=HMDB:HMDB00133-203 Guanosine M+H
PI=HMDB
DATACOLLECTOR=HMDB
SMILES=NC1=NC2=C(N=CN2[C@@H]2O[C@H](CO)[C@@H](O)[C@H]2O)C(=O)N1
INCHI=InChI=1S/C10H13N5O5/c11-10-13-7-4(8(19)14-10)12-2-15(7)9-6(18)5(17)3(1-16)20-9/h2-3,5-6,9,16-18H,1H2,(H3,11,13,14,19)/t3-,5-,6-,9-/m1/s1
INCHIAUX=N/A
PUBMED=N/A
SUBMITUSER=mwang87
TAGS=
LIBRARYQUALITY=3
SPECTRUMID=CCMSLIB00000425896
SCANS=868
151.953 100.0 
END IONS

BEGIN IONS
PEPMASS=215.128
CHARGE=1+
MSLEVEL=2
SOURCE_INSTRUMENT=Negative-Quattro_QQQ:40eV
FILENAME=hmdb_intermediate.mgf
SEQ=*..*
IONMODE=Negative
ORGANISM=HMDB
NAME=HMDB:HMDB00888-1252 Undecanedioic acid M-H
PI=HMDB
DATACOLLECTOR=HMDB
SMILES=OC(=O)CCCCCCCCCC(O)=O
INCHI=InChI=1S/C11H20O4/c12-10(13)8-6-4-2-1-3-5-7-9-11(14)15/h1-9H2,(H,12,13)(H,14,15)
INCHIAUX=N/A
PUBMED=N/A
SUBMITUSER=mwang87
TAGS=
LIBRARYQUALITY=3
SPECTRUMID=CCMSLIB00000425897
SCANS=869
54.464 100.0 
57.464 60.833 
197.333 90.0 
215.285 98.333 
END IONS

BEGIN IONS
PEPMASS=267.171
CHARGE=1+
MSLEVEL=2
SOURCE_INSTRUMENT=Positive-Quattro_QQQ:25eV
FILENAME=hmdb_intermediate.mgf
SEQ=*..*
IONMODE=Positive
ORGANISM=HMDB
NAME=HMDB:HMDB01924-1853 Atenolol M+H
PI=HMDB
DATACOLLECTOR=HMDB
SMILES=CC(C)NCC(O)COC1=CC=C(CC(N)=O)C=C1
INCHI=InChI=1S/C14H22N2O3/c1-10(2)16-8-12(17)9-19-13-5-3-11(4-6-13)7-14(15)18/h3-6,10,12,16-17H,7-9H2,1-2H3,(H2,15,18)
INCHIAUX=N/A
PUBMED=N/A
SUBMITUSER=mwang87
TAGS=
LIBRARYQUALITY=3
SPECTRUMID=CCMSLIB00000425898
SCANS=870
74.212 59.416 
144.468 53.138 
144.595 100.0 
178.206 64.331 
189.875 66.502 
267.13 55.659 
END IONS

BEGIN IONS
PEPMASS=146.082
CHARGE=1+
MSLEVEL=2
SOURCE_INSTRUMENT=Positive-Quattro_QQQ:25eV
FILENAME=hmdb_intermediate.mgf
SEQ=*..*
IONMODE=Positive
ORGANISM=HMDB
NAME=HMDB:HMDB00808-1156 N-Butyrylglycine M+H
PI=HMDB
DATACOLLECTOR=HMDB
SMILES=CCCC(=O)NCC(O)=O
INCHI=InChI=1S/C6H11NO3/c1-2-3-5(8)7-4-6(9)10/h2-4H2,1H3,(H,7,8)(H,9,10)
INCHIAUX=N/A
PUBMED=N/A
SUBMITUSER=mwang87
TAGS=
LIBRARYQUALITY=3
SPECTRUMID=CCMSLIB00000425899
SCANS=871
43.662 100.0 
END IONS

BEGIN IONS
PEPMASS=385.347
CHARGE=1+
MSLEVEL=2
SOURCE_INSTRUMENT=Positive-Quattro_QQQ:40eV
FILENAME=hmdb_intermediate.mgf
SEQ=*..*
IONMODE=Positive
ORGANISM=HMDB
NAME=HMDB:HMDB00921-1311 Cholestenone M+H
PI=HMDB
DATACOLLECTOR=HMDB
SMILES=[H][C@@]12CC[C@H]([C@H](C)CCCC(C)C)[C@@]1(C)CC[C@@]1([H])[C@@]2([H])CCC2=CC(=O)CC[C@]12C
INCHI=InChI=1S/C27H44O/c1-18(2)7-6-8-19(3)23-11-12-24-22-10-9-20-17-21(28)13-15-26(20,4)25(22)14-16-27(23,24)5/h17-19,22-25H,6-16H2,1-5H3/t19-,22+,23-,24+,25+,26+,27-/m1/s1
INCHIAUX=N/A
PUBMED=N/A
SUBMITUSER=mwang87
TAGS=
LIBRARYQUALITY=3
SPECTRUMID=CCMSLIB00000425900
SCANS=872
69.0 60.647 
81.0 94.854 
82.0 55.625 
93.0 51.101 
95.0 87.104 
96.0 100.0 
97.0 54.092 
107.0 61.06 
108.0 95.264 
109.0 71.265 
END IONS

BEGIN IONS
PEPMASS=187.097
CHARGE=1+
MSLEVEL=2
SOURCE_INSTRUMENT=Negative-Quattro_QQQ:40eV
FILENAME=hmdb_intermediate.mgf
SEQ=*..*
IONMODE=Negative
ORGANISM=HMDB
NAME=HMDB:HMDB00784-1121 Azelaic acid M-H
PI=HMDB
DATACOLLECTOR=HMDB
SMILES=OC(=O)CCCCCCCC(O)=O
INCHI=InChI=1S/C9H16O4/c10-8(11)6-4-2-1-3-5-7-9(12)13/h1-7H2,(H,10,11)(H,12,13)
INCHIAUX=N/A
PUBMED=N/A
SUBMITUSER=mwang87
TAGS=
LIBRARYQUALITY=3
SPECTRUMID=CCMSLIB00000425901
SCANS=873
57.183 78.161 
95.024 100.0 
187.06 87.356 
END IONS

BEGIN IONS
PEPMASS=126.103
CHARGE=1+
MSLEVEL=2
SOURCE_INSTRUMENT=Positive-Quattro_QQQ:10eV
FILENAME=hmdb_intermediate.mgf
SEQ=*..*
IONMODE=Positive
ORGANISM=HMDB
NAME=HMDB:HMDB00898-1271 1-Methylhistamine M+H
PI=HMDB
DATACOLLECTOR=HMDB
SMILES=CN1C=NC(CCN)=C1
INCHI=InChI=1S/C6H11N3/c1-9-4-6(2-3-7)8-5-9/h4-5H,2-3,7H2,1H3
INCHIAUX=N/A
PUBMED=N/A
SUBMITUSER=mwang87
TAGS=
LIBRARYQUALITY=3
SPECTRUMID=CCMSLIB00000425902
SCANS=874
109.367 100.0 
109.615 76.773 
END IONS

BEGIN IONS
PEPMASS=195.077
CHARGE=1+
MSLEVEL=2
SOURCE_INSTRUMENT=Positive-Quattro_QQQ:25eV
FILENAME=hmdb_intermediate.mgf
SEQ=*..*
IONMODE=Positive
ORGANISM=HMDB
NAME=HMDB:HMDB01867-1751 4-Aminohippuric acid M+H
PI=HMDB
DATACOLLECTOR=HMDB
SMILES=NC1=CC=C(C=C1)C(=O)NCC(O)=O
INCHI=InChI=1S/C9H10N2O3/c10-7-3-1-6(2-4-7)9(14)11-5-8(12)13/h1-4H,5,10H2,(H,11,14)(H,12,13)
INCHIAUX=N/A
PUBMED=N/A
SUBMITUSER=mwang87
TAGS=
LIBRARYQUALITY=3
SPECTRUMID=CCMSLIB00000425903
SCANS=875
120.158 100.0 
120.535 60.566 
END IONS

BEGIN IONS
PEPMASS=209.03
CHARGE=1+
MSLEVEL=2
SOURCE_INSTRUMENT=Negative-Quattro_QQQ:40eV
FILENAME=hmdb_intermediate.mgf
SEQ=*..*
IONMODE=Negative
ORGANISM=HMDB
NAME=HMDB:HMDB00639-875 Galactaric acid M-H
PI=HMDB
DATACOLLECTOR=HMDB
SMILES=O[C@@H]([C@@H](O)[C@H](O)C(O)=O)[C@@H](O)C(O)=O
INCHI=InChI=1S/C6H10O8/c7-1(3(9)5(11)12)2(8)4(10)6(13)14/h1-4,7-10H,(H,11,12)(H,13,14)/t1-,2+,3+,4-
INCHIAUX=N/A
PUBMED=N/A
SUBMITUSER=mwang87
TAGS=
LIBRARYQUALITY=3
SPECTRUMID=CCMSLIB00000425904
SCANS=876
43.624 71.765 
57.47 50.0 
59.441 72.941 
71.357 100.0 
END IONS

BEGIN IONS
PEPMASS=165.055
CHARGE=1+
MSLEVEL=2
SOURCE_INSTRUMENT=Positive-Quattro_QQQ:10eV
FILENAME=hmdb_intermediate.mgf
SEQ=*..*
IONMODE=Positive
ORGANISM=HMDB
NAME=HMDB:HMDB00205-328 Phenylpyruvic acid M+H
PI=HMDB
DATACOLLECTOR=HMDB
SMILES=OC(=O)C(=O)CC1=CC=CC=C1
INCHI=InChI=1S/C9H8O3/c10-8(9(11)12)6-7-4-2-1-3-5-7/h1-5H,6H2,(H,11,12)
INCHIAUX=N/A
PUBMED=N/A
SUBMITUSER=mwang87
TAGS=
LIBRARYQUALITY=3
SPECTRUMID=CCMSLIB00000425905
SCANS=877
105.0 70.424 
165.0 100.0 
END IONS

BEGIN IONS
PEPMASS=228.098
CHARGE=1+
MSLEVEL=2
SOURCE_INSTRUMENT=Positive-Quattro_QQQ:10eV
FILENAME=hmdb_intermediate.mgf
SEQ=*..*
IONMODE=Positive
ORGANISM=HMDB
NAME=HMDB:HMDB00014-22 Deoxycytidine M+H
PI=HMDB
DATACOLLECTOR=HMDB
SMILES=NC1=NC(=O)N(C=C1)[C@H]1C[C@H](O)[C@@H](CO)O1
INCHI=InChI=1S/C9H13N3O4/c10-7-1-2-12(9(15)11-7)8-3-5(14)6(4-13)16-8/h1-2,5-6,8,13-14H,3-4H2,(H2,10,11,15)/t5-,6+,8+/m0/s1
INCHIAUX=N/A
PUBMED=N/A
SUBMITUSER=mwang87
TAGS=
LIBRARYQUALITY=3
SPECTRUMID=CCMSLIB00000425906
SCANS=878
112.034 100.0 
END IONS

BEGIN IONS
PEPMASS=115.003
CHARGE=1+
MSLEVEL=2
SOURCE_INSTRUMENT=Negative-Quattro_QQQ:25eV
FILENAME=hmdb_intermediate.mgf
SEQ=*..*
IONMODE=Negative
ORGANISM=HMDB
NAME=HMDB:HMDB00176-281 Maleic acid M-H
PI=HMDB
DATACOLLECTOR=HMDB
SMILES=OC(=O)\C=C/C(O)=O
INCHI=InChI=1S/C4H4O4/c5-3(6)1-2-4(7)8/h1-2H,(H,5,6)(H,7,8)/b2-1-
INCHIAUX=N/A
PUBMED=N/A
SUBMITUSER=mwang87
TAGS=
LIBRARYQUALITY=3
SPECTRUMID=CCMSLIB00000425907
SCANS=879
71.047 100.0 
END IONS

BEGIN IONS
PEPMASS=243.16
CHARGE=1+
MSLEVEL=2
SOURCE_INSTRUMENT=Negative-Quattro_QQQ:25eV
FILENAME=hmdb_intermediate.mgf
SEQ=*..*
IONMODE=Negative
ORGANISM=HMDB
NAME=HMDB:HMDB02327-2059 1,11-Undecanedicarboxylic acid M-H
PI=HMDB
DATACOLLECTOR=HMDB
SMILES=OC(=O)CCCCCCCCCCCC(O)=O
INCHI=InChI=1S/C13H24O4/c14-12(15)10-8-6-4-2-1-3-5-7-9-11-13(16)17/h1-11H2,(H,14,15)(H,16,17)
INCHIAUX=N/A
PUBMED=N/A
SUBMITUSER=mwang87
TAGS=
LIBRARYQUALITY=3
SPECTRUMID=CCMSLIB00000425908
SCANS=880
180.0 54.569 
224.0 100.0 
225.0 55.478 
END IONS

BEGIN IONS
PEPMASS=250.025
CHARGE=1+
MSLEVEL=2
SOURCE_INSTRUMENT=Positive-Quattro_QQQ:40eV
FILENAME=hmdb_intermediate.mgf
SEQ=*..*
IONMODE=Positive
ORGANISM=HMDB
NAME=HMDB:HMDB01915-1830 Alendronic acid M+H
PI=HMDB
DATACOLLECTOR=HMDB
SMILES=NCCCC(O)(P(O)(O)=O)P(O)(O)=O
INCHI=InChI=1S/C4H13NO7P2/c5-3-1-2-4(6,13(7,8)9)14(10,11)12/h6H,1-3,5H2,(H2,7,8,9)(H2,10,11,12)
INCHIAUX=N/A
PUBMED=N/A
SUBMITUSER=mwang87
TAGS=
LIBRARYQUALITY=3
SPECTRUMID=CCMSLIB00000425909
SCANS=881
58.56 76.247 
77.449 100.0 
144.681 52.061 
150.274 77.112 
END IONS

BEGIN IONS
PEPMASS=103.04
CHARGE=1+
MSLEVEL=2
SOURCE_INSTRUMENT=Negative-Quattro_QQQ:10eV
FILENAME=hmdb_intermediate.mgf
SEQ=*..*
IONMODE=Negative
ORGANISM=HMDB
NAME=HMDB:HMDB00729-1023 Alpha-Hydroxyisobutyric acid M-H
PI=HMDB
DATACOLLECTOR=HMDB
SMILES=CC(C)(O)C(O)=O
INCHI=InChI=1S/C4H8O3/c1-4(2,7)3(5)6/h7H,1-2H3,(H,5,6)
INCHIAUX=N/A
PUBMED=N/A
SUBMITUSER=mwang87
TAGS=
LIBRARYQUALITY=3
SPECTRUMID=CCMSLIB00000425910
SCANS=882
57.493 67.568 
103.248 100.0 
END IONS

BEGIN IONS
PEPMASS=109.065
CHARGE=1+
MSLEVEL=2
SOURCE_INSTRUMENT=Positive-Quattro_QQQ:10eV
FILENAME=hmdb_intermediate.mgf
SEQ=*..*
IONMODE=Positive
ORGANISM=HMDB
NAME=HMDB:HMDB02055-1971 o-Cresol M+H
PI=HMDB
DATACOLLECTOR=HMDB
SMILES=CC1=CC=CC=C1O
INCHI=InChI=1S/C7H8O/c1-6-4-2-3-5-7(6)8/h2-5,8H,1H3
INCHIAUX=N/A
PUBMED=N/A
SUBMITUSER=mwang87
TAGS=
LIBRARYQUALITY=3
SPECTRUMID=CCMSLIB00000425911
SCANS=883
108.0 100.0 
109.0 51.405 
END IONS

BEGIN IONS
PEPMASS=155.009
CHARGE=1+
MSLEVEL=2
SOURCE_INSTRUMENT=Negative-Quattro_QQQ:40eV
FILENAME=hmdb_intermediate.mgf
SEQ=*..*
IONMODE=Negative
ORGANISM=HMDB
NAME=HMDB:HMDB00226-375 Orotic acid M-H
PI=HMDB
DATACOLLECTOR=HMDB
SMILES=OC(=O)C1=CC(=O)NC(=O)N1
INCHI=InChI=1S/C5H4N2O4/c8-3-1-2(4(9)10)6-5(11)7-3/h1H,(H,9,10)(H2,6,7,8,11)
INCHIAUX=N/A
PUBMED=N/A
SUBMITUSER=mwang87
TAGS=
LIBRARYQUALITY=3
SPECTRUMID=CCMSLIB00000425912
SCANS=884
42.201 100.0 
END IONS

BEGIN IONS
PEPMASS=146.093
CHARGE=1+
MSLEVEL=2
SOURCE_INSTRUMENT=Positive-Quattro_QQQ:25eV
FILENAME=hmdb_intermediate.mgf
SEQ=*..*
IONMODE=Positive
ORGANISM=HMDB
NAME=HMDB:HMDB03464-2320 4-Guanidinobutanoic acid M+H
PI=HMDB
DATACOLLECTOR=HMDB
SMILES=NC(N)=NCCCC(O)=O
INCHI=InChI=1S/C5H11N3O2/c6-5(7)8-3-1-2-4(9)10/h1-3H2,(H,9,10)(H4,6,7,8)
INCHIAUX=N/A
PUBMED=N/A
SUBMITUSER=mwang87
TAGS=
LIBRARYQUALITY=3
SPECTRUMID=CCMSLIB00000425913
SCANS=885
86.0 100.0 
END IONS

BEGIN IONS
PEPMASS=221.06
CHARGE=1+
MSLEVEL=2
SOURCE_INSTRUMENT=Negative-Quattro_QQQ:10eV
FILENAME=hmdb_intermediate.mgf
SEQ=*..*
IONMODE=Negative
ORGANISM=HMDB
NAME=HMDB:HMDB03075-2191 Flavone M-H
PI=HMDB
DATACOLLECTOR=HMDB
SMILES=O=C1C=C(OC2=CC=CC=C12)C1=CC=CC=C1
INCHI=InChI=1S/C15H10O2/c16-13-10-15(11-6-2-1-3-7-11)17-14-9-5-4-8-12(13)14/h1-10H
INCHIAUX=N/A
PUBMED=N/A
SUBMITUSER=mwang87
TAGS=
LIBRARYQUALITY=3
SPECTRUMID=CCMSLIB00000425914
SCANS=886
220.0 100.0 
221.0 52.618 
END IONS

BEGIN IONS
PEPMASS=165.076
CHARGE=1+
MSLEVEL=2
SOURCE_INSTRUMENT=Positive-Quattro_QQQ:40eV
FILENAME=hmdb_intermediate.mgf
SEQ=*..*
IONMODE=Positive
ORGANISM=HMDB
NAME=HMDB:HMDB00849-1201 Rhamnose M+H
PI=HMDB
DATACOLLECTOR=HMDB
SMILES=C[C@@H]1OC(O)[C@H](O)[C@H](O)[C@H]1O
INCHI=InChI=1S/C6H12O5/c1-2-3(7)4(8)5(9)6(10)11-2/h2-10H,1H3/t2-,3-,4+,5+,6?/m0/s1
INCHIAUX=N/A
PUBMED=N/A
SUBMITUSER=mwang87
TAGS=
LIBRARYQUALITY=3
SPECTRUMID=CCMSLIB00000425915
SCANS=887
69.0 100.0 
END IONS

BEGIN IONS
PEPMASS=126.103
CHARGE=1+
MSLEVEL=2
SOURCE_INSTRUMENT=Positive-Quattro_QQQ:40eV
FILENAME=hmdb_intermediate.mgf
SEQ=*..*
IONMODE=Positive
ORGANISM=HMDB
NAME=HMDB:HMDB01861-1740 3-Methylhistamine M+H
PI=HMDB
DATACOLLECTOR=HMDB
SMILES=CN1C=NC=C1CCN
INCHI=InChI=1S/C6H11N3/c1-9-5-8-4-6(9)2-3-7/h4-5H,2-3,7H2,1H3
INCHIAUX=N/A
PUBMED=N/A
SUBMITUSER=mwang87
TAGS=
LIBRARYQUALITY=3
SPECTRUMID=CCMSLIB00000425916
SCANS=888
80.943 100.0 
81.563 52.123 
END IONS

BEGIN IONS
PEPMASS=375.29
CHARGE=1+
MSLEVEL=2
SOURCE_INSTRUMENT=Positive-Quattro_QQQ:10eV
FILENAME=hmdb_intermediate.mgf
SEQ=*..*
IONMODE=Positive
ORGANISM=HMDB
NAME=HMDB:HMDB00308-525 3b-Hydroxy-5-cholenoic acid M+H
PI=HMDB
DATACOLLECTOR=HMDB
SMILES=[H][C@@]12CC[C@H]([C@H](C)CCC(O)=O)[C@@]1(C)CC[C@@]1([H])[C@@]2([H])CC=C2C[C@@H](O)CC[C@]12C
INCHI=InChI=1S/C24H38O3/c1-15(4-9-22(26)27)19-7-8-20-18-6-5-16-14-17(25)10-12-23(16,2)21(18)11-13-24(19,20)3/h5,15,17-21,25H,4,6-14H2,1-3H3,(H,26,27)/t15-,17+,18+,19-,20+,21+,23+,24-/m1/s1
INCHIAUX=N/A
PUBMED=N/A
SUBMITUSER=mwang87
TAGS=
LIBRARYQUALITY=3
SPECTRUMID=CCMSLIB00000425917
SCANS=889
96.987 100.0 
356.785 78.213 
END IONS

BEGIN IONS
PEPMASS=159.175
CHARGE=1+
MSLEVEL=2
SOURCE_INSTRUMENT=Positive-Quattro_QQQ:25eV
FILENAME=hmdb_intermediate.mgf
SEQ=*..*
IONMODE=Positive
ORGANISM=HMDB
NAME=HMDB:HMDB11624-2491 Decyl alcohol  M+H
PI=HMDB
DATACOLLECTOR=HMDB
SMILES=CCCCCCCCCCO
INCHI=InChI=1S/C10H22O/c1-2-3-4-5-6-7-8-9-10-11/h11H,2-10H2,1H3
INCHIAUX=N/A
PUBMED=N/A
SUBMITUSER=mwang87
TAGS=
LIBRARYQUALITY=3
SPECTRUMID=CCMSLIB00000425918
SCANS=890
117.52 100.0 
END IONS

BEGIN IONS
PEPMASS=285.207
CHARGE=1+
MSLEVEL=2
SOURCE_INSTRUMENT=Negative-Quattro_QQQ:40eV
FILENAME=hmdb_intermediate.mgf
SEQ=*..*
IONMODE=Negative
ORGANISM=HMDB
NAME=HMDB:HMDB00672-929 Hexadecanedioic acid M-H
PI=HMDB
DATACOLLECTOR=HMDB
SMILES=OC(=O)CCCCCCCCCCCCCCC(O)=O
INCHI=InChI=1S/C16H30O4/c17-15(18)13-11-9-7-5-3-1-2-4-6-8-10-12-14-16(19)20/h1-14H2,(H,17,18)(H,19,20)
INCHIAUX=N/A
PUBMED=N/A
SUBMITUSER=mwang87
TAGS=
LIBRARYQUALITY=3
SPECTRUMID=CCMSLIB00000425919
SCANS=891
57.519 100.0 
END IONS

BEGIN IONS
PEPMASS=269.063
CHARGE=1+
MSLEVEL=2
SOURCE_INSTRUMENT=Positive-Quattro_QQQ:10eV
FILENAME=hmdb_intermediate.mgf
SEQ=*..*
IONMODE=Positive
ORGANISM=HMDB
NAME=HMDB:HMDB00575-803 DL-Homocystine M+H
PI=HMDB
DATACOLLECTOR=HMDB
SMILES=NC(CCSSCCC(N)C(O)=O)C(O)=O
INCHI=InChI=1S/C8H16N2O4S2/c9-5(7(11)12)1-3-15-16-4-2-6(10)8(13)14/h5-6H,1-4,9-10H2,(H,11,12)(H,13,14)
INCHIAUX=N/A
PUBMED=N/A
SUBMITUSER=mwang87
TAGS=
LIBRARYQUALITY=3
SPECTRUMID=CCMSLIB00000425920
SCANS=892
135.0 91.483 
136.0 100.0 
END IONS

BEGIN IONS
PEPMASS=537.446
CHARGE=1+
MSLEVEL=2
SOURCE_INSTRUMENT=Positive-Quattro_QQQ:40eV
FILENAME=hmdb_intermediate.mgf
SEQ=*..*
IONMODE=Positive
ORGANISM=HMDB
NAME=HMDB:HMDB00561-784 B-Carotene M+H
PI=HMDB
DATACOLLECTOR=HMDB
SMILES=C\C(\C=C\C=C(/C)\C=C\C1=C(C)CCCC1(C)C)=C/C=C/C=C(\C)/C=C/C=C(\C)/C=C/C1=C(C)CCCC1(C)C
INCHI=InChI=1S/C40H56/c1-31(19-13-21-33(3)25-27-37-35(5)23-15-29-39(37,7)8)17-11-12-18-32(2)20-14-22-34(4)26-28-38-36(6)24-16-30-40(38,9)10/h11-14,17-22,25-28H,15-16,23-24,29-30H2,1-10H3/b12-11+,19-13+,20-14+,27-25+,28-26+,31-17+,32-18+,33-21+,34-22+
INCHIAUX=N/A
PUBMED=N/A
SUBMITUSER=mwang87
TAGS=
LIBRARYQUALITY=3
SPECTRUMID=CCMSLIB00000425921
SCANS=893
333.09 100.0 
409.185 95.19 
END IONS

BEGIN IONS
PEPMASS=59.0497
CHARGE=1+
MSLEVEL=2
SOURCE_INSTRUMENT=Positive-Quattro_QQQ:10eV
FILENAME=hmdb_intermediate.mgf
SEQ=*..*
IONMODE=Positive
ORGANISM=HMDB
NAME=HMDB:HMDB01659-1672 Acetone M+H
PI=HMDB
DATACOLLECTOR=HMDB
SMILES=CC(C)=O
INCHI=InChI=1S/C3H6O/c1-3(2)4/h1-2H3
INCHIAUX=N/A
PUBMED=N/A
SUBMITUSER=mwang87
TAGS=
LIBRARYQUALITY=3
SPECTRUMID=CCMSLIB00000425922
SCANS=894
58.0 100.0 
END IONS

BEGIN IONS
PEPMASS=124.04
CHARGE=1+
MSLEVEL=2
SOURCE_INSTRUMENT=Positive-Quattro_QQQ:25eV
FILENAME=hmdb_intermediate.mgf
SEQ=*..*
IONMODE=Positive
ORGANISM=HMDB
NAME=HMDB:HMDB01488-1605 Nicotinic acid M+H
PI=HMDB
DATACOLLECTOR=HMDB
SMILES=OC(=O)C1=CN=CC=C1
INCHI=InChI=1S/C6H5NO2/c8-6(9)5-2-1-3-7-4-5/h1-4H,(H,8,9)
INCHIAUX=N/A
PUBMED=N/A
SUBMITUSER=mwang87
TAGS=
LIBRARYQUALITY=3
SPECTRUMID=CCMSLIB00000425923
SCANS=895
78.111 96.825 
80.071 100.0 
END IONS

BEGIN IONS
PEPMASS=93.0552
CHARGE=1+
MSLEVEL=2
SOURCE_INSTRUMENT=Positive-Quattro_QQQ:10eV
FILENAME=hmdb_intermediate.mgf
SEQ=*..*
IONMODE=Positive
ORGANISM=HMDB
NAME=HMDB:HMDB00131-200 Glycerol M+H
PI=HMDB
DATACOLLECTOR=HMDB
SMILES=OCC(O)CO
INCHI=InChI=1S/C3H8O3/c4-1-3(6)2-5/h3-6H,1-2H2
INCHIAUX=N/A
PUBMED=N/A
SUBMITUSER=mwang87
TAGS=
LIBRARYQUALITY=3
SPECTRUMID=CCMSLIB00000425924
SCANS=896
57.389 100.0 
57.513 93.312 
END IONS

BEGIN IONS
PEPMASS=112.087
CHARGE=1+
MSLEVEL=2
SOURCE_INSTRUMENT=Positive-Quattro_QQQ:10eV
FILENAME=hmdb_intermediate.mgf
SEQ=*..*
IONMODE=Positive
ORGANISM=HMDB
NAME=HMDB:HMDB60263-1223 Histamium M+H
PI=HMDB
DATACOLLECTOR=HMDB
SMILES=NCCC1=CN=CN1
INCHI=InChI=1S/C5H9N3/c6-2-1-5-3-7-4-8-5/h3-4H,1-2,6H2,(H,7,8)
INCHIAUX=N/A
PUBMED=N/A
SUBMITUSER=mwang87
TAGS=
LIBRARYQUALITY=3
SPECTRUMID=CCMSLIB00000425925
SCANS=897
95.04 100.0 
111.998 76.652 
END IONS

BEGIN IONS
PEPMASS=241.13
CHARGE=1+
MSLEVEL=2
SOURCE_INSTRUMENT=Positive-Quattro_QQQ:25eV
FILENAME=hmdb_intermediate.mgf
SEQ=*..*
IONMODE=Positive
ORGANISM=HMDB
NAME=HMDB:HMDB00745-1060 Homocarnosine M+H
PI=HMDB
DATACOLLECTOR=HMDB
SMILES=NCCCC(=O)N[C@@H](CC1=CNC=N1)C(O)=O
INCHI=InChI=1S/C10H16N4O3/c11-3-1-2-9(15)14-8(10(16)17)4-7-5-12-6-13-7/h5-6,8H,1-4,11H2,(H,12,13)(H,14,15)(H,16,17)/t8-/m0/s1
INCHIAUX=N/A
PUBMED=N/A
SUBMITUSER=mwang87
TAGS=
LIBRARYQUALITY=3
SPECTRUMID=CCMSLIB00000425926
SCANS=898
110.041 100.0 
END IONS

BEGIN IONS
PEPMASS=197.067
CHARGE=1+
MSLEVEL=2
SOURCE_INSTRUMENT=Positive-Quattro_QQQ:40eV
FILENAME=hmdb_intermediate.mgf
SEQ=*..*
IONMODE=Positive
ORGANISM=HMDB
NAME=HMDB:HMDB01857-1728 1,3-Dimethyluric acid M+H
PI=HMDB
DATACOLLECTOR=HMDB
SMILES=CN1C2=C(NC(=O)N2)C(=O)N(C)C1=O
INCHI=InChI=1S/C7H8N4O3/c1-10-4-3(8-6(13)9-4)5(12)11(2)7(10)14/h1-2H3,(H2,8,9,13)
INCHIAUX=N/A
PUBMED=N/A
SUBMITUSER=mwang87
TAGS=
LIBRARYQUALITY=3
SPECTRUMID=CCMSLIB00000425927
SCANS=899
70.673 58.122 
77.314 52.291 
95.607 51.589 
113.024 56.256 
118.538 100.0 
180.693 84.721 
END IONS

BEGIN IONS
PEPMASS=254.089
CHARGE=1+
MSLEVEL=2
SOURCE_INSTRUMENT=Positive-Quattro_QQQ:25eV
FILENAME=hmdb_intermediate.mgf
SEQ=*..*
IONMODE=Positive
ORGANISM=HMDB
NAME=HMDB:HMDB00845-1191 Neopterin M+H
PI=HMDB
DATACOLLECTOR=HMDB
SMILES=NC1=NC2=C(N=C(C=N2)C(O)C(O)CO)C(=O)N1
INCHI=InChI=1S/C9H11N5O4/c10-9-13-7-5(8(18)14-9)12-3(1-11-7)6(17)4(16)2-15/h1,4,6,15-17H,2H2,(H3,10,11,13,14,18)
INCHIAUX=N/A
PUBMED=N/A
SUBMITUSER=mwang87
TAGS=
LIBRARYQUALITY=3
SPECTRUMID=CCMSLIB00000425928
SCANS=900
177.022 58.564 
189.797 74.586 
193.412 55.249 
205.992 100.0 
END IONS

BEGIN IONS
PEPMASS=91.0759
CHARGE=1+
MSLEVEL=2
SOURCE_INSTRUMENT=Positive-Quattro_QQQ:25eV
FILENAME=hmdb_intermediate.mgf
SEQ=*..*
IONMODE=Positive
ORGANISM=HMDB
NAME=HMDB:HMDB03156-2204 2,3-Butanediol M+H
PI=HMDB
DATACOLLECTOR=HMDB
SMILES=CC(O)C(C)O
INCHI=InChI=1S/C4H10O2/c1-3(5)4(2)6/h3-6H,1-2H3
INCHIAUX=N/A
PUBMED=N/A
SUBMITUSER=mwang87
TAGS=
LIBRARYQUALITY=3
SPECTRUMID=CCMSLIB00000425929
SCANS=901
64.0 100.0 
65.0 54.09 
END IONS

BEGIN IONS
PEPMASS=120.066
CHARGE=1+
MSLEVEL=2
SOURCE_INSTRUMENT=Positive-Quattro_QQQ:25eV
FILENAME=hmdb_intermediate.mgf
SEQ=*..*
IONMODE=Positive
ORGANISM=HMDB
NAME=HMDB:HMDB00167-264 L-Threonine M+H
PI=HMDB
DATACOLLECTOR=HMDB
SMILES=C[C@@H](O)[C@H](N)C(O)=O
INCHI=InChI=1S/C4H9NO3/c1-2(6)3(5)4(7)8/h2-3,6H,5H2,1H3,(H,7,8)/t2-,3+/m1/s1
INCHIAUX=N/A
PUBMED=N/A
SUBMITUSER=mwang87
TAGS=
LIBRARYQUALITY=3
SPECTRUMID=CCMSLIB00000425930
SCANS=902
56.214 100.0 
END IONS

BEGIN IONS
PEPMASS=129.066
CHARGE=1+
MSLEVEL=2
SOURCE_INSTRUMENT=Positive-Quattro_QQQ:25eV
FILENAME=hmdb_intermediate.mgf
SEQ=*..*
IONMODE=Positive
ORGANISM=HMDB
NAME=HMDB:HMDB00079-130 Dihydrothymine M+H
PI=HMDB
DATACOLLECTOR=HMDB
SMILES=CC1CNC(=O)NC1=O
INCHI=InChI=1S/C5H8N2O2/c1-3-2-6-5(9)7-4(3)8/h3H,2H2,1H3,(H2,6,7,8,9)
INCHIAUX=N/A
PUBMED=N/A
SUBMITUSER=mwang87
TAGS=
LIBRARYQUALITY=3
SPECTRUMID=CCMSLIB00000425931
SCANS=903
41.353 100.0 
END IONS

BEGIN IONS
PEPMASS=183.066
CHARGE=1+
MSLEVEL=2
SOURCE_INSTRUMENT=Negative-Quattro_QQQ:25eV
FILENAME=hmdb_intermediate.mgf
SEQ=*..*
IONMODE=Negative
ORGANISM=HMDB
NAME=HMDB:HMDB01490-1608 Vanylglycol M-H
PI=HMDB
DATACOLLECTOR=HMDB
SMILES=COC1=CC(=CC=C1O)C(O)CO
INCHI=InChI=1S/C9H12O4/c1-13-9-4-6(8(12)5-10)2-3-7(9)11/h2-4,8,10-12H,5H2,1H3
INCHIAUX=N/A
PUBMED=N/A
SUBMITUSER=mwang87
TAGS=
LIBRARYQUALITY=3
SPECTRUMID=CCMSLIB00000425932
SCANS=904
121.0 100.0 
END IONS

BEGIN IONS
PEPMASS=160.097
CHARGE=1+
MSLEVEL=2
SOURCE_INSTRUMENT=Positive-Quattro_QQQ:10eV
FILENAME=hmdb_intermediate.mgf
SEQ=*..*
IONMODE=Positive
ORGANISM=HMDB
NAME=HMDB:HMDB00927-1318 Valerylglycine M+H
PI=HMDB
DATACOLLECTOR=HMDB
SMILES=CCCCC(=O)NCC(O)=O
INCHI=InChI=1S/C7H13NO3/c1-2-3-4-6(9)8-5-7(10)11/h2-5H2,1H3,(H,8,9)(H,10,11)
INCHIAUX=N/A
PUBMED=N/A
SUBMITUSER=mwang87
TAGS=
LIBRARYQUALITY=3
SPECTRUMID=CCMSLIB00000425933
SCANS=905
76.341 100.0 
85.335 87.747 
END IONS

BEGIN IONS
PEPMASS=189.103
CHARGE=1+
MSLEVEL=2
SOURCE_INSTRUMENT=Negative-Quattro_QQQ:25eV
FILENAME=hmdb_intermediate.mgf
SEQ=*..*
IONMODE=Negative
ORGANISM=HMDB
NAME=HMDB:HMDB04095-2362 5-Methoxytryptamine M-H
PI=HMDB
DATACOLLECTOR=HMDB
SMILES=COC1=CC2=C(NC=C2CCN)C=C1
INCHI=InChI=1S/C11H14N2O/c1-14-9-2-3-11-10(6-9)8(4-5-12)7-13-11/h2-3,6-7,13H,4-5,12H2,1H3
INCHIAUX=N/A
PUBMED=N/A
SUBMITUSER=mwang87
TAGS=
LIBRARYQUALITY=3
SPECTRUMID=CCMSLIB00000425934
SCANS=906
143.0 100.0 
END IONS

BEGIN IONS
PEPMASS=289.217
CHARGE=1+
MSLEVEL=2
SOURCE_INSTRUMENT=Positive-Quattro_QQQ:25eV
FILENAME=hmdb_intermediate.mgf
SEQ=*..*
IONMODE=Positive
ORGANISM=HMDB
NAME=HMDB:HMDB00234-392 Testosterone M+H
PI=HMDB
DATACOLLECTOR=HMDB
SMILES=[H][C@@]12CC[C@H](O)[C@@]1(C)CC[C@@]1([H])[C@@]2([H])CCC2=CC(=O)CC[C@]12C
INCHI=InChI=1S/C19H28O2/c1-18-9-7-13(20)11-12(18)3-4-14-15-5-6-17(21)19(15,2)10-8-16(14)18/h11,14-17,21H,3-10H2,1-2H3/t14-,15-,16-,17-,18-,19-/m0/s1
INCHIAUX=N/A
PUBMED=N/A
SUBMITUSER=mwang87
TAGS=
LIBRARYQUALITY=3
SPECTRUMID=CCMSLIB00000425935
SCANS=907
97.097 100.0 
109.05 79.348 
END IONS

BEGIN IONS
PEPMASS=99.0446
CHARGE=1+
MSLEVEL=2
SOURCE_INSTRUMENT=Negative-Quattro_QQQ:40eV
FILENAME=hmdb_intermediate.mgf
SEQ=*..*
IONMODE=Negative
ORGANISM=HMDB
NAME=HMDB:HMDB01470-1594 Tiglic acid M-H
PI=HMDB
DATACOLLECTOR=HMDB
SMILES=C\C=C(/C)C(O)=O
INCHI=InChI=1S/C5H8O2/c1-3-4(2)5(6)7/h3H,1-2H3,(H,6,7)/b4-3+
INCHIAUX=N/A
PUBMED=N/A
SUBMITUSER=mwang87
TAGS=
LIBRARYQUALITY=3
SPECTRUMID=CCMSLIB00000425936
SCANS=908
99.352 100.0 
END IONS

BEGIN IONS
PEPMASS=343.124
CHARGE=1+
MSLEVEL=2
SOURCE_INSTRUMENT=Positive-Quattro_QQQ:10eV
FILENAME=hmdb_intermediate.mgf
SEQ=*..*
IONMODE=Positive
ORGANISM=HMDB
NAME=HMDB:HMDB00055-87 Cellobiose M+H
PI=HMDB
DATACOLLECTOR=HMDB
SMILES=OC[C@H]1O[C@@H](O[C@H]2[C@H](O)[C@@H](O)[C@H](O)O[C@@H]2CO)[C@H](O)[C@@H](O)[C@@H]1O
INCHI=InChI=1S/C12H22O11/c13-1-3-5(15)6(16)9(19)12(22-3)23-10-4(2-14)21-11(20)8(18)7(10)17/h3-20H,1-2H2/t3-,4-,5-,6+,7-,8-,9-,10-,11-,12+/m1/s1
INCHIAUX=N/A
PUBMED=N/A
SUBMITUSER=mwang87
TAGS=
LIBRARYQUALITY=3
SPECTRUMID=CCMSLIB00000425937
SCANS=909
163.075 100.0 
END IONS

BEGIN IONS
PEPMASS=167.057
CHARGE=1+
MSLEVEL=2
SOURCE_INSTRUMENT=Positive-Quattro_QQQ:25eV
FILENAME=hmdb_intermediate.mgf
SEQ=*..*
IONMODE=Positive
ORGANISM=HMDB
NAME=HMDB:HMDB01886-1787 3-Methylxanthine M+H
PI=HMDB
DATACOLLECTOR=HMDB
SMILES=CN1C2=C(NC=N2)C(=O)NC1=O
INCHI=InChI=1S/C6H6N4O2/c1-10-4-3(7-2-8-4)5(11)9-6(10)12/h2H,1H3,(H,7,8)(H,9,11,12)
INCHIAUX=N/A
PUBMED=N/A
SUBMITUSER=mwang87
TAGS=
LIBRARYQUALITY=3
SPECTRUMID=CCMSLIB00000425938
SCANS=910
124.021 56.319 
124.523 52.497 
166.437 53.573 
166.688 100.0 
167.567 76.723 
END IONS

BEGIN IONS
PEPMASS=153.055
CHARGE=1+
MSLEVEL=2
SOURCE_INSTRUMENT=Positive-Quattro_QQQ:40eV
FILENAME=hmdb_intermediate.mgf
SEQ=*..*
IONMODE=Positive
ORGANISM=HMDB
NAME=HMDB:HMDB02390-2094 3-Cresotinic acid M+H
PI=HMDB
DATACOLLECTOR=HMDB
SMILES=CC1=C(O)C(=CC=C1)C(O)=O
INCHI=InChI=1S/C8H8O3/c1-5-3-2-4-6(7(5)9)8(10)11/h2-4,9H,1H3,(H,10,11)
INCHIAUX=N/A
PUBMED=N/A
SUBMITUSER=mwang87
TAGS=
LIBRARYQUALITY=3
SPECTRUMID=CCMSLIB00000425939
SCANS=911
77.0 100.0 
END IONS

BEGIN IONS
PEPMASS=159.066
CHARGE=1+
MSLEVEL=2
SOURCE_INSTRUMENT=Negative-Quattro_QQQ:40eV
FILENAME=hmdb_intermediate.mgf
SEQ=*..*
IONMODE=Negative
ORGANISM=HMDB
NAME=HMDB:HMDB00555-778 3-Methyladipic acid M-H
PI=HMDB
DATACOLLECTOR=HMDB
SMILES=C[C@@H](CCC(O)=O)CC(O)=O
INCHI=InChI=1S/C7H12O4/c1-5(4-7(10)11)2-3-6(8)9/h5H,2-4H2,1H3,(H,8,9)(H,10,11)/t5-/m0/s1
INCHIAUX=N/A
PUBMED=N/A
SUBMITUSER=mwang87
TAGS=
LIBRARYQUALITY=3
SPECTRUMID=CCMSLIB00000425940
SCANS=912
53.573 60.714 
54.562 71.875 
67.458 62.054 
80.333 50.0 
81.331 68.75 
95.276 100.0 
97.256 75.893 
159.18 73.214 
END IONS

BEGIN IONS
PEPMASS=152.071
CHARGE=1+
MSLEVEL=2
SOURCE_INSTRUMENT=Positive-Quattro_QQQ:10eV
FILENAME=hmdb_intermediate.mgf
SEQ=*..*
IONMODE=Positive
ORGANISM=HMDB
NAME=HMDB:HMDB01859-1732 Acetaminophen M+H
PI=HMDB
DATACOLLECTOR=HMDB
SMILES=CC(=O)NC1=CC=C(O)C=C1
INCHI=InChI=1S/C8H9NO2/c1-6(10)9-7-2-4-8(11)5-3-7/h2-5,11H,1H3,(H,9,10)
INCHIAUX=N/A
PUBMED=N/A
SUBMITUSER=mwang87
TAGS=
LIBRARYQUALITY=3
SPECTRUMID=CCMSLIB00000425941
SCANS=913
109.615 81.873 
111.118 68.321 
111.745 66.475 
151.471 56.208 
152.349 100.0 
END IONS

BEGIN IONS
PEPMASS=281.114
CHARGE=1+
MSLEVEL=2
SOURCE_INSTRUMENT=Positive-Quattro_QQQ:10eV
FILENAME=hmdb_intermediate.mgf
SEQ=*..*
IONMODE=Positive
ORGANISM=HMDB
NAME=HMDB:HMDB00706-987 L-Aspartyl-L-phenylalanine M+H
PI=HMDB
DATACOLLECTOR=HMDB
SMILES=N[C@@H](CC(O)=O)C(=O)N[C@@H](CC1=CC=CC=C1)C(O)=O
INCHI=InChI=1S/C13H16N2O5/c14-9(7-11(16)17)12(18)15-10(13(19)20)6-8-4-2-1-3-5-8/h1-5,9-10H,6-7,14H2,(H,15,18)(H,16,17)(H,19,20)/t9-,10-/m0/s1
INCHIAUX=N/A
PUBMED=N/A
SUBMITUSER=mwang87
TAGS=
LIBRARYQUALITY=3
SPECTRUMID=CCMSLIB00000425942
SCANS=914
166.006 78.616 
234.966 59.119 
245.649 53.459 
280.997 100.0 
END IONS

BEGIN IONS
PEPMASS=91.0395
CHARGE=1+
MSLEVEL=2
SOURCE_INSTRUMENT=Positive-Quattro_QQQ:40eV
FILENAME=hmdb_intermediate.mgf
SEQ=*..*
IONMODE=Positive
ORGANISM=HMDB
NAME=HMDB:HMDB01051-1405 Glyceraldehyde M+H
PI=HMDB
DATACOLLECTOR=HMDB
SMILES=OCC(O)C=O
INCHI=InChI=1S/C3H6O3/c4-1-3(6)2-5/h1,3,5-6H,2H2
INCHIAUX=N/A
PUBMED=N/A
SUBMITUSER=mwang87
TAGS=
LIBRARYQUALITY=3
SPECTRUMID=CCMSLIB00000425943
SCANS=915
43.316 87.097 
61.109 100.0 
90.919 99.194 
END IONS

BEGIN IONS
PEPMASS=426.053
CHARGE=1+
MSLEVEL=2
SOURCE_INSTRUMENT=Positive-Quattro_QQQ:10eV
FILENAME=hmdb_intermediate.mgf
SEQ=*..*
IONMODE=Positive
ORGANISM=HMDB
NAME=HMDB:HMDB01372-1541 Thiamine pyrophosphate M+H
PI=HMDB
DATACOLLECTOR=HMDB
SMILES=CC1=C(CCO[P@](O)(=O)OP(O)(O)=O)SC=[N+]1CC1=CN=C(C)N=C1N
INCHI=InChI=1S/C12H18N4O7P2S/c1-8-11(3-4-22-25(20,21)23-24(17,18)19)26-7-16(8)6-10-5-14-9(2)15-12(10)13/h5,7H,3-4,6H2,1-2H3,(H4-,13,14,15,17,18,19,20,21)/p+1
INCHIAUX=N/A
PUBMED=N/A
SUBMITUSER=mwang87
TAGS=
LIBRARYQUALITY=3
SPECTRUMID=CCMSLIB00000425944
SCANS=916
425.0 100.0 
END IONS

BEGIN IONS
PEPMASS=122.028
CHARGE=1+
MSLEVEL=2
SOURCE_INSTRUMENT=Positive-Quattro_QQQ:25eV
FILENAME=hmdb_intermediate.mgf
SEQ=*..*
IONMODE=Positive
ORGANISM=HMDB
NAME=HMDB:HMDB00574-801 L-Cysteine M+H
PI=HMDB
DATACOLLECTOR=HMDB
SMILES=N[C@@H](CS)C(O)=O
INCHI=InChI=1S/C3H7NO2S/c4-2(1-7)3(5)6/h2,7H,1,4H2,(H,5,6)/t2-/m0/s1
INCHIAUX=N/A
PUBMED=N/A
SUBMITUSER=mwang87
TAGS=
LIBRARYQUALITY=3
SPECTRUMID=CCMSLIB00000425945
SCANS=917
59.139 100.0 
END IONS

BEGIN IONS
PEPMASS=197.045
CHARGE=1+
MSLEVEL=2
SOURCE_INSTRUMENT=Negative-Quattro_QQQ:25eV
FILENAME=hmdb_intermediate.mgf
SEQ=*..*
IONMODE=Negative
ORGANISM=HMDB
NAME=HMDB:HMDB00291-493 Vanillylmandelic acid M-H
PI=HMDB
DATACOLLECTOR=HMDB
SMILES=COC1=C(O)C=CC(=C1)[C@H](O)C(O)=O
INCHI=InChI=1S/C9H10O5/c1-14-7-4-5(2-3-6(7)10)8(11)9(12)13/h2-4,8,10-11H,1H3,(H,12,13)/t8-/m0/s1
INCHIAUX=N/A
PUBMED=N/A
SUBMITUSER=mwang87
TAGS=
LIBRARYQUALITY=3
SPECTRUMID=CCMSLIB00000425946
SCANS=918
137.132 100.0 
END IONS

BEGIN IONS
PEPMASS=157.014
CHARGE=1+
MSLEVEL=2
SOURCE_INSTRUMENT=Positive-Quattro_QQQ:25eV
FILENAME=hmdb_intermediate.mgf
SEQ=*..*
IONMODE=Positive
ORGANISM=HMDB
NAME=HMDB:HMDB04812-2404 2,5-Furandicarboxylic acid M+H
PI=HMDB
DATACOLLECTOR=HMDB
SMILES=OC(=O)C1=CC=C(O1)C(O)=O
INCHI=InChI=1S/C6H4O5/c7-5(8)3-1-2-4(11-3)6(9)10/h1-2H,(H,7,8)(H,9,10)
INCHIAUX=N/A
PUBMED=N/A
SUBMITUSER=mwang87
TAGS=
LIBRARYQUALITY=3
SPECTRUMID=CCMSLIB00000425947
SCANS=919
39.37 55.509 
94.97 100.0 
END IONS

BEGIN IONS
PEPMASS=115.003
CHARGE=1+
MSLEVEL=2
SOURCE_INSTRUMENT=Negative-Quattro_QQQ:40eV
FILENAME=hmdb_intermediate.mgf
SEQ=*..*
IONMODE=Negative
ORGANISM=HMDB
NAME=HMDB:HMDB00134-208 Fumaric acid M-H
PI=HMDB
DATACOLLECTOR=HMDB
SMILES=OC(=O)\C=C\C(O)=O
INCHI=InChI=1S/C4H4O4/c5-3(6)1-2-4(7)8/h1-2H,(H,5,6)(H,7,8)/b2-1+
INCHIAUX=N/A
PUBMED=N/A
SUBMITUSER=mwang87
TAGS=
LIBRARYQUALITY=3
SPECTRUMID=CCMSLIB00000425948
SCANS=920
70.889 91.154 
114.934 100.0 
END IONS

BEGIN IONS
PEPMASS=209.03
CHARGE=1+
MSLEVEL=2
SOURCE_INSTRUMENT=Negative-Quattro_QQQ:40eV
FILENAME=hmdb_intermediate.mgf
SEQ=*..*
IONMODE=Negative
ORGANISM=HMDB
NAME=HMDB:HMDB00663-908 Glucaric acid M-H
PI=HMDB
DATACOLLECTOR=HMDB
SMILES=O[C@@H]([C@H](O)[C@@H](O)C(O)=O)[C@H](O)C(O)=O
INCHI=InChI=1S/C6H10O8/c7-1(3(9)5(11)12)2(8)4(10)6(13)14/h1-4,7-10H,(H,11,12)(H,13,14)/t1-,2-,3-,4+/m0/s1
INCHIAUX=N/A
PUBMED=N/A
SUBMITUSER=mwang87
TAGS=
LIBRARYQUALITY=3
SPECTRUMID=CCMSLIB00000425949
SCANS=921
43.648 69.101 
55.53 53.371 
57.493 61.798 
59.473 77.528 
71.381 100.0 
73.345 57.865 
END IONS

BEGIN IONS
PEPMASS=133.086
CHARGE=1+
MSLEVEL=2
SOURCE_INSTRUMENT=Positive-Quattro_QQQ:25eV
FILENAME=hmdb_intermediate.mgf
SEQ=*..*
IONMODE=Positive
ORGANISM=HMDB
NAME=HMDB:HMDB00665-910 Leucinic acid M+H
PI=HMDB
DATACOLLECTOR=HMDB
SMILES=CC(C)CC(O)C(O)=O
INCHI=InChI=1S/C6H12O3/c1-4(2)3-5(7)6(8)9/h4-5,7H,3H2,1-2H3,(H,8,9)
INCHIAUX=N/A
PUBMED=N/A
SUBMITUSER=mwang87
TAGS=
LIBRARYQUALITY=3
SPECTRUMID=CCMSLIB00000425950
SCANS=922
55.284 70.099 
60.171 51.994 
68.441 67.356 
68.942 100.0 
69.694 53.228 
END IONS

BEGIN IONS
PEPMASS=137.024
CHARGE=1+
MSLEVEL=2
SOURCE_INSTRUMENT=Negative-Quattro_QQQ:25eV
FILENAME=hmdb_intermediate.mgf
SEQ=*..*
IONMODE=Negative
ORGANISM=HMDB
NAME=HMDB:HMDB01895-1811 Salicylic acid M-H
PI=HMDB
DATACOLLECTOR=HMDB
SMILES=OC(=O)C1=CC=CC=C1O
INCHI=InChI=1S/C7H6O3/c8-6-4-2-1-3-5(6)7(9)10/h1-4,8H,(H,9,10)
INCHIAUX=N/A
PUBMED=N/A
SUBMITUSER=mwang87
TAGS=
LIBRARYQUALITY=3
SPECTRUMID=CCMSLIB00000425951
SCANS=923
65.106 77.575 
65.604 53.996 
93.488 79.864 
121.248 100.0 
121.622 65.888 
END IONS

BEGIN IONS
PEPMASS=444.032
CHARGE=1+
MSLEVEL=2
SOURCE_INSTRUMENT=Positive-Quattro_QQQ:25eV
FILENAME=hmdb_intermediate.mgf
SEQ=*..*
IONMODE=Positive
ORGANISM=HMDB
NAME=HMDB:HMDB01201-1461 Guanosine diphosphate M+H
PI=HMDB
DATACOLLECTOR=HMDB
SMILES=NC1=NC2=C(N=CN2[C@@H]2O[C@H](COP(O)(=O)OP(O)(O)=O)[C@@H](O)[C@H]2O)C(=O)N1
INCHI=InChI=1S/C10H15N5O11P2/c11-10-13-7-4(8(18)14-10)12-2-15(7)9-6(17)5(16)3(25-9)1-24-28(22,23)26-27(19,20)21/h2-3,5-6,9,16-17H,1H2,(H,22,23)(H2,19,20,21)(H3,11,13,14,18)/t3-,5-,6-,9-/m1/s1
INCHIAUX=N/A
PUBMED=N/A
SUBMITUSER=mwang87
TAGS=
LIBRARYQUALITY=3
SPECTRUMID=CCMSLIB00000425952
SCANS=924
152.0 100.0 
END IONS

BEGIN IONS
PEPMASS=169.05
CHARGE=1+
MSLEVEL=2
SOURCE_INSTRUMENT=Positive-Quattro_QQQ:25eV
FILENAME=hmdb_intermediate.mgf
SEQ=*..*
IONMODE=Positive
ORGANISM=HMDB
NAME=HMDB:HMDB00130-198 Homogentisic acid M+H
PI=HMDB
DATACOLLECTOR=HMDB
SMILES=OC(=O)CC1=C(O)C=CC(O)=C1
INCHI=InChI=1S/C8H8O4/c9-6-1-2-7(10)5(3-6)4-8(11)12/h1-3,9-10H,4H2,(H,11,12)
INCHIAUX=N/A
PUBMED=N/A
SUBMITUSER=mwang87
TAGS=
LIBRARYQUALITY=3
SPECTRUMID=CCMSLIB00000425953
SCANS=925
67.0 87.741 
95.0 56.815 
123.0 100.0 
END IONS

BEGIN IONS
PEPMASS=90.0555
CHARGE=1+
MSLEVEL=2
SOURCE_INSTRUMENT=Positive-Quattro_QQQ:10eV
FILENAME=hmdb_intermediate.mgf
SEQ=*..*
IONMODE=Positive
ORGANISM=HMDB
NAME=HMDB:HMDB00271-472 Sarcosine M+H
PI=HMDB
DATACOLLECTOR=HMDB
SMILES=CNCC(O)=O
INCHI=InChI=1S/C3H7NO2/c1-4-2-3(5)6/h4H,2H2,1H3,(H,5,6)
INCHIAUX=N/A
PUBMED=N/A
SUBMITUSER=mwang87
TAGS=
LIBRARYQUALITY=3
SPECTRUMID=CCMSLIB00000425954
SCANS=926
44.294 100.0 
END IONS

BEGIN IONS
PEPMASS=118.066
CHARGE=1+
MSLEVEL=2
SOURCE_INSTRUMENT=Positive-Quattro_QQQ:10eV
FILENAME=hmdb_intermediate.mgf
SEQ=*..*
IONMODE=Positive
ORGANISM=HMDB
NAME=HMDB:HMDB00738-1047 Indole M+H
PI=HMDB
DATACOLLECTOR=HMDB
SMILES=N1C=CC2=C1C=CC=C2
INCHI=InChI=1S/C8H7N/c1-2-4-8-7(3-1)5-6-9-8/h1-6,9H
INCHIAUX=N/A
PUBMED=N/A
SUBMITUSER=mwang87
TAGS=
LIBRARYQUALITY=3
SPECTRUMID=CCMSLIB00000425955
SCANS=927
117.994 100.0 
END IONS

BEGIN IONS
PEPMASS=297.972
CHARGE=1+
MSLEVEL=2
SOURCE_INSTRUMENT=Positive-Quattro_QQQ:40eV
FILENAME=hmdb_intermediate.mgf
SEQ=*..*
IONMODE=Positive
ORGANISM=HMDB
NAME=HMDB:HMDB01928-1865 Hydrochlorothiazide M+H
PI=HMDB
DATACOLLECTOR=HMDB
SMILES=NS(=O)(=O)C1=C(Cl)C=C2NCNS(=O)(=O)C2=C1
INCHI=InChI=1S/C7H8ClN3O4S2/c8-4-1-5-7(2-6(4)16(9,12)13)17(14,15)11-3-10-5/h1-2,10-11H,3H2,(H2,9,12,13)
INCHIAUX=N/A
PUBMED=N/A
SUBMITUSER=mwang87
TAGS=
LIBRARYQUALITY=3
SPECTRUMID=CCMSLIB00000425956
SCANS=928
108.592 100.0 
109.755 67.456 
END IONS

BEGIN IONS
PEPMASS=281.202
CHARGE=1+
MSLEVEL=2
SOURCE_INSTRUMENT=Positive-Quattro_QQQ:40eV
FILENAME=hmdb_intermediate.mgf
SEQ=*..*
IONMODE=Positive
ORGANISM=HMDB
NAME=HMDB:HMDB01848-1707 Imipramine M+H
PI=HMDB
DATACOLLECTOR=HMDB
SMILES=CN(C)CCCN1C2=CC=CC=C2CCC2=CC=CC=C12
INCHI=InChI=1S/C19H24N2/c1-20(2)14-7-15-21-18-10-5-3-8-16(18)12-13-17-9-4-6-11-19(17)21/h3-6,8-11H,7,12-15H2,1-2H3
INCHIAUX=N/A
PUBMED=N/A
SUBMITUSER=mwang87
TAGS=
LIBRARYQUALITY=3
SPECTRUMID=CCMSLIB00000425957
SCANS=929
55.632 58.822 
57.35 52.352 
71.096 100.0 
END IONS

BEGIN IONS
PEPMASS=155.144
CHARGE=1+
MSLEVEL=2
SOURCE_INSTRUMENT=Positive-Quattro_QQQ:25eV
FILENAME=hmdb_intermediate.mgf
SEQ=*..*
IONMODE=Positive
ORGANISM=HMDB
NAME=HMDB:HMDB05812-2458 Geraniol M+H
PI=HMDB
DATACOLLECTOR=HMDB
SMILES=CC(C)=CCC\C(C)=C/CO
INCHI=InChI=1S/C10H18O/c1-9(2)5-4-6-10(3)7-8-11/h5,7,11H,4,6,8H2,1-3H3/b10-7-
INCHIAUX=N/A
PUBMED=N/A
SUBMITUSER=mwang87
TAGS=
LIBRARYQUALITY=3
SPECTRUMID=CCMSLIB00000425958
SCANS=930
81.06 100.0 
END IONS

BEGIN IONS
PEPMASS=147.077
CHARGE=1+
MSLEVEL=2
SOURCE_INSTRUMENT=Positive-Quattro_QQQ:25eV
FILENAME=hmdb_intermediate.mgf
SEQ=*..*
IONMODE=Positive
ORGANISM=HMDB
NAME=HMDB:HMDB00641-880 L-Glutamine M+H
PI=HMDB
DATACOLLECTOR=HMDB
SMILES=N[C@@H](CCC(N)=O)C(O)=O
INCHI=InChI=1S/C5H10N2O3/c6-3(5(9)10)1-2-4(7)8/h3H,1-2,6H2,(H2,7,8)(H,9,10)/t3-/m0/s1
INCHIAUX=N/A
PUBMED=N/A
SUBMITUSER=mwang87
TAGS=
LIBRARYQUALITY=3
SPECTRUMID=CCMSLIB00000425959
SCANS=931
84.085 100.0 
END IONS

BEGIN IONS
PEPMASS=403.358
CHARGE=1+
MSLEVEL=2
SOURCE_INSTRUMENT=Positive-Quattro_QQQ:25eV
FILENAME=hmdb_intermediate.mgf
SEQ=*..*
IONMODE=Positive
ORGANISM=HMDB
NAME=HMDB:HMDB02902-2158 Delta-Tocopherol M+H
PI=HMDB
DATACOLLECTOR=HMDB
SMILES=CC(C)CCC[C@@H](C)CCC[C@@H](C)CCC[C@]1(C)CCC2=C(O1)C(C)=CC(O)=C2
INCHI=InChI=1S/C27H46O2/c1-20(2)10-7-11-21(3)12-8-13-22(4)14-9-16-27(6)17-15-24-19-25(28)18-23(5)26(24)29-27/h18-22,28H,7-17H2,1-6H3/t21-,22-,27-/m1/s1
INCHIAUX=N/A
PUBMED=N/A
SUBMITUSER=mwang87
TAGS=
LIBRARYQUALITY=3
SPECTRUMID=CCMSLIB00000425960
SCANS=932
402.0 70.796 
403.0 100.0 
END IONS

BEGIN IONS
PEPMASS=157.159
CHARGE=1+
MSLEVEL=2
SOURCE_INSTRUMENT=Positive-Quattro_QQQ:10eV
FILENAME=hmdb_intermediate.mgf
SEQ=*..*
IONMODE=Positive
ORGANISM=HMDB
NAME=HMDB:HMDB03352-2259 Menthol M+H
PI=HMDB
DATACOLLECTOR=HMDB
SMILES=CC(C)[C@@H]1CC[C@@H](C)C[C@H]1O
INCHI=InChI=1S/C10H20O/c1-7(2)9-5-4-8(3)6-10(9)11/h7-11H,4-6H2,1-3H3/t8-,9+,10-/m1/s1
INCHIAUX=N/A
PUBMED=N/A
SUBMITUSER=mwang87
TAGS=
LIBRARYQUALITY=3
SPECTRUMID=CCMSLIB00000425961
SCANS=933
84.0 100.0 
156.0 57.91 
END IONS

BEGIN IONS
PEPMASS=130.109
CHARGE=1+
MSLEVEL=2
SOURCE_INSTRUMENT=Positive-Quattro_QQQ:25eV
FILENAME=hmdb_intermediate.mgf
SEQ=*..*
IONMODE=Positive
ORGANISM=HMDB
NAME=HMDB:HMDB01921-1844 1,1-Dimethylbiguanide M+H
PI=HMDB
DATACOLLECTOR=HMDB
SMILES=CN(C)C(=N)NC(N)=N
INCHI=InChI=1S/C4H11N5/c1-9(2)4(7)8-3(5)6/h1-2H3,(H5,5,6,7,8)
INCHIAUX=N/A
PUBMED=N/A
SUBMITUSER=mwang87
TAGS=
LIBRARYQUALITY=3
SPECTRUMID=CCMSLIB00000425962
SCANS=934
130.14 100.0 
END IONS

BEGIN IONS
PEPMASS=110.061
CHARGE=1+
MSLEVEL=2
SOURCE_INSTRUMENT=Positive-Quattro_QQQ:10eV
FILENAME=hmdb_intermediate.mgf
SEQ=*..*
IONMODE=Positive
ORGANISM=HMDB
NAME=HMDB:HMDB01169-1445 4-Aminophenol M+H
PI=HMDB
DATACOLLECTOR=HMDB
SMILES=NC1=CC=C(O)C=C1
INCHI=InChI=1S/C6H7NO/c7-5-1-3-6(8)4-2-5/h1-4,8H,7H2
INCHIAUX=N/A
PUBMED=N/A
SUBMITUSER=mwang87
TAGS=
LIBRARYQUALITY=3
SPECTRUMID=CCMSLIB00000425963
SCANS=935
110.0 100.0 
END IONS

BEGIN IONS
PEPMASS=131.071
CHARGE=1+
MSLEVEL=2
SOURCE_INSTRUMENT=Negative-Quattro_QQQ:10eV
FILENAME=hmdb_intermediate.mgf
SEQ=*..*
IONMODE=Negative
ORGANISM=HMDB
NAME=HMDB:HMDB00746-1062 Hydroxyisocaproic acid M-H
PI=HMDB
DATACOLLECTOR=HMDB
SMILES=CC(C)C[C@H](O)C(O)=O
INCHI=InChI=1S/C6H12O3/c1-4(2)3-5(7)6(8)9/h4-5,7H,3H2,1-2H3,(H,8,9)/t5-/m0/s1
INCHIAUX=N/A
PUBMED=N/A
SUBMITUSER=mwang87
TAGS=
LIBRARYQUALITY=3
SPECTRUMID=CCMSLIB00000425964
SCANS=936
85.37 75.926 
131.239 100.0 
END IONS

BEGIN IONS
PEPMASS=255.066
CHARGE=1+
MSLEVEL=2
SOURCE_INSTRUMENT=Positive-Quattro_QQQ:25eV
FILENAME=hmdb_intermediate.mgf
SEQ=*..*
IONMODE=Positive
ORGANISM=HMDB
NAME=HMDB:HMDB03312-2237 Daidzein M+H
PI=HMDB
DATACOLLECTOR=HMDB
SMILES=OC1=CC=C(C=C1)C1=COC2=C(C=CC(O)=C2)C1=O
INCHI=InChI=1S/C15H10O4/c16-10-3-1-9(2-4-10)13-8-19-14-7-11(17)5-6-12(14)15(13)18/h1-8,16-17H
INCHIAUX=N/A
PUBMED=N/A
SUBMITUSER=mwang87
TAGS=
LIBRARYQUALITY=3
SPECTRUMID=CCMSLIB00000425965
SCANS=937
254.86 100.0 
END IONS

BEGIN IONS
PEPMASS=397.347
CHARGE=1+
MSLEVEL=2
SOURCE_INSTRUMENT=Positive-Quattro_QQQ:40eV
FILENAME=hmdb_intermediate.mgf
SEQ=*..*
IONMODE=Positive
ORGANISM=HMDB
NAME=HMDB:HMDB00878-1240 Ergosterol M+H
PI=HMDB
DATACOLLECTOR=HMDB
SMILES=CC(C)[C@@H](C)\C=C\[C@@H](C)C1CCC2C3=CC=C4C[C@@H](O)CC[C@]4(C)C3CC[C@]12C
INCHI=InChI=1S/C28H44O/c1-18(2)19(3)7-8-20(4)24-11-12-25-23-10-9-21-17-22(29)13-15-27(21,5)26(23)14-16-28(24,25)6/h7-10,18-20,22,24-26,29H,11-17H2,1-6H3/b8-7+/t19-,20+,22-,24?,25?,26?,27-,28+/m0/s1
INCHIAUX=N/A
PUBMED=N/A
SUBMITUSER=mwang87
TAGS=
LIBRARYQUALITY=3
SPECTRUMID=CCMSLIB00000425966
SCANS=938
43.306 88.235 
69.143 100.0 
81.078 90.909 
82.951 52.941 
93.084 62.032 
95.153 55.08 
END IONS

BEGIN IONS
PEPMASS=492.009
CHARGE=1+
MSLEVEL=2
SOURCE_INSTRUMENT=Positive-Quattro_QQQ:25eV
FILENAME=hmdb_intermediate.mgf
SEQ=*..*
IONMODE=Positive
ORGANISM=HMDB
NAME=HMDB:HMDB01532-1629 Deoxyadenosine triphosphate M+H
PI=HMDB
DATACOLLECTOR=HMDB
SMILES=NC1=NC=NC2=C1N=CN2[C@H]1C[C@H](O)[C@@H](COP(O)(=O)OP(O)(=O)OP(O)(O)=O)O1
INCHI=InChI=1S/C10H16N5O12P3/c11-9-8-10(13-3-12-9)15(4-14-8)7-1-5(16)6(25-7)2-24-29(20,21)27-30(22,23)26-28(17,18)19/h3-7,16H,1-2H2,(H,20,21)(H,22,23)(H2,11,12,13)(H2,17,18,19)/t5-,6+,7+/m0/s1
INCHIAUX=N/A
PUBMED=N/A
SUBMITUSER=mwang87
TAGS=
LIBRARYQUALITY=3
SPECTRUMID=CCMSLIB00000425967
SCANS=939
135.0 100.0 
136.0 62.193 
END IONS

BEGIN IONS
PEPMASS=167.057
CHARGE=1+
MSLEVEL=2
SOURCE_INSTRUMENT=Positive-Quattro_QQQ:40eV
FILENAME=hmdb_intermediate.mgf
SEQ=*..*
IONMODE=Positive
ORGANISM=HMDB
NAME=HMDB:HMDB01886-1788 3-Methylxanthine M+H
PI=HMDB
DATACOLLECTOR=HMDB
SMILES=CN1C2=C(NC=N2)C(=O)NC1=O
INCHI=InChI=1S/C6H6N4O2/c1-10-4-3(7-2-8-4)5(11)9-6(10)12/h2H,1H3,(H,7,8)(H,9,11,12)
INCHIAUX=N/A
PUBMED=N/A
SUBMITUSER=mwang87
TAGS=
LIBRARYQUALITY=3
SPECTRUMID=CCMSLIB00000425968
SCANS=940
42.21 76.647 
42.587 100.0 
43.59 61.286 
END IONS

BEGIN IONS
PEPMASS=384.151
CHARGE=1+
MSLEVEL=2
SOURCE_INSTRUMENT=Positive-Quattro_QQQ:25eV
FILENAME=hmdb_intermediate.mgf
SEQ=*..*
IONMODE=Positive
ORGANISM=HMDB
NAME=HMDB:HMDB01542-1638 N-Acetyllactosamine M+H
PI=HMDB
DATACOLLECTOR=HMDB
SMILES=CC(=O)N[C@H]1[C@H](O)O[C@H](CO)[C@@H](O[C@@H]2O[C@H](CO)[C@H](O)[C@H](O)[C@H]2O)[C@@H]1O
INCHI=InChI=1S/C14H25NO11/c1-4(18)15-7-9(20)12(6(3-17)24-13(7)23)26-14-11(22)10(21)8(19)5(2-16)25-14/h5-14,16-17,19-23H,2-3H2,1H3,(H,15,18)/t5-,6-,7-,8+,9-,10+,11-,12-,13-,14+/m1/s1
INCHIAUX=N/A
PUBMED=N/A
SUBMITUSER=mwang87
TAGS=
LIBRARYQUALITY=3
SPECTRUMID=CCMSLIB00000425969
SCANS=941
126.0 63.444 
138.0 100.0 
END IONS

BEGIN IONS
PEPMASS=144.066
CHARGE=1+
MSLEVEL=2
SOURCE_INSTRUMENT=Positive-Quattro_QQQ:40eV
FILENAME=hmdb_intermediate.mgf
SEQ=*..*
IONMODE=Positive
ORGANISM=HMDB
NAME=HMDB:HMDB00894-1261 Vinylacetylglycine M+H
PI=HMDB
DATACOLLECTOR=HMDB
SMILES=OC(=O)CNC(=O)CC=C
INCHI=InChI=1S/C6H9NO3/c1-2-3-5(8)7-4-6(9)10/h2H,1,3-4H2,(H,7,8)(H,9,10)
INCHIAUX=N/A
PUBMED=N/A
SUBMITUSER=mwang87
TAGS=
LIBRARYQUALITY=3
SPECTRUMID=CCMSLIB00000425970
SCANS=942
68.99 100.0 
89.71 84.105 
END IONS

BEGIN IONS
PEPMASS=86.0606
CHARGE=1+
MSLEVEL=2
SOURCE_INSTRUMENT=Positive-Quattro_QQQ:10eV
FILENAME=hmdb_intermediate.mgf
SEQ=*..*
IONMODE=Positive
ORGANISM=HMDB
NAME=HMDB:HMDB02039-1959 2-Pyrrolidinone M+H
PI=HMDB
DATACOLLECTOR=HMDB
SMILES=O=C1CCCN1
INCHI=InChI=1S/C4H7NO/c6-4-2-1-3-5-4/h1-3H2,(H,5,6)
INCHIAUX=N/A
PUBMED=N/A
SUBMITUSER=mwang87
TAGS=
LIBRARYQUALITY=3
SPECTRUMID=CCMSLIB00000425971
SCANS=943
86.0 100.0 
END IONS

BEGIN IONS
PEPMASS=254.089
CHARGE=1+
MSLEVEL=2
SOURCE_INSTRUMENT=Positive-Quattro_QQQ:40eV
FILENAME=hmdb_intermediate.mgf
SEQ=*..*
IONMODE=Positive
ORGANISM=HMDB
NAME=HMDB:HMDB00845-1192 Neopterin M+H
PI=HMDB
DATACOLLECTOR=HMDB
SMILES=NC1=NC2=C(N=C(C=N2)C(O)C(O)CO)C(=O)N1
INCHI=InChI=1S/C9H11N5O4/c10-9-13-7-5(8(18)14-9)12-3(1-11-7)6(17)4(16)2-15/h1,4,6,15-17H,2H2,(H3,10,11,13,14,18)
INCHIAUX=N/A
PUBMED=N/A
SUBMITUSER=mwang87
TAGS=
LIBRARYQUALITY=3
SPECTRUMID=CCMSLIB00000425972
SCANS=944
93.136 96.68 
105.955 100.0 
118.049 57.261 
119.181 59.336 
134.195 63.485 
145.001 62.241 
146.851 71.369 
END IONS

BEGIN IONS
PEPMASS=355.103
CHARGE=1+
MSLEVEL=2
SOURCE_INSTRUMENT=Positive-Quattro_QQQ:25eV
FILENAME=hmdb_intermediate.mgf
SEQ=*..*
IONMODE=Positive
ORGANISM=HMDB
NAME=HMDB:HMDB03164-2210 Chlorogenic acid M+H
PI=HMDB
DATACOLLECTOR=HMDB
SMILES=O[C@@H]1C[C@](O)(C[C@@H](OC(=O)\C=C\C2=CC(O)=C(O)C=C2)[C@@H]1O)C(O)=O
INCHI=InChI=1S/C16H18O9/c17-9-3-1-8(5-10(9)18)2-4-13(20)25-12-7-16(24,15(22)23)6-11(19)14(12)21/h1-5,11-12,14,17-19,21,24H,6-7H2,(H,22,23)/b4-2+/t11-,12-,14-,16+/m1/s1
INCHIAUX=N/A
PUBMED=N/A
SUBMITUSER=mwang87
TAGS=
LIBRARYQUALITY=3
SPECTRUMID=CCMSLIB00000425973
SCANS=945
163.0 100.0 
END IONS

BEGIN IONS
PEPMASS=391.285
CHARGE=1+
MSLEVEL=2
SOURCE_INSTRUMENT=Negative-Quattro_QQQ:10eV
FILENAME=hmdb_intermediate.mgf
SEQ=*..*
IONMODE=Negative
ORGANISM=HMDB
NAME=HMDB:HMDB00626-852 Deoxycholic acid M-H
PI=HMDB
DATACOLLECTOR=HMDB
SMILES=[H][C@@]12CC[C@H]([C@H](C)CCC(O)=O)[C@@]1(C)[C@@H](O)C[C@@]1([H])[C@@]2([H])CC[C@]2([H])C[C@H](O)CC[C@]12C
INCHI=InChI=1S/C24H40O4/c1-14(4-9-22(27)28)18-7-8-19-17-6-5-15-12-16(25)10-11-23(15,2)20(17)13-21(26)24(18,19)3/h14-21,25-26H,4-13H2,1-3H3,(H,27,28)/t14-,15-,16-,17+,18-,19+,20+,21+,23+,24-/m1/s1
INCHIAUX=N/A
PUBMED=N/A
SUBMITUSER=mwang87
TAGS=
LIBRARYQUALITY=3
SPECTRUMID=CCMSLIB00000425974
SCANS=946
391.316 100.0 
END IONS

BEGIN IONS
PEPMASS=159.041
CHARGE=1+
MSLEVEL=2
SOURCE_INSTRUMENT=Positive-Quattro_QQQ:25eV
FILENAME=hmdb_intermediate.mgf
SEQ=*..*
IONMODE=Positive
ORGANISM=HMDB
NAME=HMDB:HMDB00528-747 4,5-Dihydroorotic acid M+H
PI=HMDB
DATACOLLECTOR=HMDB
SMILES=OC(=O)C1CC(=O)NC(=O)N1
INCHI=InChI=1S/C5H6N2O4/c8-3-1-2(4(9)10)6-5(11)7-3/h2H,1H2,(H,9,10)(H2,6,7,8,11)
INCHIAUX=N/A
PUBMED=N/A
SUBMITUSER=mwang87
TAGS=
LIBRARYQUALITY=3
SPECTRUMID=CCMSLIB00000425975
SCANS=947
70.166 100.0 
74.109 51.471 
END IONS

BEGIN IONS
PEPMASS=176.067
CHARGE=1+
MSLEVEL=2
SOURCE_INSTRUMENT=Positive-Quattro_QQQ:10eV
FILENAME=hmdb_intermediate.mgf
SEQ=*..*
IONMODE=Positive
ORGANISM=HMDB
NAME=HMDB:HMDB03157-2206 Guanidinosuccinic acid M+H
PI=HMDB
DATACOLLECTOR=HMDB
SMILES=NC(=N)N[C@@H](CC(O)=O)C(O)=O
INCHI=InChI=1S/C5H9N3O4/c6-5(7)8-2(4(11)12)1-3(9)10/h2H,1H2,(H,9,10)(H,11,12)(H4,6,7,8)/t2-/m0/s1
INCHIAUX=N/A
PUBMED=N/A
SUBMITUSER=mwang87
TAGS=
LIBRARYQUALITY=3
SPECTRUMID=CCMSLIB00000425976
SCANS=948
176.0 100.0 
END IONS

BEGIN IONS
PEPMASS=274.108
CHARGE=1+
MSLEVEL=2
SOURCE_INSTRUMENT=Positive-Quattro_QQQ:25eV
FILENAME=hmdb_intermediate.mgf
SEQ=*..*
IONMODE=Positive
ORGANISM=HMDB
NAME=HMDB:HMDB00667-913 L-Thyronine M+H
PI=HMDB
DATACOLLECTOR=HMDB
SMILES=N[C@@H](CC1=CC=C(OC2=CC=C(O)C=C2)C=C1)C(O)=O
INCHI=InChI=1S/C15H15NO4/c16-14(15(18)19)9-10-1-5-12(6-2-10)20-13-7-3-11(17)4-8-13/h1-8,14,17H,9,16H2,(H,18,19)/t14-/m0/s1
INCHIAUX=N/A
PUBMED=N/A
SUBMITUSER=mwang87
TAGS=
LIBRARYQUALITY=3
SPECTRUMID=CCMSLIB00000425977
SCANS=949
119.0 100.0 
215.0 82.058 
END IONS

BEGIN IONS
PEPMASS=131.071
CHARGE=1+
MSLEVEL=2
SOURCE_INSTRUMENT=Negative-Quattro_QQQ:40eV
FILENAME=hmdb_intermediate.mgf
SEQ=*..*
IONMODE=Negative
ORGANISM=HMDB
NAME=HMDB:HMDB00746-1064 Hydroxyisocaproic acid M-H
PI=HMDB
DATACOLLECTOR=HMDB
SMILES=CC(C)C[C@H](O)C(O)=O
INCHI=InChI=1S/C6H12O3/c1-4(2)3-5(7)6(8)9/h4-5,7H,3H2,1-2H3,(H,8,9)/t5-/m0/s1
INCHIAUX=N/A
PUBMED=N/A
SUBMITUSER=mwang87
TAGS=
LIBRARYQUALITY=3
SPECTRUMID=CCMSLIB00000425978
SCANS=950
45.506 100.0 
69.409 67.883 
END IONS

BEGIN IONS
PEPMASS=154.073
CHARGE=1+
MSLEVEL=2
SOURCE_INSTRUMENT=Positive-Quattro_QQQ:25eV
FILENAME=hmdb_intermediate.mgf
SEQ=*..*
IONMODE=Positive
ORGANISM=HMDB
NAME=HMDB:HMDB04816-2413 FAPy-adenine M+H
PI=HMDB
DATACOLLECTOR=HMDB
SMILES=NC1=NC=NC(N)=C1NC=O
INCHI=InChI=1S/C5H7N5O/c6-4-3(10-2-11)5(7)9-1-8-4/h1-2H,(H,10,11)(H4,6,7,8,9)
INCHIAUX=N/A
PUBMED=N/A
SUBMITUSER=mwang87
TAGS=
LIBRARYQUALITY=3
SPECTRUMID=CCMSLIB00000425979
SCANS=951
82.0 100.0 
109.0 56.338 
126.0 78.949 
END IONS

BEGIN IONS
PEPMASS=196.061
CHARGE=1+
MSLEVEL=2
SOURCE_INSTRUMENT=Positive-Quattro_QQQ:25eV
FILENAME=hmdb_intermediate.mgf
SEQ=*..*
IONMODE=Positive
ORGANISM=HMDB
NAME=HMDB:HMDB02404-2102 Alpha-Hydroxyhippuric acid M+H
PI=HMDB
DATACOLLECTOR=HMDB
SMILES=OC(NC(=O)C1=CC=CC=C1)C(O)=O
INCHI=InChI=1S/C9H9NO4/c11-7(10-8(12)9(13)14)6-4-2-1-3-5-6/h1-5,8,12H,(H,10,11)(H,13,14)
INCHIAUX=N/A
PUBMED=N/A
SUBMITUSER=mwang87
TAGS=
LIBRARYQUALITY=3
SPECTRUMID=CCMSLIB00000425980
SCANS=952
77.0 79.482 
105.0 100.0 
END IONS

BEGIN IONS
PEPMASS=173.154
CHARGE=1+
MSLEVEL=2
SOURCE_INSTRUMENT=Positive-Quattro_QQQ:10eV
FILENAME=hmdb_intermediate.mgf
SEQ=*..*
IONMODE=Positive
ORGANISM=HMDB
NAME=HMDB:HMDB00511-734 Capric acid M+H
PI=HMDB
DATACOLLECTOR=HMDB
SMILES=CCCCCCCCCC(O)=O
INCHI=InChI=1S/C10H20O2/c1-2-3-4-5-6-7-8-9-10(11)12/h2-9H2,1H3,(H,11,12)
INCHIAUX=N/A
PUBMED=N/A
SUBMITUSER=mwang87
TAGS=
LIBRARYQUALITY=3
SPECTRUMID=CCMSLIB00000425981
SCANS=953
171.12 100.0 
END IONS

BEGIN IONS
PEPMASS=109.029
CHARGE=1+
MSLEVEL=2
SOURCE_INSTRUMENT=Positive-Quattro_QQQ:25eV
FILENAME=hmdb_intermediate.mgf
SEQ=*..*
IONMODE=Positive
ORGANISM=HMDB
NAME=HMDB:HMDB03364-2269 Quinone M+H
PI=HMDB
DATACOLLECTOR=HMDB
SMILES=O=C1C=CC(=O)C=C1
INCHI=InChI=1S/C6H4O2/c7-5-1-2-6(8)4-3-5/h1-4H
INCHIAUX=N/A
PUBMED=N/A
SUBMITUSER=mwang87
TAGS=
LIBRARYQUALITY=3
SPECTRUMID=CCMSLIB00000425982
SCANS=954
65.0 63.915 
76.0 100.0 
END IONS

BEGIN IONS
PEPMASS=347.222
CHARGE=1+
MSLEVEL=2
SOURCE_INSTRUMENT=Positive-Quattro_QQQ:25eV
FILENAME=hmdb_intermediate.mgf
SEQ=*..*
IONMODE=Positive
ORGANISM=HMDB
NAME=HMDB:HMDB01547-1647 Corticosterone M+H
PI=HMDB
DATACOLLECTOR=HMDB
SMILES=[H][C@@]12CC[C@H](C(=O)CO)[C@@]1(C)C[C@H](O)[C@@]1([H])[C@@]2([H])CCC2=CC(=O)CC[C@]12C
INCHI=InChI=1S/C21H30O4/c1-20-8-7-13(23)9-12(20)3-4-14-15-5-6-16(18(25)11-22)21(15,2)10-17(24)19(14)20/h9,14-17,19,22,24H,3-8,10-11H2,1-2H3/t14-,15-,16+,17-,19+,20-,21-/m0/s1
INCHIAUX=N/A
PUBMED=N/A
SUBMITUSER=mwang87
TAGS=
LIBRARYQUALITY=3
SPECTRUMID=CCMSLIB00000425983
SCANS=955
97.081 55.556 
121.025 100.0 
END IONS

BEGIN IONS
PEPMASS=111.045
CHARGE=1+
MSLEVEL=2
SOURCE_INSTRUMENT=Positive-Quattro_QQQ:10eV
FILENAME=hmdb_intermediate.mgf
SEQ=*..*
IONMODE=Positive
ORGANISM=HMDB
NAME=HMDB:HMDB00957-1357 Pyrocatechol M+H
PI=HMDB
DATACOLLECTOR=HMDB
SMILES=OC1=CC=CC=C1O
INCHI=InChI=1S/C6H6O2/c7-5-3-1-2-4-6(5)8/h1-4,7-8H
INCHIAUX=N/A
PUBMED=N/A
SUBMITUSER=mwang87
TAGS=
LIBRARYQUALITY=3
SPECTRUMID=CCMSLIB00000425984
SCANS=956
93.064 100.0 
111.007 73.125 
END IONS

BEGIN IONS
PEPMASS=260.186
CHARGE=1+
MSLEVEL=2
SOURCE_INSTRUMENT=Positive-Quattro_QQQ:25eV
FILENAME=hmdb_intermediate.mgf
SEQ=*..*
IONMODE=Positive
ORGANISM=HMDB
NAME=HMDB:HMDB00705-985 Hexanoylcarnitine M+H
PI=HMDB
DATACOLLECTOR=HMDB
SMILES=CCCCCC(=O)OC(CC([O-])=O)C[N+](C)(C)C
INCHI=InChI=1S/C13H25NO4/c1-5-6-7-8-13(17)18-11(9-12(15)16)10-14(2,3)4/h11H,5-10H2,1-4H3
INCHIAUX=N/A
PUBMED=N/A
SUBMITUSER=mwang87
TAGS=
LIBRARYQUALITY=3
SPECTRUMID=CCMSLIB00000425985
SCANS=957
85.193 100.0 
END IONS

BEGIN IONS
PEPMASS=225.088
CHARGE=1+
MSLEVEL=2
SOURCE_INSTRUMENT=Positive-Quattro_QQQ:25eV
FILENAME=hmdb_intermediate.mgf
SEQ=*..*
IONMODE=Positive
ORGANISM=HMDB
NAME=HMDB:HMDB00732-1033 Hydroxykynurenine M+H
PI=HMDB
DATACOLLECTOR=HMDB
SMILES=NC(CC(=O)C1=C(N)C(O)=CC=C1)C(O)=O
INCHI=InChI=1S/C10H12N2O4/c11-6(10(15)16)4-8(14)5-2-1-3-7(13)9(5)12/h1-3,6,13H,4,11-12H2,(H,15,16)
INCHIAUX=N/A
PUBMED=N/A
SUBMITUSER=mwang87
TAGS=
LIBRARYQUALITY=3
SPECTRUMID=CCMSLIB00000425986
SCANS=958
110.004 99.545 
161.925 100.0 
END IONS

BEGIN IONS
PEPMASS=553.237
CHARGE=1+
MSLEVEL=2
SOURCE_INSTRUMENT=Negative-Quattro_QQQ:10eV
FILENAME=hmdb_intermediate.mgf
SEQ=*..*
IONMODE=Negative
ORGANISM=HMDB
NAME=HMDB:HMDB03828-2343 D-Pantethine M-H
PI=HMDB
DATACOLLECTOR=HMDB
SMILES=CC(C)(CO)[C@@H](O)C(=O)NCCC(=O)NCCSSCCNC(=O)CCNC(=O)[C@H](O)C(C)(C)CO
INCHI=InChI=1S/C22H42N4O8S2/c1-21(2,13-27)17(31)19(33)25-7-5-15(29)23-9-11-35-36-12-10-24-16(30)6-8-26-20(34)18(32)22(3,4)14-28/h17-18,27-28,31-32H,5-14H2,1-4H3,(H,23,29)(H,24,30)(H,25,33)(H,26,34)/t17-,18-/m0/s1
INCHIAUX=N/A
PUBMED=N/A
SUBMITUSER=mwang87
TAGS=
LIBRARYQUALITY=3
SPECTRUMID=CCMSLIB00000425987
SCANS=959
275.0 92.147 
553.0 100.0 
END IONS

BEGIN IONS
PEPMASS=161.108
CHARGE=1+
MSLEVEL=2
SOURCE_INSTRUMENT=Positive-Quattro_QQQ:40eV
FILENAME=hmdb_intermediate.mgf
SEQ=*..*
IONMODE=Positive
ORGANISM=HMDB
NAME=HMDB:HMDB00303-518 Tryptamine M+H
PI=HMDB
DATACOLLECTOR=HMDB
SMILES=NCCC1=CNC2=CC=CC=C12
INCHI=InChI=1S/C10H12N2/c11-6-5-8-7-12-10-4-2-1-3-9(8)10/h1-4,7,12H,5-6,11H2
INCHIAUX=N/A
PUBMED=N/A
SUBMITUSER=mwang87
TAGS=
LIBRARYQUALITY=3
SPECTRUMID=CCMSLIB00000425988
SCANS=960
90.691 100.0 
115.035 80.667 
116.901 58.0 
END IONS

BEGIN IONS
PEPMASS=284.099
CHARGE=1+
MSLEVEL=2
SOURCE_INSTRUMENT=Positive-Quattro_QQQ:40eV
FILENAME=hmdb_intermediate.mgf
SEQ=*..*
IONMODE=Positive
ORGANISM=HMDB
NAME=HMDB:HMDB00133-205 Guanosine M+H
PI=HMDB
DATACOLLECTOR=HMDB
SMILES=NC1=NC2=C(N=CN2[C@@H]2O[C@H](CO)[C@@H](O)[C@H]2O)C(=O)N1
INCHI=InChI=1S/C10H13N5O5/c11-10-13-7-4(8(19)14-10)12-2-15(7)9-6(18)5(17)3(1-16)20-9/h2-3,5-6,9,16-18H,1H2,(H3,11,13,14,19)/t3-,5-,6-,9-/m1/s1
INCHIAUX=N/A
PUBMED=N/A
SUBMITUSER=mwang87
TAGS=
LIBRARYQUALITY=3
SPECTRUMID=CCMSLIB00000425989
SCANS=961
134.908 100.0 
151.938 85.0 
END IONS

BEGIN IONS
PEPMASS=260.044
CHARGE=1+
MSLEVEL=2
SOURCE_INSTRUMENT=Positive-Quattro_QQQ:40eV
FILENAME=hmdb_intermediate.mgf
SEQ=*..*
IONMODE=Positive
ORGANISM=HMDB
NAME=HMDB:HMDB00592-818 Glucosamine 6-sulfate M+H
PI=HMDB
DATACOLLECTOR=HMDB
SMILES=N[C@H]1[C@H](O)O[C@H](COS(O)(=O)=O)[C@@H](O)[C@@H]1O
INCHI=InChI=1S/C6H13NO8S/c7-3-5(9)4(8)2(15-6(3)10)1-14-16(11,12)13/h2-6,8-10H,1,7H2,(H,11,12,13)/t2-,3-,4-,5-,6-/m1/s1
INCHIAUX=N/A
PUBMED=N/A
SUBMITUSER=mwang87
TAGS=
LIBRARYQUALITY=3
SPECTRUMID=CCMSLIB00000425990
SCANS=962
52.218 60.23 
78.401 57.795 
112.777 100.0 
135.985 85.66 
184.514 51.029 
END IONS

BEGIN IONS
PEPMASS=77.0603
CHARGE=1+
MSLEVEL=2
SOURCE_INSTRUMENT=Positive-Quattro_QQQ:40eV
FILENAME=hmdb_intermediate.mgf
SEQ=*..*
IONMODE=Positive
ORGANISM=HMDB
NAME=HMDB:HMDB01881-1782 Propylene glycol M+H
PI=HMDB
DATACOLLECTOR=HMDB
SMILES=CC(O)CO
INCHI=InChI=1S/C3H8O2/c1-3(5)2-4/h3-5H,2H2,1H3
INCHIAUX=N/A
PUBMED=N/A
SUBMITUSER=mwang87
TAGS=
LIBRARYQUALITY=3
SPECTRUMID=CCMSLIB00000425991
SCANS=963
33.359 68.937 
45.104 65.983 
47.453 61.789 
74.776 100.0 
75.765 72.146 
END IONS

BEGIN IONS
PEPMASS=189.103
CHARGE=1+
MSLEVEL=2
SOURCE_INSTRUMENT=Negative-Quattro_QQQ:40eV
FILENAME=hmdb_intermediate.mgf
SEQ=*..*
IONMODE=Negative
ORGANISM=HMDB
NAME=HMDB:HMDB04095-2363 5-Methoxytryptamine M-H
PI=HMDB
DATACOLLECTOR=HMDB
SMILES=COC1=CC2=C(NC=C2CCN)C=C1
INCHI=InChI=1S/C11H14N2O/c1-14-9-2-3-11-10(6-9)8(4-5-12)7-13-11/h2-3,6-7,13H,4-5,12H2,1H3
INCHIAUX=N/A
PUBMED=N/A
SUBMITUSER=mwang87
TAGS=
LIBRARYQUALITY=3
SPECTRUMID=CCMSLIB00000425992
SCANS=964
143.0 100.0 
END IONS

BEGIN IONS
PEPMASS=349.055
CHARGE=1+
MSLEVEL=2
SOURCE_INSTRUMENT=Positive-Quattro_QQQ:25eV
FILENAME=hmdb_intermediate.mgf
SEQ=*..*
IONMODE=Positive
ORGANISM=HMDB
NAME=HMDB:HMDB00175-278 Inosinic acid M+H
PI=HMDB
DATACOLLECTOR=HMDB
SMILES=O[C@@H]1[C@@H](COP(O)(O)=O)O[C@H]([C@@H]1O)N1C=NC2=C1N=CNC2=O
INCHI=InChI=1S/C10H13N4O8P/c15-6-4(1-21-23(18,19)20)22-10(7(6)16)14-3-13-5-8(14)11-2-12-9(5)17/h2-4,6-7,10,15-16H,1H2,(H,11,12,17)(H2,18,19,20)/t4-,6-,7-,10-/m1/s1
INCHIAUX=N/A
PUBMED=N/A
SUBMITUSER=mwang87
TAGS=
LIBRARYQUALITY=3
SPECTRUMID=CCMSLIB00000425993
SCANS=965
136.477 51.477 
137.106 100.0 
END IONS

BEGIN IONS
PEPMASS=192.102
CHARGE=1+
MSLEVEL=2
SOURCE_INSTRUMENT=Positive-Quattro_QQQ:10eV
FILENAME=hmdb_intermediate.mgf
SEQ=*..*
IONMODE=Positive
ORGANISM=HMDB
NAME=HMDB:HMDB01896-1813 5-Methoxytryptophol M+H
PI=HMDB
DATACOLLECTOR=HMDB
SMILES=COC1=CC=C2NC=C(CCO)C2=C1
INCHI=InChI=1S/C11H13NO2/c1-14-9-2-3-11-10(6-9)8(4-5-13)7-12-11/h2-3,6-7,12-13H,4-5H2,1H3
INCHIAUX=N/A
PUBMED=N/A
SUBMITUSER=mwang87
TAGS=
LIBRARYQUALITY=3
SPECTRUMID=CCMSLIB00000425994
SCANS=966
174.0 96.42 
192.0 100.0 
END IONS

BEGIN IONS
PEPMASS=450.322
CHARGE=1+
MSLEVEL=2
SOURCE_INSTRUMENT=Positive-Quattro_QQQ:10eV
FILENAME=hmdb_intermediate.mgf
SEQ=*..*
IONMODE=Positive
ORGANISM=HMDB
NAME=HMDB:HMDB00631-861 Deoxycholic acid glycine conjugate M+H
PI=HMDB
DATACOLLECTOR=HMDB
SMILES=[H][C@]12CCC3C4CC[C@H]([C@H](C)CCC(=O)NCC(O)=O)[C@@]4(C)[C@@H](O)CC3[C@@]1(C)CC[C@@H](O)C2
INCHI=InChI=1S/C26H43NO5/c1-15(4-9-23(30)27-14-24(31)32)19-7-8-20-18-6-5-16-12-17(28)10-11-25(16,2)21(18)13-22(29)26(19,20)3/h15-22,28-29H,4-14H2,1-3H3,(H,27,30)(H,31,32)/t15-,16-,17-,18?,19-,20?,21?,22+,25+,26-/m1/s1
INCHIAUX=N/A
PUBMED=N/A
SUBMITUSER=mwang87
TAGS=
LIBRARYQUALITY=3
SPECTRUMID=CCMSLIB00000425995
SCANS=967
414.364 100.0 
450.411 50.37 
END IONS

BEGIN IONS
PEPMASS=145.086
CHARGE=1+
MSLEVEL=2
SOURCE_INSTRUMENT=Positive-Quattro_QQQ:25eV
FILENAME=hmdb_intermediate.mgf
SEQ=*..*
IONMODE=Positive
ORGANISM=HMDB
NAME=HMDB:HMDB01988-1930 4-Hydroxycyclohexylcarboxylic acid M+H
PI=HMDB
DATACOLLECTOR=HMDB
SMILES=OC1CCC(CC1)C(O)=O
INCHI=InChI=1S/C7H12O3/c8-6-3-1-5(2-4-6)7(9)10/h5-6,8H,1-4H2,(H,9,10)
INCHIAUX=N/A
PUBMED=N/A
SUBMITUSER=mwang87
TAGS=
LIBRARYQUALITY=3
SPECTRUMID=CCMSLIB00000425996
SCANS=968
81.0 100.0 
END IONS

BEGIN IONS
PEPMASS=181.05
CHARGE=1+
MSLEVEL=2
SOURCE_INSTRUMENT=Negative-Quattro_QQQ:10eV
FILENAME=hmdb_intermediate.mgf
SEQ=*..*
IONMODE=Negative
ORGANISM=HMDB
NAME=HMDB:HMDB00118-168 Homovanillic acid M-H
PI=HMDB
DATACOLLECTOR=HMDB
SMILES=COC1=CC(CC(O)=O)=CC=C1O
INCHI=InChI=1S/C9H10O4/c1-13-8-4-6(5-9(11)12)2-3-7(8)10/h2-4,10H,5H2,1H3,(H,11,12)
INCHIAUX=N/A
PUBMED=N/A
SUBMITUSER=mwang87
TAGS=
LIBRARYQUALITY=3
SPECTRUMID=CCMSLIB00000425997
SCANS=969
137.199 100.0 
END IONS

BEGIN IONS
PEPMASS=195.05
CHARGE=1+
MSLEVEL=2
SOURCE_INSTRUMENT=Positive-Quattro_QQQ:25eV
FILENAME=hmdb_intermediate.mgf
SEQ=*..*
IONMODE=Positive
ORGANISM=HMDB
NAME=HMDB:HMDB03402-2278 Pectin M+H
PI=HMDB
DATACOLLECTOR=HMDB
SMILES=O[C@@H]1O[C@@H]([C@H](O)[C@H](O)[C@H]1O)C(O)=O
INCHI=InChI=1S/C6H10O7/c7-1-2(8)4(5(10)11)13-6(12)3(1)9/h1-4,6-9,12H,(H,10,11)/t1-,2+,3+,4-,6+/m0/s1
INCHIAUX=N/A
PUBMED=N/A
SUBMITUSER=mwang87
TAGS=
LIBRARYQUALITY=3
SPECTRUMID=CCMSLIB00000425998
SCANS=970
87.0 100.0 
END IONS

BEGIN IONS
PEPMASS=170.082
CHARGE=1+
MSLEVEL=2
SOURCE_INSTRUMENT=Positive-Quattro_QQQ:10eV
FILENAME=hmdb_intermediate.mgf
SEQ=*..*
IONMODE=Positive
ORGANISM=HMDB
NAME=HMDB:HMDB01537-1631 6-Hydroxydopamine M+H
PI=HMDB
DATACOLLECTOR=HMDB
SMILES=NCCC1=C(O)C=C(O)C(O)=C1
INCHI=InChI=1S/C8H11NO3/c9-2-1-5-3-7(11)8(12)4-6(5)10/h3-4,10-12H,1-2,9H2
INCHIAUX=N/A
PUBMED=N/A
SUBMITUSER=mwang87
TAGS=
LIBRARYQUALITY=3
SPECTRUMID=CCMSLIB00000425999
SCANS=971
153.12 100.0 
170.1 54.7252954304 
END IONS

BEGIN IONS
PEPMASS=131.071
CHARGE=1+
MSLEVEL=2
SOURCE_INSTRUMENT=Positive-Quattro_QQQ:10eV
FILENAME=hmdb_intermediate.mgf
SEQ=*..*
IONMODE=Positive
ORGANISM=HMDB
NAME=HMDB:HMDB00695-966 Ketoleucine M+H
PI=HMDB
DATACOLLECTOR=HMDB
SMILES=CC(C)CC(=O)C(O)=O
INCHI=InChI=1S/C6H10O3/c1-4(2)3-5(7)6(8)9/h4H,3H2,1-2H3,(H,8,9)
INCHIAUX=N/A
PUBMED=N/A
SUBMITUSER=mwang87
TAGS=
LIBRARYQUALITY=3
SPECTRUMID=CCMSLIB00000426000
SCANS=972
90.23 100.0 
90.57 77.024 
END IONS

BEGIN IONS
PEPMASS=133.086
CHARGE=1+
MSLEVEL=2
SOURCE_INSTRUMENT=Positive-Quattro_QQQ:40eV
FILENAME=hmdb_intermediate.mgf
SEQ=*..*
IONMODE=Positive
ORGANISM=HMDB
NAME=HMDB:HMDB00665-911 Leucinic acid M+H
PI=HMDB
DATACOLLECTOR=HMDB
SMILES=CC(C)CC(O)C(O)=O
INCHI=InChI=1S/C6H12O3/c1-4(2)3-5(7)6(8)9/h4-5,7H,3H2,1-2H3,(H,8,9)
INCHIAUX=N/A
PUBMED=N/A
SUBMITUSER=mwang87
TAGS=
LIBRARYQUALITY=3
SPECTRUMID=CCMSLIB00000426001
SCANS=973
55.535 50.674 
57.54 100.0 
END IONS

BEGIN IONS
PEPMASS=132.081
CHARGE=1+
MSLEVEL=2
SOURCE_INSTRUMENT=Positive-Quattro_QQQ:25eV
FILENAME=hmdb_intermediate.mgf
SEQ=*..*
IONMODE=Positive
ORGANISM=HMDB
NAME=HMDB:HMDB00466-675 3-Methylindole M+H
PI=HMDB
DATACOLLECTOR=HMDB
SMILES=CC1=CNC2=C1C=CC=C2
INCHI=InChI=1S/C9H9N/c1-7-6-10-9-5-3-2-4-8(7)9/h2-6,10H,1H3
INCHIAUX=N/A
PUBMED=N/A
SUBMITUSER=mwang87
TAGS=
LIBRARYQUALITY=3
SPECTRUMID=CCMSLIB00000426002
SCANS=974
116.92 100.0 
END IONS

BEGIN IONS
PEPMASS=222.098
CHARGE=1+
MSLEVEL=2
SOURCE_INSTRUMENT=Positive-Quattro_QQQ:10eV
FILENAME=hmdb_intermediate.mgf
SEQ=*..*
IONMODE=Positive
ORGANISM=HMDB
NAME=HMDB:HMDB00212-346 N-Acetylgalactosamine M+H
PI=HMDB
DATACOLLECTOR=HMDB
SMILES=CC(=O)N[C@H]1[C@@H](O)O[C@H](CO)[C@H](O)[C@@H]1O
INCHI=InChI=1S/C8H15NO6/c1-3(11)9-5-7(13)6(12)4(2-10)15-8(5)14/h4-8,10,12-14H,2H2,1H3,(H,9,11)/t4-,5-,6+,7-,8+/m1/s1
INCHIAUX=N/A
PUBMED=N/A
SUBMITUSER=mwang87
TAGS=
LIBRARYQUALITY=3
SPECTRUMID=CCMSLIB00000426003
SCANS=975
186.065 55.0 
204.055 100.0 
END IONS

BEGIN IONS
PEPMASS=69.0453
CHARGE=1+
MSLEVEL=2
SOURCE_INSTRUMENT=Positive-Quattro_QQQ:10eV
FILENAME=hmdb_intermediate.mgf
SEQ=*..*
IONMODE=Positive
ORGANISM=HMDB
NAME=HMDB:HMDB01525-1625 Imidazole M+H
PI=HMDB
DATACOLLECTOR=HMDB
SMILES=N1C=CN=C1
INCHI=InChI=1S/C3H4N2/c1-2-5-3-4-1/h1-3H,(H,4,5)
INCHIAUX=N/A
PUBMED=N/A
SUBMITUSER=mwang87
TAGS=
LIBRARYQUALITY=3
SPECTRUMID=CCMSLIB00000426004
SCANS=976
41.42 100.0 
41.669 72.199 
69.319 89.051 
69.693 98.265 
END IONS

BEGIN IONS
PEPMASS=482.997
CHARGE=1+
MSLEVEL=2
SOURCE_INSTRUMENT=Positive-Quattro_QQQ:25eV
FILENAME=hmdb_intermediate.mgf
SEQ=*..*
IONMODE=Positive
ORGANISM=HMDB
NAME=HMDB:HMDB01342-1526 Thymidine 5'-triphosphate M+H
PI=HMDB
DATACOLLECTOR=HMDB
SMILES=CC1=CN([C@H]2C[C@H](O)[C@@H](COP(O)(=O)OP(O)(=O)OP(O)(O)=O)O2)C(=O)NC1=O
INCHI=InChI=1S/C10H17N2O14P3/c1-5-3-12(10(15)11-9(5)14)8-2-6(13)7(24-8)4-23-28(19,20)26-29(21,22)25-27(16,17)18/h3,6-8,13H,2,4H2,1H3,(H,19,20)(H,21,22)(H,11,14,15)(H2,16,17,18)/t6-,7+,8+/m0/s1
INCHIAUX=N/A
PUBMED=N/A
SUBMITUSER=mwang87
TAGS=
LIBRARYQUALITY=3
SPECTRUMID=CCMSLIB00000426005
SCANS=977
482.0 100.0 
END IONS

BEGIN IONS
PEPMASS=331.227
CHARGE=1+
MSLEVEL=2
SOURCE_INSTRUMENT=Positive-Quattro_QQQ:10eV
FILENAME=hmdb_intermediate.mgf
SEQ=*..*
IONMODE=Positive
ORGANISM=HMDB
NAME=HMDB:HMDB00920-1306 11a-Hydroxyprogesterone M+H
PI=HMDB
DATACOLLECTOR=HMDB
SMILES=[H][C@@]12CCC(C(C)=O)[C@@]1(C)C[C@@H](O)[C@@]1([H])[C@@]2([H])CCC2=CC(=O)CC[C@]12C
INCHI=InChI=1S/C21H30O3/c1-12(22)16-6-7-17-15-5-4-13-10-14(23)8-9-20(13,2)19(15)18(24)11-21(16,17)3/h10,15-19,24H,4-9,11H2,1-3H3/t15-,16?,17-,18+,19+,20-,21+/m0/s1
INCHIAUX=N/A
PUBMED=N/A
SUBMITUSER=mwang87
TAGS=
LIBRARYQUALITY=3
SPECTRUMID=CCMSLIB00000426006
SCANS=978
331.211 100.0 
END IONS

BEGIN IONS
PEPMASS=166.087
CHARGE=1+
MSLEVEL=2
SOURCE_INSTRUMENT=Positive-Quattro_QQQ:10eV
FILENAME=hmdb_intermediate.mgf
SEQ=*..*
IONMODE=Positive
ORGANISM=HMDB
NAME=HMDB:HMDB04992-2427 Benzocaine M+H
PI=HMDB
DATACOLLECTOR=HMDB
SMILES=CCOC(=O)C1=CC=C(N)C=C1
INCHI=InChI=1S/C9H11NO2/c1-2-12-9(11)7-3-5-8(10)6-4-7/h3-6H,2,10H2,1H3
INCHIAUX=N/A
PUBMED=N/A
SUBMITUSER=mwang87
TAGS=
LIBRARYQUALITY=3
SPECTRUMID=CCMSLIB00000426007
SCANS=979
136.77 100.0 
END IONS

BEGIN IONS
PEPMASS=151.061
CHARGE=1+
MSLEVEL=2
SOURCE_INSTRUMENT=Positive-Quattro_QQQ:25eV
FILENAME=hmdb_intermediate.mgf
SEQ=*..*
IONMODE=Positive
ORGANISM=HMDB
NAME=HMDB:HMDB00283-482 D-Ribose M+H
PI=HMDB
DATACOLLECTOR=HMDB
SMILES=OC[C@H]1OC(O)[C@H](O)[C@@H]1O
INCHI=InChI=1S/C5H10O5/c6-1-2-3(7)4(8)5(9)10-2/h2-9H,1H2/t2-,3-,4-,5?/m1/s1
INCHIAUX=N/A
PUBMED=N/A
SUBMITUSER=mwang87
TAGS=
LIBRARYQUALITY=3
SPECTRUMID=CCMSLIB00000426008
SCANS=980
87.0 100.0 
89.0 59.362 
END IONS

BEGIN IONS
PEPMASS=115.076
CHARGE=1+
MSLEVEL=2
SOURCE_INSTRUMENT=Negative-Quattro_QQQ:25eV
FILENAME=hmdb_intermediate.mgf
SEQ=*..*
IONMODE=Negative
ORGANISM=HMDB
NAME=HMDB:HMDB00535-756 Caproic acid M-H
PI=HMDB
DATACOLLECTOR=HMDB
SMILES=CCCCCC(O)=O
INCHI=InChI=1S/C6H12O2/c1-2-3-4-5-6(7)8/h2-5H2,1H3,(H,7,8)
INCHIAUX=N/A
PUBMED=N/A
SUBMITUSER=mwang87
TAGS=
LIBRARYQUALITY=3
SPECTRUMID=CCMSLIB00000426009
SCANS=981
114.872 100.0 
END IONS

BEGIN IONS
PEPMASS=193.05
CHARGE=1+
MSLEVEL=2
SOURCE_INSTRUMENT=Negative-Quattro_QQQ:10eV
FILENAME=hmdb_intermediate.mgf
SEQ=*..*
IONMODE=Negative
ORGANISM=HMDB
NAME=HMDB:HMDB00955-1351 Isoferulic acid M-H
PI=HMDB
DATACOLLECTOR=HMDB
SMILES=COC1=C(O)C=C(\C=C\C(O)=O)C=C1
INCHI=InChI=1S/C10H10O4/c1-14-9-4-2-7(6-8(9)11)3-5-10(12)13/h2-6,11H,1H3,(H,12,13)/b5-3+
INCHIAUX=N/A
PUBMED=N/A
SUBMITUSER=mwang87
TAGS=
LIBRARYQUALITY=3
SPECTRUMID=CCMSLIB00000426010
SCANS=982
178.153 100.0 
193.16 63.566 
END IONS

BEGIN IONS
PEPMASS=56.9673
CHARGE=1+
MSLEVEL=2
SOURCE_INSTRUMENT=Negative-Quattro_QQQ:25eV
FILENAME=hmdb_intermediate.mgf
SEQ=*..*
IONMODE=Negative
ORGANISM=HMDB
NAME=HMDB:HMDB01453-1584 Thiocyanate M-H
PI=HMDB
DATACOLLECTOR=HMDB
SMILES=[S-]C#N
INCHI=InChI=1S/CHNS/c2-1-3/h3H/p-1
INCHIAUX=N/A
PUBMED=N/A
SUBMITUSER=mwang87
TAGS=
LIBRARYQUALITY=3
SPECTRUMID=CCMSLIB00000426011
SCANS=983
57.0 100.0 
58.0 68.665 
END IONS

BEGIN IONS
PEPMASS=151.061
CHARGE=1+
MSLEVEL=2
SOURCE_INSTRUMENT=Positive-Quattro_QQQ:10eV
FILENAME=hmdb_intermediate.mgf
SEQ=*..*
IONMODE=Positive
ORGANISM=HMDB
NAME=HMDB:HMDB00283-481 D-Ribose M+H
PI=HMDB
DATACOLLECTOR=HMDB
SMILES=OC[C@H]1OC(O)[C@H](O)[C@@H]1O
INCHI=InChI=1S/C5H10O5/c6-1-2-3(7)4(8)5(9)10-2/h2-9H,1H2/t2-,3-,4-,5?/m1/s1
INCHIAUX=N/A
PUBMED=N/A
SUBMITUSER=mwang87
TAGS=
LIBRARYQUALITY=3
SPECTRUMID=CCMSLIB00000426012
SCANS=984
89.0 73.798 
119.0 100.0 
END IONS

BEGIN IONS
PEPMASS=190.087
CHARGE=1+
MSLEVEL=2
SOURCE_INSTRUMENT=Positive-Quattro_QQQ:25eV
FILENAME=hmdb_intermediate.mgf
SEQ=*..*
IONMODE=Positive
ORGANISM=HMDB
NAME=HMDB:HMDB02302-2050 3-Indolepropionic acid M+H
PI=HMDB
DATACOLLECTOR=HMDB
SMILES=OC(=O)CCC1=CNC2=CC=CC=C12
INCHI=InChI=1S/C11H11NO2/c13-11(14)6-5-8-7-12-10-4-2-1-3-9(8)10/h1-4,7,12H,5-6H2,(H,13,14)
INCHIAUX=N/A
PUBMED=N/A
SUBMITUSER=mwang87
TAGS=
LIBRARYQUALITY=3
SPECTRUMID=CCMSLIB00000426013
SCANS=985
129.873 100.0 
END IONS

BEGIN IONS
PEPMASS=124.04
CHARGE=1+
MSLEVEL=2
SOURCE_INSTRUMENT=Positive-Quattro_QQQ:40eV
FILENAME=hmdb_intermediate.mgf
SEQ=*..*
IONMODE=Positive
ORGANISM=HMDB
NAME=HMDB:HMDB02243-2045 Picolinic acid M+H
PI=HMDB
DATACOLLECTOR=HMDB
SMILES=OC(=O)C1=CC=CC=N1
INCHI=InChI=1S/C6H5NO2/c8-6(9)5-3-1-2-4-7-5/h1-4H,(H,8,9)
INCHIAUX=N/A
PUBMED=N/A
SUBMITUSER=mwang87
TAGS=
LIBRARYQUALITY=3
SPECTRUMID=CCMSLIB00000426014
SCANS=986
51.096 70.468 
77.974 100.0 
END IONS

BEGIN IONS
PEPMASS=176.104
CHARGE=1+
MSLEVEL=2
SOURCE_INSTRUMENT=Positive-Quattro_QQQ:25eV
FILENAME=hmdb_intermediate.mgf
SEQ=*..*
IONMODE=Positive
ORGANISM=HMDB
NAME=HMDB:HMDB00904-1287 Citrulline M+H
PI=HMDB
DATACOLLECTOR=HMDB
SMILES=N[C@@H](CCCNC(N)=O)C(O)=O
INCHI=InChI=1S/C6H13N3O3/c7-4(5(10)11)2-1-3-9-6(8)12/h4H,1-3,7H2,(H,10,11)(H3,8,9,12)/t4-/m0/s1
INCHIAUX=N/A
PUBMED=N/A
SUBMITUSER=mwang87
TAGS=
LIBRARYQUALITY=3
SPECTRUMID=CCMSLIB00000426015
SCANS=987
70.104 100.0 
END IONS

BEGIN IONS
PEPMASS=85.0653
CHARGE=1+
MSLEVEL=2
SOURCE_INSTRUMENT=Positive-Quattro_QQQ:40eV
FILENAME=hmdb_intermediate.mgf
SEQ=*..*
IONMODE=Positive
ORGANISM=HMDB
NAME=HMDB:HMDB01184-1453 Methyl propenyl ketone M+H
PI=HMDB
DATACOLLECTOR=HMDB
SMILES=C\C=C\C(C)=O
INCHI=InChI=1S/C5H8O/c1-3-4-5(2)6/h3-4H,1-2H3/b4-3+
INCHIAUX=N/A
PUBMED=N/A
SUBMITUSER=mwang87
TAGS=
LIBRARYQUALITY=3
SPECTRUMID=CCMSLIB00000426016
SCANS=988
39.209 59.138 
43.145 100.0 
END IONS

BEGIN IONS
PEPMASS=323.064
CHARGE=1+
MSLEVEL=2
SOURCE_INSTRUMENT=Positive-Quattro_QQQ:25eV
FILENAME=hmdb_intermediate.mgf
SEQ=*..*
IONMODE=Positive
ORGANISM=HMDB
NAME=HMDB:HMDB01227-1473 5-Thymidylic acid M+H
PI=HMDB
DATACOLLECTOR=HMDB
SMILES=CC1=CN([C@H]2C[C@H](O)[C@@H](COP(O)(O)=O)O2)C(=O)NC1=O
INCHI=InChI=1S/C10H15N2O8P/c1-5-3-12(10(15)11-9(5)14)8-2-6(13)7(20-8)4-19-21(16,17)18/h3,6-8,13H,2,4H2,1H3,(H,11,14,15)(H2,16,17,18)/t6-,7+,8+/m0/s1
INCHIAUX=N/A
PUBMED=N/A
SUBMITUSER=mwang87
TAGS=
LIBRARYQUALITY=3
SPECTRUMID=CCMSLIB00000426017
SCANS=989
81.0 100.0 
END IONS

BEGIN IONS
PEPMASS=133.014
CHARGE=1+
MSLEVEL=2
SOURCE_INSTRUMENT=Negative-Quattro_QQQ:10eV
FILENAME=hmdb_intermediate.mgf
SEQ=*..*
IONMODE=Negative
ORGANISM=HMDB
NAME=HMDB:HMDB00744-1056 Malic acid M-H
PI=HMDB
DATACOLLECTOR=HMDB
SMILES=OC(CC(O)=O)C(O)=O
INCHI=InChI=1S/C4H6O5/c5-2(4(8)9)1-3(6)7/h2,5H,1H2,(H,6,7)(H,8,9)
INCHIAUX=N/A
PUBMED=N/A
SUBMITUSER=mwang87
TAGS=
LIBRARYQUALITY=3
SPECTRUMID=CCMSLIB00000426018
SCANS=990
114.952 100.0 
132.909 92.549 
END IONS

BEGIN IONS
PEPMASS=193.035
CHARGE=1+
MSLEVEL=2
SOURCE_INSTRUMENT=Positive-Quattro_QQQ:25eV
FILENAME=hmdb_intermediate.mgf
SEQ=*..*
IONMODE=Positive
ORGANISM=HMDB
NAME=HMDB:HMDB00193-311 Isocitric acid M+H
PI=HMDB
DATACOLLECTOR=HMDB
SMILES=OC(C(CC(O)=O)C(O)=O)C(O)=O
INCHI=InChI=1S/C6H8O7/c7-3(8)1-2(5(10)11)4(9)6(12)13/h2,4,9H,1H2,(H,7,8)(H,10,11)(H,12,13)
INCHIAUX=N/A
PUBMED=N/A
SUBMITUSER=mwang87
TAGS=
LIBRARYQUALITY=3
SPECTRUMID=CCMSLIB00000426019
SCANS=991
86.707 56.777 
108.405 77.287 
109.541 68.357 
122.03 57.224 
124.68 100.0 
END IONS

BEGIN IONS
PEPMASS=464.301
CHARGE=1+
MSLEVEL=2
SOURCE_INSTRUMENT=Negative-Quattro_QQQ:40eV
FILENAME=hmdb_intermediate.mgf
SEQ=*..*
IONMODE=Negative
ORGANISM=HMDB
NAME=HMDB:HMDB00138-211 Glycocholic acid M-H
PI=HMDB
DATACOLLECTOR=HMDB
SMILES=[H][C@@]12CC[C@H]([C@H](C)CCC(=O)NCC(O)=O)[C@@]1(C)[C@@H](O)C[C@@]1([H])[C@@]2([H])[C@H](O)CC2C[C@H](O)CC[C@]12C
INCHI=InChI=1S/C26H43NO6/c1-14(4-7-22(31)27-13-23(32)33)17-5-6-18-24-19(12-21(30)26(17,18)3)25(2)9-8-16(28)10-15(25)11-20(24)29/h14-21,24,28-30H,4-13H2,1-3H3,(H,27,31)(H,32,33)/t14-,15?,16-,17-,18+,19+,20-,21+,24+,25+,26-/m1/s1
INCHIAUX=N/A
PUBMED=N/A
SUBMITUSER=mwang87
TAGS=
LIBRARYQUALITY=3
SPECTRUMID=CCMSLIB00000426020
SCANS=992
74.151 100.0 
END IONS

BEGIN IONS
PEPMASS=157.006
CHARGE=1+
MSLEVEL=2
SOURCE_INSTRUMENT=Positive-Quattro_QQQ:10eV
FILENAME=hmdb_intermediate.mgf
SEQ=*..*
IONMODE=Positive
ORGANISM=HMDB
NAME=HMDB:HMDB01544-1640 m-Chlorobenzoic acid M+H
PI=HMDB
DATACOLLECTOR=HMDB
SMILES=OC(=O)C1=CC(Cl)=CC=C1
INCHI=InChI=1S/C7H5ClO2/c8-6-3-1-2-5(4-6)7(9)10/h1-4H,(H,9,10)
INCHIAUX=N/A
PUBMED=N/A
SUBMITUSER=mwang87
TAGS=
LIBRARYQUALITY=3
SPECTRUMID=CCMSLIB00000426021
SCANS=993
78.0 100.0 
END IONS

BEGIN IONS
PEPMASS=114.067
CHARGE=1+
MSLEVEL=2
SOURCE_INSTRUMENT=Positive-Quattro_QQQ:40eV
FILENAME=hmdb_intermediate.mgf
SEQ=*..*
IONMODE=Positive
ORGANISM=HMDB
NAME=HMDB:HMDB00562-787 Creatinine M+H
PI=HMDB
DATACOLLECTOR=HMDB
SMILES=CN1CC(=O)NC1=N
INCHI=InChI=1S/C4H7N3O/c1-7-2-3(8)6-4(7)5/h2H2,1H3,(H2,5,6,8)
INCHIAUX=N/A
PUBMED=N/A
SUBMITUSER=mwang87
TAGS=
LIBRARYQUALITY=3
SPECTRUMID=CCMSLIB00000426022
SCANS=994
43.225 100.0 
44.372 100.0 
END IONS

BEGIN IONS
PEPMASS=89.1079
CHARGE=1+
MSLEVEL=2
SOURCE_INSTRUMENT=Positive-Quattro_QQQ:25eV
FILENAME=hmdb_intermediate.mgf
SEQ=*..*
IONMODE=Positive
ORGANISM=HMDB
NAME=HMDB:HMDB60243-1569 Putrescine M+H
PI=HMDB
DATACOLLECTOR=HMDB
SMILES=NCCCCN
INCHI=InChI=1S/C4H12N2/c5-3-1-2-4-6/h1-6H2
INCHIAUX=N/A
PUBMED=N/A
SUBMITUSER=mwang87
TAGS=
LIBRARYQUALITY=3
SPECTRUMID=CCMSLIB00000426023
SCANS=995
72.087 100.0 
END IONS

BEGIN IONS
PEPMASS=489.115
CHARGE=1+
MSLEVEL=2
SOURCE_INSTRUMENT=Positive-Quattro_QQQ:40eV
FILENAME=hmdb_intermediate.mgf
SEQ=*..*
IONMODE=Positive
ORGANISM=HMDB
NAME=HMDB:HMDB01413-1567 Citicoline M+H
PI=HMDB
DATACOLLECTOR=HMDB
SMILES=C[N+](C)(C)CCOP([O-])(=O)OP(O)(=O)OC[C@H]1O[C@H]([C@H](O)[C@@H]1O)N1C=CC(N)=NC1=O
INCHI=InChI=1S/C14H26N4O11P2/c1-18(2,3)6-7-26-30(22,23)29-31(24,25)27-8-9-11(19)12(20)13(28-9)17-5-4-10(15)16-14(17)21/h4-5,9,11-13,19-20H,6-8H2,1-3H3,(H3-,15,16,21,22,23,24,25)/t9-,11-,12-,13-/m1/s1
INCHIAUX=N/A
PUBMED=N/A
SUBMITUSER=mwang87
TAGS=
LIBRARYQUALITY=3
SPECTRUMID=CCMSLIB00000426024
SCANS=996
184.0 100.0 
END IONS

BEGIN IONS
PEPMASS=95.0167
CHARGE=1+
MSLEVEL=2
SOURCE_INSTRUMENT=Positive-Quattro_QQQ:10eV
FILENAME=hmdb_intermediate.mgf
SEQ=*..*
IONMODE=Positive
ORGANISM=HMDB
NAME=HMDB:HMDB04983-2421 Dimethyl sulfone M+H
PI=HMDB
DATACOLLECTOR=HMDB
SMILES=CS(C)(=O)=O
INCHI=InChI=1S/C2H6O2S/c1-5(2,3)4/h1-2H3
INCHIAUX=N/A
PUBMED=N/A
SUBMITUSER=mwang87
TAGS=
LIBRARYQUALITY=3
SPECTRUMID=CCMSLIB00000426025
SCANS=997
95.0 100.0 
END IONS

BEGIN IONS
PEPMASS=75.0446
CHARGE=1+
MSLEVEL=2
SOURCE_INSTRUMENT=Positive-Quattro_QQQ:10eV
FILENAME=hmdb_intermediate.mgf
SEQ=*..*
IONMODE=Positive
ORGANISM=HMDB
NAME=HMDB:HMDB00237-397 Propionic acid M+H
PI=HMDB
DATACOLLECTOR=HMDB
SMILES=CCC(O)=O
INCHI=InChI=1S/C3H6O2/c1-2-3(4)5/h2H2,1H3,(H,4,5)
INCHIAUX=N/A
PUBMED=N/A
SUBMITUSER=mwang87
TAGS=
LIBRARYQUALITY=3
SPECTRUMID=CCMSLIB00000426026
SCANS=998
75.1 100.0 
END IONS

BEGIN IONS
PEPMASS=359.147
CHARGE=1+
MSLEVEL=2
SOURCE_INSTRUMENT=Positive-Quattro_QQQ:40eV
FILENAME=hmdb_intermediate.mgf
SEQ=*..*
IONMODE=Positive
ORGANISM=HMDB
NAME=HMDB:HMDB01069-1417 2-Phenylaminoadenosine M+H
PI=HMDB
DATACOLLECTOR=HMDB
SMILES=NC1=C2N=CN(C3OC(CO)C(O)C3O)C2=NC(NC2=CC=CC=C2)=N1
INCHI=InChI=1S/C16H18N6O4/c17-13-10-14(21-16(20-13)19-8-4-2-1-3-5-8)22(7-18-10)15-12(25)11(24)9(6-23)26-15/h1-5,7,9,11-12,15,23-25H,6H2,(H3,17,19,20,21)
INCHIAUX=N/A
PUBMED=N/A
SUBMITUSER=mwang87
TAGS=
LIBRARYQUALITY=3
SPECTRUMID=CCMSLIB00000426027
SCANS=999
209.86 100.0 
226.88 76.236 
END IONS

BEGIN IONS
PEPMASS=131.071
CHARGE=1+
MSLEVEL=2
SOURCE_INSTRUMENT=Positive-Quattro_QQQ:40eV
FILENAME=hmdb_intermediate.mgf
SEQ=*..*
IONMODE=Positive
ORGANISM=HMDB
NAME=HMDB:HMDB00408-623 2-Methyl-3-ketovaleric acid M+H
PI=HMDB
DATACOLLECTOR=HMDB
SMILES=CCC(=O)C(C)C(O)=O
INCHI=InChI=1S/C6H10O3/c1-3-5(7)4(2)6(8)9/h4H,3H2,1-2H3,(H,8,9)
INCHIAUX=N/A
PUBMED=N/A
SUBMITUSER=mwang87
TAGS=
LIBRARYQUALITY=3
SPECTRUMID=CCMSLIB00000426028
SCANS=1000
84.57 76.036 
130.94 100.0 
END IONS

BEGIN IONS
PEPMASS=260.044
CHARGE=1+
MSLEVEL=2
SOURCE_INSTRUMENT=Positive-Quattro_QQQ:25eV
FILENAME=hmdb_intermediate.mgf
SEQ=*..*
IONMODE=Positive
ORGANISM=HMDB
NAME=HMDB:HMDB00592-817 Glucosamine 6-sulfate M+H
PI=HMDB
DATACOLLECTOR=HMDB
SMILES=N[C@H]1[C@H](O)O[C@H](COS(O)(=O)=O)[C@@H](O)[C@@H]1O
INCHI=InChI=1S/C6H13NO8S/c7-3-5(9)4(8)2(15-6(3)10)1-14-16(11,12)13/h2-6,8-10H,1,7H2,(H,11,12,13)/t2-,3-,4-,5-,6-/m1/s1
INCHIAUX=N/A
PUBMED=N/A
SUBMITUSER=mwang87
TAGS=
LIBRARYQUALITY=3
SPECTRUMID=CCMSLIB00000426029
SCANS=1001
56.188 64.076 
60.408 52.226 
68.474 77.434 
72.321 100.0 
80.014 94.736 
84.358 53.919 
84.606 79.308 
97.761 97.554 
115.631 57.117 
154.477 52.601 
169.743 55.987 
212.194 52.037 
END IONS

BEGIN IONS
PEPMASS=285.083
CHARGE=1+
MSLEVEL=2
SOURCE_INSTRUMENT=Positive-Quattro_QQQ:10eV
FILENAME=hmdb_intermediate.mgf
SEQ=*..*
IONMODE=Positive
ORGANISM=HMDB
NAME=HMDB:HMDB00299-507 Xanthosine M+H
PI=HMDB
DATACOLLECTOR=HMDB
SMILES=OC[C@H]1O[C@H]([C@H](O)[C@@H]1O)N1C=NC2=C1N=C(O)N=C2O
INCHI=InChI=1S/C10H12N4O6/c15-1-3-5(16)6(17)9(20-3)14-2-11-4-7(14)12-10(19)13-8(4)18/h2-3,5-6,9,15-17H,1H2,(H2,12,13,18,19)/t3-,5-,6-,9-/m1/s1
INCHIAUX=N/A
PUBMED=N/A
SUBMITUSER=mwang87
TAGS=
LIBRARYQUALITY=3
SPECTRUMID=CCMSLIB00000426030
SCANS=1002
152.953 100.0 
END IONS

BEGIN IONS
PEPMASS=138.055
CHARGE=1+
MSLEVEL=2
SOURCE_INSTRUMENT=Positive-Quattro_QQQ:40eV
FILENAME=hmdb_intermediate.mgf
SEQ=*..*
IONMODE=Positive
ORGANISM=HMDB
NAME=HMDB:HMDB01891-1800 m-Aminobenzoic acid M+H
PI=HMDB
DATACOLLECTOR=HMDB
SMILES=NC1=CC=CC(=C1)C(O)=O
INCHI=InChI=1S/C7H7NO2/c8-6-3-1-2-5(4-6)7(9)10/h1-4H,8H2,(H,9,10)
INCHIAUX=N/A
PUBMED=N/A
SUBMITUSER=mwang87
TAGS=
LIBRARYQUALITY=3
SPECTRUMID=CCMSLIB00000426031
SCANS=1003
65.172 100.0 
END IONS

BEGIN IONS
PEPMASS=162.04
CHARGE=1+
MSLEVEL=2
SOURCE_INSTRUMENT=Positive-Quattro_QQQ:25eV
FILENAME=hmdb_intermediate.mgf
SEQ=*..*
IONMODE=Positive
ORGANISM=HMDB
NAME=HMDB:HMDB02467-2111 A-Ketoglutaric acid oxime M+H
PI=HMDB
DATACOLLECTOR=HMDB
SMILES=O\N=C(/CCC(O)=O)C(O)=O
INCHI=InChI=1S/C5H7NO5/c7-4(8)2-1-3(6-11)5(9)10/h11H,1-2H2,(H,7,8)(H,9,10)/b6-3+
INCHIAUX=N/A
PUBMED=N/A
SUBMITUSER=mwang87
TAGS=
LIBRARYQUALITY=3
SPECTRUMID=CCMSLIB00000426032
SCANS=1004
62.9 100.0 
70.02 60.065 
70.74 65.001 
72.55 67.057 
77.04 71.509 
103.41 59.758 
119.21 75.347 
END IONS

BEGIN IONS
PEPMASS=151.04
CHARGE=1+
MSLEVEL=2
SOURCE_INSTRUMENT=Negative-Quattro_QQQ:25eV
FILENAME=hmdb_intermediate.mgf
SEQ=*..*
IONMODE=Negative
ORGANISM=HMDB
NAME=HMDB:HMDB00669-919 Ortho-Hydroxyphenylacetic acid M-H
PI=HMDB
DATACOLLECTOR=HMDB
SMILES=OC(=O)CC1=CC=CC=C1O
INCHI=InChI=1S/C8H8O3/c9-7-4-2-1-3-6(7)5-8(10)11/h1-4,9H,5H2,(H,10,11)
INCHIAUX=N/A
PUBMED=N/A
SUBMITUSER=mwang87
TAGS=
LIBRARYQUALITY=3
SPECTRUMID=CCMSLIB00000426033
SCANS=1005
107.136 100.0 
END IONS

BEGIN IONS
PEPMASS=133.098
CHARGE=1+
MSLEVEL=2
SOURCE_INSTRUMENT=Positive-Quattro_QQQ:25eV
FILENAME=hmdb_intermediate.mgf
SEQ=*..*
IONMODE=Positive
ORGANISM=HMDB
NAME=HMDB:HMDB00214-350 Ornithine M+H
PI=HMDB
DATACOLLECTOR=HMDB
SMILES=NCCC[C@H](N)C(O)=O
INCHI=InChI=1S/C5H12N2O2/c6-3-1-2-4(7)5(8)9/h4H,1-3,6-7H2,(H,8,9)/t4-/m0/s1
INCHIAUX=N/A
PUBMED=N/A
SUBMITUSER=mwang87
TAGS=
LIBRARYQUALITY=3
SPECTRUMID=CCMSLIB00000426034
SCANS=1006
70.133 100.0 
END IONS

BEGIN IONS
PEPMASS=289.18
CHARGE=1+
MSLEVEL=2
SOURCE_INSTRUMENT=Positive-Quattro_QQQ:25eV
FILENAME=hmdb_intermediate.mgf
SEQ=*..*
IONMODE=Positive
ORGANISM=HMDB
NAME=HMDB:HMDB00153-237 Estriol M+H
PI=HMDB
DATACOLLECTOR=HMDB
SMILES=[H][C@@]12C[C@@H](O)[C@H](O)[C@@]1(C)CC[C@]1([H])C3=C(CC[C@@]21[H])C=C(O)C=C3
INCHI=InChI=1S/C18H24O3/c1-18-7-6-13-12-5-3-11(19)8-10(12)2-4-14(13)15(18)9-16(20)17(18)21/h3,5,8,13-17,19-21H,2,4,6-7,9H2,1H3/t13-,14-,15+,16-,17+,18+/m1/s1
INCHIAUX=N/A
PUBMED=N/A
SUBMITUSER=mwang87
TAGS=
LIBRARYQUALITY=3
SPECTRUMID=CCMSLIB00000426035
SCANS=1007
107.214 100.0 
END IONS

BEGIN IONS
PEPMASS=325.044
CHARGE=1+
MSLEVEL=2
SOURCE_INSTRUMENT=Positive-Quattro_QQQ:10eV
FILENAME=hmdb_intermediate.mgf
SEQ=*..*
IONMODE=Positive
ORGANISM=HMDB
NAME=HMDB:HMDB00288-486 Uridine 5'-monophosphate M+H
PI=HMDB
DATACOLLECTOR=HMDB
SMILES=O[C@H]1[C@@H](O)[C@@H](O[C@@H]1COP(O)(O)=O)N1C=CC(=O)NC1=O
INCHI=InChI=1S/C9H13N2O9P/c12-5-1-2-11(9(15)10-5)8-7(14)6(13)4(20-8)3-19-21(16,17)18/h1-2,4,6-8,13-14H,3H2,(H,10,12,15)(H2,16,17,18)/t4-,6-,7-,8-/m1/s1
INCHIAUX=N/A
PUBMED=N/A
SUBMITUSER=mwang87
TAGS=
LIBRARYQUALITY=3
SPECTRUMID=CCMSLIB00000426036
SCANS=1008
213.0 100.0 
325.0 71.195 
END IONS

BEGIN IONS
PEPMASS=235.108
CHARGE=1+
MSLEVEL=2
SOURCE_INSTRUMENT=Positive-Quattro_QQQ:25eV
FILENAME=hmdb_intermediate.mgf
SEQ=*..*
IONMODE=Positive
ORGANISM=HMDB
NAME=HMDB:HMDB02339-2065 5-Methoxytryptophan M+H
PI=HMDB
DATACOLLECTOR=HMDB
SMILES=COC1=CC2=C(NC=C2C[C@H](N)C(O)=O)C=C1
INCHI=InChI=1S/C12H14N2O3/c1-17-8-2-3-11-9(5-8)7(6-14-11)4-10(13)12(15)16/h2-3,5-6,10,14H,4,13H2,1H3,(H,15,16)/t10-/m0/s1
INCHIAUX=N/A
PUBMED=N/A
SUBMITUSER=mwang87
TAGS=
LIBRARYQUALITY=3
SPECTRUMID=CCMSLIB00000426037
SCANS=1009
147.0 100.0 
148.0 56.714 
175.0 52.196 
END IONS

BEGIN IONS
PEPMASS=134.045
CHARGE=1+
MSLEVEL=2
SOURCE_INSTRUMENT=Positive-Quattro_QQQ:40eV
FILENAME=hmdb_intermediate.mgf
SEQ=*..*
IONMODE=Positive
ORGANISM=HMDB
NAME=HMDB:HMDB00191-306 L-Aspartic acid M+H
PI=HMDB
DATACOLLECTOR=HMDB
SMILES=N[C@@H](CC(O)=O)C(O)=O
INCHI=InChI=1S/C4H7NO4/c5-2(4(8)9)1-3(6)7/h2H,1,5H2,(H,6,7)(H,8,9)/t2-/m0/s1
INCHIAUX=N/A
PUBMED=N/A
SUBMITUSER=mwang87
TAGS=
LIBRARYQUALITY=3
SPECTRUMID=CCMSLIB00000426038
SCANS=1010
43.193 79.63 
73.887 100.0 
END IONS

BEGIN IONS
PEPMASS=202.144
CHARGE=1+
MSLEVEL=2
SOURCE_INSTRUMENT=Positive-Quattro_QQQ:10eV
FILENAME=hmdb_intermediate.mgf
SEQ=*..*
IONMODE=Positive
ORGANISM=HMDB
NAME=HMDB:HMDB00832-1181 Capryloylglycine M+H
PI=HMDB
DATACOLLECTOR=HMDB
SMILES=CCCCCCCC(=O)NCC(O)=O
INCHI=InChI=1S/C10H19NO3/c1-2-3-4-5-6-7-9(12)11-8-10(13)14/h2-8H2,1H3,(H,11,12)(H,13,14)
INCHIAUX=N/A
PUBMED=N/A
SUBMITUSER=mwang87
TAGS=
LIBRARYQUALITY=3
SPECTRUMID=CCMSLIB00000426039
SCANS=1011
57.394 100.0 
57.52 94.863 
END IONS

BEGIN IONS
PEPMASS=115.112
CHARGE=1+
MSLEVEL=2
SOURCE_INSTRUMENT=Positive-Quattro_QQQ:10eV
FILENAME=hmdb_intermediate.mgf
SEQ=*..*
IONMODE=Positive
ORGANISM=HMDB
NAME=HMDB:HMDB04814-2406 4-Heptanone M+H
PI=HMDB
DATACOLLECTOR=HMDB
SMILES=CCCC(=O)CCC
INCHI=InChI=1S/C7H14O/c1-3-5-7(8)6-4-2/h3-6H2,1-2H3
INCHIAUX=N/A
PUBMED=N/A
SUBMITUSER=mwang87
TAGS=
LIBRARYQUALITY=3
SPECTRUMID=CCMSLIB00000426040
SCANS=1012
55.11 100.0 
END IONS

BEGIN IONS
PEPMASS=190.05
CHARGE=1+
MSLEVEL=2
SOURCE_INSTRUMENT=Positive-Quattro_QQQ:25eV
FILENAME=hmdb_intermediate.mgf
SEQ=*..*
IONMODE=Positive
ORGANISM=HMDB
NAME=HMDB:HMDB00715-1000 Kynurenic acid M+H
PI=HMDB
DATACOLLECTOR=HMDB
SMILES=OC(=O)C1=CC(=O)C2=CC=CC=C2N1
INCHI=InChI=1S/C10H7NO3/c12-9-5-8(10(13)14)11-7-4-2-1-3-6(7)9/h1-5H,(H,11,12)(H,13,14)
INCHIAUX=N/A
PUBMED=N/A
SUBMITUSER=mwang87
TAGS=
LIBRARYQUALITY=3
SPECTRUMID=CCMSLIB00000426041
SCANS=1013
143.95 100.0 
END IONS

BEGIN IONS
PEPMASS=93.034
CHARGE=1+
MSLEVEL=2
SOURCE_INSTRUMENT=Negative-Quattro_QQQ:40eV
FILENAME=hmdb_intermediate.mgf
SEQ=*..*
IONMODE=Negative
ORGANISM=HMDB
NAME=HMDB:HMDB00228-381 Phenol M-H
PI=HMDB
DATACOLLECTOR=HMDB
SMILES=OC1=CC=CC=C1
INCHI=InChI=1S/C6H6O/c7-6-4-2-1-3-5-6/h1-5,7H
INCHIAUX=N/A
PUBMED=N/A
SUBMITUSER=mwang87
TAGS=
LIBRARYQUALITY=3
SPECTRUMID=CCMSLIB00000426042
SCANS=1014
93.0 100.0 
END IONS

BEGIN IONS
PEPMASS=213.076
CHARGE=1+
MSLEVEL=2
SOURCE_INSTRUMENT=Positive-Quattro_QQQ:10eV
FILENAME=hmdb_intermediate.mgf
SEQ=*..*
IONMODE=Positive
ORGANISM=HMDB
NAME=HMDB:HMDB00913-1300 Vanillactic acid M+H
PI=HMDB
DATACOLLECTOR=HMDB
SMILES=COC1=CC(CC(O)C(O)=O)=CC=C1O
INCHI=InChI=1S/C10H12O5/c1-15-9-5-6(2-3-7(9)11)4-8(12)10(13)14/h2-3,5,8,11-12H,4H2,1H3,(H,13,14)
INCHIAUX=N/A
PUBMED=N/A
SUBMITUSER=mwang87
TAGS=
LIBRARYQUALITY=3
SPECTRUMID=CCMSLIB00000426043
SCANS=1015
167.0 100.0 
END IONS

BEGIN IONS
PEPMASS=431.389
CHARGE=1+
MSLEVEL=2
SOURCE_INSTRUMENT=Positive-Quattro_QQQ:25eV
FILENAME=hmdb_intermediate.mgf
SEQ=*..*
IONMODE=Positive
ORGANISM=HMDB
NAME=HMDB:HMDB01893-1805 Alpha-Tocopherol M+H
PI=HMDB
DATACOLLECTOR=HMDB
SMILES=CC(C)CCC[C@@H](C)CCC[C@@H](C)CCC[C@]1(C)CCC2=C(O1)C(C)=C(C)C(O)=C2C
INCHI=InChI=1S/C29H50O2/c1-20(2)12-9-13-21(3)14-10-15-22(4)16-11-18-29(8)19-17-26-25(7)27(30)23(5)24(6)28(26)31-29/h20-22,30H,9-19H2,1-8H3/t21-,22-,29-/m1/s1
INCHIAUX=N/A
PUBMED=N/A
SUBMITUSER=mwang87
TAGS=
LIBRARYQUALITY=3
SPECTRUMID=CCMSLIB00000426044
SCANS=1016
71.41 100.0 
83.56 76.087 
85.647 54.348 
86.506 57.065 
96.693 75.0 
164.2 63.859 
165.796 54.076 
END IONS

BEGIN IONS
PEPMASS=248.032
CHARGE=1+
MSLEVEL=2
SOURCE_INSTRUMENT=Positive-Quattro_QQQ:10eV
FILENAME=hmdb_intermediate.mgf
SEQ=*..*
IONMODE=Positive
ORGANISM=HMDB
NAME=HMDB:HMDB01491-1610 Pyridoxal 5'-phosphate M+H
PI=HMDB
DATACOLLECTOR=HMDB
SMILES=CC1=NC=C(COP(O)(O)=O)C(C=O)=C1O
INCHI=InChI=1S/C8H10NO6P/c1-5-8(11)7(3-10)6(2-9-5)4-15-16(12,13)14/h2-3,11H,4H2,1H3,(H2,12,13,14)
INCHIAUX=N/A
PUBMED=N/A
SUBMITUSER=mwang87
TAGS=
LIBRARYQUALITY=3
SPECTRUMID=CCMSLIB00000426045
SCANS=1017
150.0 68.294 
248.0 100.0 
END IONS

BEGIN IONS
PEPMASS=266.967
CHARGE=1+
MSLEVEL=2
SOURCE_INSTRUMENT=Positive-Quattro_QQQ:25eV
FILENAME=hmdb_intermediate.mgf
SEQ=*..*
IONMODE=Positive
ORGANISM=HMDB
NAME=HMDB:HMDB01294-1505 2,3-Diphosphoglyceric acid M+H
PI=HMDB
DATACOLLECTOR=HMDB
SMILES=OC(=O)[C@@H](COP(O)(O)=O)OP(O)(O)=O
INCHI=InChI=1S/C3H8O10P2/c4-3(5)2(13-15(9,10)11)1-12-14(6,7)8/h2H,1H2,(H,4,5)(H2,6,7,8)(H2,9,10,11)/t2-/m1/s1
INCHIAUX=N/A
PUBMED=N/A
SUBMITUSER=mwang87
TAGS=
LIBRARYQUALITY=3
SPECTRUMID=CCMSLIB00000426046
SCANS=1018
123.0 100.0 
END IONS

BEGIN IONS
PEPMASS=87.081
CHARGE=1+
MSLEVEL=2
SOURCE_INSTRUMENT=Positive-Quattro_QQQ:10eV
FILENAME=hmdb_intermediate.mgf
SEQ=*..*
IONMODE=Positive
ORGANISM=HMDB
NAME=HMDB:HMDB06478-2484 Iso-Valeraldehyde M+H
PI=HMDB
DATACOLLECTOR=HMDB
SMILES=CC(C)CC=O
INCHI=InChI=1S/C5H10O/c1-5(2)3-4-6/h4-5H,3H2,1-2H3
INCHIAUX=N/A
PUBMED=N/A
SUBMITUSER=mwang87
TAGS=
LIBRARYQUALITY=3
SPECTRUMID=CCMSLIB00000426047
SCANS=1019
86.95 100.0 
END IONS

BEGIN IONS
PEPMASS=186.017
CHARGE=1+
MSLEVEL=2
SOURCE_INSTRUMENT=Positive-Quattro_QQQ:10eV
FILENAME=hmdb_intermediate.mgf
SEQ=*..*
IONMODE=Positive
ORGANISM=HMDB
NAME=HMDB:HMDB01721-1678 DL-O-Phosphoserine M+H
PI=HMDB
DATACOLLECTOR=HMDB
SMILES=NC(COP(O)(O)=O)C(O)=O
INCHI=InChI=1S/C3H8NO6P/c4-2(3(5)6)1-10-11(7,8)9/h2H,1,4H2,(H,5,6)(H2,7,8,9)
INCHIAUX=N/A
PUBMED=N/A
SUBMITUSER=mwang87
TAGS=
LIBRARYQUALITY=3
SPECTRUMID=CCMSLIB00000426048
SCANS=1020
88.297 100.0 
END IONS

BEGIN IONS
PEPMASS=283.264
CHARGE=1+
MSLEVEL=2
SOURCE_INSTRUMENT=Positive-Quattro_QQQ:40eV
FILENAME=hmdb_intermediate.mgf
SEQ=*..*
IONMODE=Positive
ORGANISM=HMDB
NAME=HMDB:HMDB00207-336 Oleic acid M+H
PI=HMDB
DATACOLLECTOR=HMDB
SMILES=CCCCCCCC\C=C/CCCCCCCC(O)=O
INCHI=InChI=1S/C18H34O2/c1-2-3-4-5-6-7-8-9-10-11-12-13-14-15-16-17-18(19)20/h9-10H,2-8,11-17H2,1H3,(H,19,20)/b10-9-
INCHIAUX=N/A
PUBMED=N/A
SUBMITUSER=mwang87
TAGS=
LIBRARYQUALITY=3
SPECTRUMID=CCMSLIB00000426049
SCANS=1021
43.0 60.352 
55.0 100.0 
57.0 58.042 
69.0 74.692 
END IONS

BEGIN IONS
PEPMASS=135.029
CHARGE=1+
MSLEVEL=2
SOURCE_INSTRUMENT=Positive-Quattro_QQQ:25eV
FILENAME=hmdb_intermediate.mgf
SEQ=*..*
IONMODE=Positive
ORGANISM=HMDB
NAME=HMDB:HMDB00156-240 L-Malic acid M+H
PI=HMDB
DATACOLLECTOR=HMDB
SMILES=O[C@@H](CC(O)=O)C(O)=O
INCHI=InChI=1S/C4H6O5/c5-2(4(8)9)1-3(6)7/h2,5H,1H2,(H,6,7)(H,8,9)/t2-/m0/s1
INCHIAUX=N/A
PUBMED=N/A
SUBMITUSER=mwang87
TAGS=
LIBRARYQUALITY=3
SPECTRUMID=CCMSLIB00000426050
SCANS=1022
43.0 89.757 
71.0 100.0 
77.0 51.255 
END IONS

BEGIN IONS
PEPMASS=301.217
CHARGE=1+
MSLEVEL=2
SOURCE_INSTRUMENT=Positive-Quattro_QQQ:10eV
FILENAME=hmdb_intermediate.mgf
SEQ=*..*
IONMODE=Positive
ORGANISM=HMDB
NAME=HMDB:HMDB01852-1717 All-trans-retinoic acid M+H
PI=HMDB
DATACOLLECTOR=HMDB
SMILES=C\C(\C=C\C1=C(C)CCCC1(C)C)=C/C=C/C(/C)=C/C(O)=O
INCHI=InChI=1S/C20H28O2/c1-15(8-6-9-16(2)14-19(21)22)11-12-18-17(3)10-7-13-20(18,4)5/h6,8-9,11-12,14H,7,10,13H2,1-5H3,(H,21,22)/b9-6+,12-11+,15-8+,16-14+
INCHIAUX=N/A
PUBMED=N/A
SUBMITUSER=mwang87
TAGS=
LIBRARYQUALITY=3
SPECTRUMID=CCMSLIB00000426051
SCANS=1023
164.318 76.993 
239.767 64.749 
242.253 94.061 
260.154 86.449 
260.651 100.0 
END IONS

BEGIN IONS
PEPMASS=175.024
CHARGE=1+
MSLEVEL=2
SOURCE_INSTRUMENT=Positive-Quattro_QQQ:10eV
FILENAME=hmdb_intermediate.mgf
SEQ=*..*
IONMODE=Positive
ORGANISM=HMDB
NAME=HMDB:HMDB00072-117 cis-Aconitic acid M+H
PI=HMDB
DATACOLLECTOR=HMDB
SMILES=OC(=O)C\C(=C\C(O)=O)C(O)=O
INCHI=InChI=1S/C6H6O6/c7-4(8)1-3(6(11)12)2-5(9)10/h1H,2H2,(H,7,8)(H,9,10)(H,11,12)/b3-1-
INCHIAUX=N/A
PUBMED=N/A
SUBMITUSER=mwang87
TAGS=
LIBRARYQUALITY=3
SPECTRUMID=CCMSLIB00000426052
SCANS=1024
85.058 100.0 
END IONS

BEGIN IONS
PEPMASS=103.04
CHARGE=1+
MSLEVEL=2
SOURCE_INSTRUMENT=Negative-Quattro_QQQ:40eV
FILENAME=hmdb_intermediate.mgf
SEQ=*..*
IONMODE=Negative
ORGANISM=HMDB
NAME=HMDB:HMDB00357-575 3-Hydroxybutyric acid M-H
PI=HMDB
DATACOLLECTOR=HMDB
SMILES=CC(O)CC(O)=O
INCHI=InChI=1S/C4H8O3/c1-3(5)2-4(6)7/h3,5H,2H2,1H3,(H,6,7)
INCHIAUX=N/A
PUBMED=N/A
SUBMITUSER=mwang87
TAGS=
LIBRARYQUALITY=3
SPECTRUMID=CCMSLIB00000426053
SCANS=1025
41.316 76.042 
59.224 100.0 
103.014 79.167 
END IONS

BEGIN IONS
PEPMASS=441.163
CHARGE=1+
MSLEVEL=2
SOURCE_INSTRUMENT=Positive-Quattro_QQQ:25eV
FILENAME=hmdb_intermediate.mgf
SEQ=*..*
IONMODE=Positive
ORGANISM=HMDB
NAME=HMDB:HMDB01833-1688 Aminopterin M+H
PI=HMDB
DATACOLLECTOR=HMDB
SMILES=NC1=NC2=C(N=C(CNC3=CC=C(C=C3)C(=O)NC(CCC(O)=O)C(O)=O)C=N2)C(N)=N1
INCHI=InChI=1S/C19H20N8O5/c20-15-14-16(27-19(21)26-15)23-8-11(24-14)7-22-10-3-1-9(2-4-10)17(30)25-12(18(31)32)5-6-13(28)29/h1-4,8,12,22H,5-7H2,(H,25,30)(H,28,29)(H,31,32)(H4,20,21,23,26,27)
INCHIAUX=N/A
PUBMED=N/A
SUBMITUSER=mwang87
TAGS=
LIBRARYQUALITY=3
SPECTRUMID=CCMSLIB00000426054
SCANS=1026
119.0 60.442 
174.0 83.579 
175.0 54.142 
293.0 100.0 
294.0 90.72 
END IONS

BEGIN IONS
PEPMASS=87.0446
CHARGE=1+
MSLEVEL=2
SOURCE_INSTRUMENT=Positive-Quattro_QQQ:40eV
FILENAME=hmdb_intermediate.mgf
SEQ=*..*
IONMODE=Positive
ORGANISM=HMDB
NAME=HMDB:HMDB00549-775 Gamma-Butyrolactone M+H
PI=HMDB
DATACOLLECTOR=HMDB
SMILES=O=C1CCCO1
INCHI=InChI=1S/C4H6O2/c5-4-2-1-3-6-4/h1-3H2
INCHIAUX=N/A
PUBMED=N/A
SUBMITUSER=mwang87
TAGS=
LIBRARYQUALITY=3
SPECTRUMID=CCMSLIB00000426055
SCANS=1027
87.1 100.0 
END IONS

BEGIN IONS
PEPMASS=221.06
CHARGE=1+
MSLEVEL=2
SOURCE_INSTRUMENT=Negative-Quattro_QQQ:40eV
FILENAME=hmdb_intermediate.mgf
SEQ=*..*
IONMODE=Negative
ORGANISM=HMDB
NAME=HMDB:HMDB03075-2193 Flavone M-H
PI=HMDB
DATACOLLECTOR=HMDB
SMILES=O=C1C=C(OC2=CC=CC=C12)C1=CC=CC=C1
INCHI=InChI=1S/C15H10O2/c16-13-10-15(11-6-2-1-3-7-11)17-14-9-5-4-8-12(13)14/h1-10H
INCHIAUX=N/A
PUBMED=N/A
SUBMITUSER=mwang87
TAGS=
LIBRARYQUALITY=3
SPECTRUMID=CCMSLIB00000426056
SCANS=1028
100.0 100.0 
END IONS

BEGIN IONS
PEPMASS=129.019
CHARGE=1+
MSLEVEL=2
SOURCE_INSTRUMENT=Negative-Quattro_QQQ:40eV
FILENAME=hmdb_intermediate.mgf
SEQ=*..*
IONMODE=Negative
ORGANISM=HMDB
NAME=HMDB:HMDB00634-866 Citraconic acid M-H
PI=HMDB
DATACOLLECTOR=HMDB
SMILES=C\C(=C\C(O)=O)C(O)=O
INCHI=InChI=1S/C5H6O4/c1-3(5(8)9)2-4(6)7/h2H,1H3,(H,6,7)(H,8,9)/b3-2-
INCHIAUX=N/A
PUBMED=N/A
SUBMITUSER=mwang87
TAGS=
LIBRARYQUALITY=3
SPECTRUMID=CCMSLIB00000426057
SCANS=1029
41.605 100.0 
85.193 55.303 
END IONS

BEGIN IONS
PEPMASS=152.108
CHARGE=1+
MSLEVEL=2
SOURCE_INSTRUMENT=Positive-Quattro_QQQ:40eV
FILENAME=hmdb_intermediate.mgf
SEQ=*..*
IONMODE=Positive
ORGANISM=HMDB
NAME=HMDB:HMDB01942-1901 Phenylpropanolamine M+H
PI=HMDB
DATACOLLECTOR=HMDB
SMILES=C[C@@H](N)[C@@H](O)C1=CC=CC=C1
INCHI=InChI=1S/C9H13NO/c1-7(10)9(11)8-5-3-2-4-6-8/h2-7,9,11H,10H2,1H3/t7-,9-/m1/s1
INCHIAUX=N/A
PUBMED=N/A
SUBMITUSER=mwang87
TAGS=
LIBRARYQUALITY=3
SPECTRUMID=CCMSLIB00000426058
SCANS=1030
76.814 100.0 
END IONS

BEGIN IONS
PEPMASS=160.097
CHARGE=1+
MSLEVEL=2
SOURCE_INSTRUMENT=Positive-Quattro_QQQ:25eV
FILENAME=hmdb_intermediate.mgf
SEQ=*..*
IONMODE=Positive
ORGANISM=HMDB
NAME=HMDB:HMDB00339-547 2-Methylbutyrylglycine M+H
PI=HMDB
DATACOLLECTOR=HMDB
SMILES=CCC(C)C(=O)NCC(O)=O
INCHI=InChI=1S/C7H13NO3/c1-3-5(2)7(11)8-4-6(9)10/h5H,3-4H2,1-2H3,(H,8,11)(H,9,10)
INCHIAUX=N/A
PUBMED=N/A
SUBMITUSER=mwang87
TAGS=
LIBRARYQUALITY=3
SPECTRUMID=CCMSLIB00000426059
SCANS=1031
57.529 100.0 
END IONS

BEGIN IONS
PEPMASS=117.019
CHARGE=1+
MSLEVEL=2
SOURCE_INSTRUMENT=Negative-Quattro_QQQ:40eV
FILENAME=hmdb_intermediate.mgf
SEQ=*..*
IONMODE=Negative
ORGANISM=HMDB
NAME=HMDB:HMDB00202-327 Methylmalonic acid M-H
PI=HMDB
DATACOLLECTOR=HMDB
SMILES=CC(C(O)=O)C(O)=O
INCHI=InChI=1S/C4H6O4/c1-2(3(5)6)4(7)8/h2H,1H3,(H,5,6)(H,7,8)
INCHIAUX=N/A
PUBMED=N/A
SUBMITUSER=mwang87
TAGS=
LIBRARYQUALITY=3
SPECTRUMID=CCMSLIB00000426060
SCANS=1032
55.422 100.0 
73.195 63.964 
END IONS

BEGIN IONS
PEPMASS=160.097
CHARGE=1+
MSLEVEL=2
SOURCE_INSTRUMENT=Positive-Quattro_QQQ:10eV
FILENAME=hmdb_intermediate.mgf
SEQ=*..*
IONMODE=Positive
ORGANISM=HMDB
NAME=HMDB:HMDB00339-546 2-Methylbutyrylglycine M+H
PI=HMDB
DATACOLLECTOR=HMDB
SMILES=CCC(C)C(=O)NCC(O)=O
INCHI=InChI=1S/C7H13NO3/c1-3-5(2)7(11)8-4-6(9)10/h5H,3-4H2,1-2H3,(H,8,11)(H,9,10)
INCHIAUX=N/A
PUBMED=N/A
SUBMITUSER=mwang87
TAGS=
LIBRARYQUALITY=3
SPECTRUMID=CCMSLIB00000426061
SCANS=1033
57.536 100.0 
76.372 65.098 
85.374 97.647 
END IONS

BEGIN IONS
PEPMASS=145.05
CHARGE=1+
MSLEVEL=2
SOURCE_INSTRUMENT=Negative-Quattro_QQQ:25eV
FILENAME=hmdb_intermediate.mgf
SEQ=*..*
IONMODE=Negative
ORGANISM=HMDB
NAME=HMDB:HMDB00448-654 Adipic acid M-H
PI=HMDB
DATACOLLECTOR=HMDB
SMILES=OC(=O)CCCCC(O)=O
INCHI=InChI=1S/C6H10O4/c7-5(8)3-1-2-4-6(9)10/h1-4H2,(H,7,8)(H,9,10)
INCHIAUX=N/A
PUBMED=N/A
SUBMITUSER=mwang87
TAGS=
LIBRARYQUALITY=3
SPECTRUMID=CCMSLIB00000426062
SCANS=1034
81.049 100.0 
83.063 65.385 
END IONS

BEGIN IONS
PEPMASS=215.128
CHARGE=1+
MSLEVEL=2
SOURCE_INSTRUMENT=Negative-Quattro_QQQ:25eV
FILENAME=hmdb_intermediate.mgf
SEQ=*..*
IONMODE=Negative
ORGANISM=HMDB
NAME=HMDB:HMDB00888-1251 Undecanedioic acid M-H
PI=HMDB
DATACOLLECTOR=HMDB
SMILES=OC(=O)CCCCCCCCCC(O)=O
INCHI=InChI=1S/C11H20O4/c12-10(13)8-6-4-2-1-3-5-7-9-11(14)15/h1-9H2,(H,12,13)(H,14,15)
INCHIAUX=N/A
PUBMED=N/A
SUBMITUSER=mwang87
TAGS=
LIBRARYQUALITY=3
SPECTRUMID=CCMSLIB00000426063
SCANS=1035
197.153 100.0 
END IONS

BEGIN IONS
PEPMASS=78.0377
CHARGE=1+
MSLEVEL=2
SOURCE_INSTRUMENT=Positive-Quattro_QQQ:25eV
FILENAME=hmdb_intermediate.mgf
SEQ=*..*
IONMODE=Positive
ORGANISM=HMDB
NAME=HMDB:HMDB60150-2177 Cysteamine M+H
PI=HMDB
DATACOLLECTOR=HMDB
SMILES=NCCS
INCHI=InChI=1S/C2H7NS/c3-1-2-4/h4H,1-3H2
INCHIAUX=N/A
PUBMED=N/A
SUBMITUSER=mwang87
TAGS=
LIBRARYQUALITY=3
SPECTRUMID=CCMSLIB00000426064
SCANS=1036
61.0 100.0 
END IONS

BEGIN IONS
PEPMASS=209.081
CHARGE=1+
MSLEVEL=2
SOURCE_INSTRUMENT=Positive-Quattro_QQQ:10eV
FILENAME=hmdb_intermediate.mgf
SEQ=*..*
IONMODE=Positive
ORGANISM=HMDB
NAME=HMDB:HMDB12127-2505 (R)-2-Benzylsuccinate M+H
PI=HMDB
DATACOLLECTOR=HMDB
SMILES=OC(=O)C[C@H](CC1=CC=CC=C1)C(O)=O
INCHI=InChI=1S/C11H12O4/c12-10(13)7-9(11(14)15)6-8-4-2-1-3-5-8/h1-5,9H,6-7H2,(H,12,13)(H,14,15)/t9-/m0/s1
INCHIAUX=N/A
PUBMED=N/A
SUBMITUSER=mwang87
TAGS=
LIBRARYQUALITY=3
SPECTRUMID=CCMSLIB00000426065
SCANS=1037
173.1 100.0 
191.1 58.5020213057 
END IONS

BEGIN IONS
PEPMASS=227.114
CHARGE=1+
MSLEVEL=2
SOURCE_INSTRUMENT=Positive-Quattro_QQQ:25eV
FILENAME=hmdb_intermediate.mgf
SEQ=*..*
IONMODE=Positive
ORGANISM=HMDB
NAME=HMDB:HMDB00033-55 Carnosine M+H
PI=HMDB
DATACOLLECTOR=HMDB
SMILES=NCCC(=O)N[C@@H](CC1=CN=CN1)C(O)=O
INCHI=InChI=1S/C9H14N4O3/c10-2-1-8(14)13-7(9(15)16)3-6-4-11-5-12-6/h4-5,7H,1-3,10H2,(H,11,12)(H,13,14)(H,15,16)/t7-/m0/s1
INCHIAUX=N/A
PUBMED=N/A
SUBMITUSER=mwang87
TAGS=
LIBRARYQUALITY=3
SPECTRUMID=CCMSLIB00000426066
SCANS=1038
110.067 100.0 
END IONS

BEGIN IONS
PEPMASS=243.098
CHARGE=1+
MSLEVEL=2
SOURCE_INSTRUMENT=Positive-Quattro_QQQ:40eV
FILENAME=hmdb_intermediate.mgf
SEQ=*..*
IONMODE=Positive
ORGANISM=HMDB
NAME=HMDB:HMDB00273-480 Thymidine M+H
PI=HMDB
DATACOLLECTOR=HMDB
SMILES=CC1=CN([C@H]2C[C@H](O)[C@@H](CO)O2)C(=O)NC1=O
INCHI=InChI=1S/C10H14N2O5/c1-5-3-12(10(16)11-9(5)15)8-2-6(14)7(4-13)17-8/h3,6-8,13-14H,2,4H2,1H3,(H,11,15,16)/t6-,7+,8+/m0/s1
INCHIAUX=N/A
PUBMED=N/A
SUBMITUSER=mwang87
TAGS=
LIBRARYQUALITY=3
SPECTRUMID=CCMSLIB00000426067
SCANS=1039
61.187 71.233 
85.067 100.0 
END IONS

BEGIN IONS
PEPMASS=137.133
CHARGE=1+
MSLEVEL=2
SOURCE_INSTRUMENT=Positive-Quattro_QQQ:40eV
FILENAME=hmdb_intermediate.mgf
SEQ=*..*
IONMODE=Positive
ORGANISM=HMDB
NAME=HMDB:HMDB05806-2453 Gamma-terpinene M+H
PI=HMDB
DATACOLLECTOR=HMDB
SMILES=CC(C)C1=CCC(C)=CC1
INCHI=InChI=1S/C10H16/c1-8(2)10-6-4-9(3)5-7-10/h4,7-8H,5-6H2,1-3H3
INCHIAUX=N/A
PUBMED=N/A
SUBMITUSER=mwang87
TAGS=
LIBRARYQUALITY=3
SPECTRUMID=CCMSLIB00000426068
SCANS=1040
41.22 100.0 
76.92 51.494 
END IONS

BEGIN IONS
PEPMASS=61.0402
CHARGE=1+
MSLEVEL=2
SOURCE_INSTRUMENT=Positive-Quattro_QQQ:10eV
FILENAME=hmdb_intermediate.mgf
SEQ=*..*
IONMODE=Positive
ORGANISM=HMDB
NAME=HMDB:HMDB00294-498 Urea M+H
PI=HMDB
DATACOLLECTOR=HMDB
SMILES=NC(N)=O
INCHI=InChI=1S/CH4N2O/c2-1(3)4/h(H4,2,3,4)
INCHIAUX=N/A
PUBMED=N/A
SUBMITUSER=mwang87
TAGS=
LIBRARYQUALITY=3
SPECTRUMID=CCMSLIB00000426069
SCANS=1041
61.0 100.0 
END IONS

BEGIN IONS
PEPMASS=117.092
CHARGE=1+
MSLEVEL=2
SOURCE_INSTRUMENT=Positive-Quattro_QQQ:10eV
FILENAME=hmdb_intermediate.mgf
SEQ=*..*
IONMODE=Positive
ORGANISM=HMDB
NAME=HMDB:HMDB00689-955 Isocaproic acid M+H
PI=HMDB
DATACOLLECTOR=HMDB
SMILES=CC(C)CCC(O)=O
INCHI=InChI=1S/C6H12O2/c1-5(2)3-4-6(7)8/h5H,3-4H2,1-2H3,(H,7,8)
INCHIAUX=N/A
PUBMED=N/A
SUBMITUSER=mwang87
TAGS=
LIBRARYQUALITY=3
SPECTRUMID=CCMSLIB00000426070
SCANS=1042
116.68 100.0 
END IONS

BEGIN IONS
PEPMASS=115.003
CHARGE=1+
MSLEVEL=2
SOURCE_INSTRUMENT=Negative-Quattro_QQQ:25eV
FILENAME=hmdb_intermediate.mgf
SEQ=*..*
IONMODE=Negative
ORGANISM=HMDB
NAME=HMDB:HMDB00134-207 Fumaric acid M-H
PI=HMDB
DATACOLLECTOR=HMDB
SMILES=OC(=O)\C=C\C(O)=O
INCHI=InChI=1S/C4H4O4/c5-3(6)1-2-4(7)8/h1-2H,(H,5,6)(H,7,8)/b2-1+
INCHIAUX=N/A
PUBMED=N/A
SUBMITUSER=mwang87
TAGS=
LIBRARYQUALITY=3
SPECTRUMID=CCMSLIB00000426071
SCANS=1043
70.882 100.0 
114.747 83.529 
END IONS

BEGIN IONS
PEPMASS=195.066
CHARGE=1+
MSLEVEL=2
SOURCE_INSTRUMENT=Negative-Quattro_QQQ:40eV
FILENAME=hmdb_intermediate.mgf
SEQ=*..*
IONMODE=Negative
ORGANISM=HMDB
NAME=HMDB:HMDB00434-637 Homoveratric acid M-H
PI=HMDB
DATACOLLECTOR=HMDB
SMILES=COC1=CC=C(CC(O)=O)C=C1OC
INCHI=InChI=1S/C10H12O4/c1-13-8-4-3-7(6-10(11)12)5-9(8)14-2/h3-5H,6H2,1-2H3,(H,11,12)
INCHIAUX=N/A
PUBMED=N/A
SUBMITUSER=mwang87
TAGS=
LIBRARYQUALITY=3
SPECTRUMID=CCMSLIB00000426072
SCANS=1044
93.306 93.407 
121.182 100.0 
END IONS

BEGIN IONS
PEPMASS=193.035
CHARGE=1+
MSLEVEL=2
SOURCE_INSTRUMENT=Negative-Quattro_QQQ:40eV
FILENAME=hmdb_intermediate.mgf
SEQ=*..*
IONMODE=Negative
ORGANISM=HMDB
NAME=HMDB:HMDB00127-193 D-Glucuronic acid M-H
PI=HMDB
DATACOLLECTOR=HMDB
SMILES=O[C@H]1O[C@@H]([C@@H](O)[C@H](O)[C@H]1O)C(O)=O
INCHI=InChI=1S/C6H10O7/c7-1-2(8)4(5(10)11)13-6(12)3(1)9/h1-4,6-9,12H,(H,10,11)/t1-,2-,3+,4-,6-/m0/s1
INCHIAUX=N/A
PUBMED=N/A
SUBMITUSER=mwang87
TAGS=
LIBRARYQUALITY=3
SPECTRUMID=CCMSLIB00000426073
SCANS=1045
59.448 100.0 
END IONS

BEGIN IONS
PEPMASS=298.097
CHARGE=1+
MSLEVEL=2
SOURCE_INSTRUMENT=Positive-Quattro_QQQ:40eV
FILENAME=hmdb_intermediate.mgf
SEQ=*..*
IONMODE=Positive
ORGANISM=HMDB
NAME=HMDB:HMDB01173-1450 5'-Methylthioadenosine M+H
PI=HMDB
DATACOLLECTOR=HMDB
SMILES=CSC[C@H]1O[C@H]([C@H](O)[C@@H]1O)N1C=NC2=C1N=CN=C2N
INCHI=InChI=1S/C11H15N5O3S/c1-20-2-5-7(17)8(18)11(19-5)16-4-15-6-9(12)13-3-14-10(6)16/h3-5,7-8,11,17-18H,2H2,1H3,(H2,12,13,14)/t5-,7-,8-,11-/m1/s1
INCHIAUX=N/A
PUBMED=N/A
SUBMITUSER=mwang87
TAGS=
LIBRARYQUALITY=3
SPECTRUMID=CCMSLIB00000426074
SCANS=1046
136.0 100.0 
END IONS

BEGIN IONS
PEPMASS=161.045
CHARGE=1+
MSLEVEL=2
SOURCE_INSTRUMENT=Negative-Quattro_QQQ:10eV
FILENAME=hmdb_intermediate.mgf
SEQ=*..*
IONMODE=Negative
ORGANISM=HMDB
NAME=HMDB:HMDB00321-534 2-Hydroxyadipic acid M-H
PI=HMDB
DATACOLLECTOR=HMDB
SMILES=OC(CCCC(O)=O)C(O)=O
INCHI=InChI=1S/C6H10O5/c7-4(6(10)11)2-1-3-5(8)9/h4,7H,1-3H2,(H,8,9)(H,10,11)
INCHIAUX=N/A
PUBMED=N/A
SUBMITUSER=mwang87
TAGS=
LIBRARYQUALITY=3
SPECTRUMID=CCMSLIB00000426075
SCANS=1047
161.16 100.0 
END IONS

BEGIN IONS
PEPMASS=385.347
CHARGE=1+
MSLEVEL=2
SOURCE_INSTRUMENT=Positive-Quattro_QQQ:40eV
FILENAME=hmdb_intermediate.mgf
SEQ=*..*
IONMODE=Positive
ORGANISM=HMDB
NAME=HMDB:HMDB00032-53 7-Dehydrocholesterol M+H
PI=HMDB
DATACOLLECTOR=HMDB
SMILES=[H][C@@]12CC[C@H]([C@H](C)CCCC(C)C)[C@@]1(C)CC[C@@]1([H])C2=CC=C2C[C@@H](O)CC[C@]12C
INCHI=InChI=1S/C27H44O/c1-18(2)7-6-8-19(3)23-11-12-24-22-10-9-20-17-21(28)13-15-26(20,4)25(22)14-16-27(23,24)5/h9-10,18-19,21,23-25,28H,6-8,11-17H2,1-5H3/t19-,21+,23-,24+,25+,26+,27-/m1/s1
INCHIAUX=N/A
PUBMED=N/A
SUBMITUSER=mwang87
TAGS=
LIBRARYQUALITY=3
SPECTRUMID=CCMSLIB00000426076
SCANS=1048
55.289 61.702 
69.23 100.0 
81.103 86.17 
83.179 55.319 
93.195 53.191 
95.201 69.681 
105.076 62.234 
END IONS

BEGIN IONS
PEPMASS=104.071
CHARGE=1+
MSLEVEL=2
SOURCE_INSTRUMENT=Positive-Quattro_QQQ:10eV
FILENAME=hmdb_intermediate.mgf
SEQ=*..*
IONMODE=Positive
ORGANISM=HMDB
NAME=HMDB:HMDB01906-1825 2-Aminoisobutyric acid M+H
PI=HMDB
DATACOLLECTOR=HMDB
SMILES=CC(C)(N)C(O)=O
INCHI=InChI=1S/C4H9NO2/c1-4(2,5)3(6)7/h5H2,1-2H3,(H,6,7)
INCHIAUX=N/A
PUBMED=N/A
SUBMITUSER=mwang87
TAGS=
LIBRARYQUALITY=3
SPECTRUMID=CCMSLIB00000426077
SCANS=1049
86.0 100.0 
END IONS

BEGIN IONS
PEPMASS=119.071
CHARGE=1+
MSLEVEL=2
SOURCE_INSTRUMENT=Positive-Quattro_QQQ:10eV
FILENAME=hmdb_intermediate.mgf
SEQ=*..*
IONMODE=Positive
ORGANISM=HMDB
NAME=HMDB:HMDB00351-564 3-Hydroxy-2-methyl-[R-(R,S)]-butanoic acid M+H
PI=HMDB
DATACOLLECTOR=HMDB
SMILES=C[C@@H](O)[C@H](C)C(O)=O
INCHI=InChI=1S/C5H10O3/c1-3(4(2)6)5(7)8/h3-4,6H,1-2H3,(H,7,8)/t3-,4+/m0/s1
INCHIAUX=N/A
PUBMED=N/A
SUBMITUSER=mwang87
TAGS=
LIBRARYQUALITY=3
SPECTRUMID=CCMSLIB00000426078
SCANS=1050
55.0 57.478 
57.0 51.348 
63.0 100.0 
83.0 54.823 
101.0 93.807 
END IONS

BEGIN IONS
PEPMASS=268.105
CHARGE=1+
MSLEVEL=2
SOURCE_INSTRUMENT=Positive-Quattro_QQQ:25eV
FILENAME=hmdb_intermediate.mgf
SEQ=*..*
IONMODE=Positive
ORGANISM=HMDB
NAME=HMDB:HMDB00050-82 Adenosine M+H
PI=HMDB
DATACOLLECTOR=HMDB
SMILES=NC1=NC=NC2=C1N=CN2[C@@H]1O[C@H](CO)[C@@H](O)[C@H]1O
INCHI=InChI=1S/C10H13N5O4/c11-8-5-9(13-2-12-8)15(3-14-5)10-7(18)6(17)4(1-16)19-10/h2-4,6-7,10,16-18H,1H2,(H2,11,12,13)/t4-,6-,7-,10-/m1/s1
INCHIAUX=N/A
PUBMED=N/A
SUBMITUSER=mwang87
TAGS=
LIBRARYQUALITY=3
SPECTRUMID=CCMSLIB00000426079
SCANS=1051
135.887 100.0 
END IONS

BEGIN IONS
PEPMASS=287.056
CHARGE=1+
MSLEVEL=2
SOURCE_INSTRUMENT=Positive-Quattro_QQQ:25eV
FILENAME=hmdb_intermediate.mgf
SEQ=*..*
IONMODE=Positive
ORGANISM=HMDB
NAME=HMDB:HMDB05801-2449 Kaempferol M+H
PI=HMDB
DATACOLLECTOR=HMDB
SMILES=OC1=CC=C(C=C1)C1=C(O)C(=O)C2=C(O1)C=C(O)C=C2O
INCHI=InChI=1S/C15H10O6/c16-8-3-1-7(2-4-8)15-14(20)13(19)12-10(18)5-9(17)6-11(12)21-15/h1-6,16-18,20H
INCHIAUX=N/A
PUBMED=N/A
SUBMITUSER=mwang87
TAGS=
LIBRARYQUALITY=3
SPECTRUMID=CCMSLIB00000426080
SCANS=1052
286.0 100.0 
END IONS

BEGIN IONS
PEPMASS=155.009
CHARGE=1+
MSLEVEL=2
SOURCE_INSTRUMENT=Negative-Quattro_QQQ:10eV
FILENAME=hmdb_intermediate.mgf
SEQ=*..*
IONMODE=Negative
ORGANISM=HMDB
NAME=HMDB:HMDB00226-373 Orotic acid M-H
PI=HMDB
DATACOLLECTOR=HMDB
SMILES=OC(=O)C1=CC(=O)NC(=O)N1
INCHI=InChI=1S/C5H4N2O4/c8-3-1-2(4(9)10)6-5(11)7-3/h1H,(H,9,10)(H2,6,7,8,11)
INCHIAUX=N/A
PUBMED=N/A
SUBMITUSER=mwang87
TAGS=
LIBRARYQUALITY=3
SPECTRUMID=CCMSLIB00000426081
SCANS=1053
110.983 100.0 
END IONS

BEGIN IONS
PEPMASS=229.082
CHARGE=1+
MSLEVEL=2
SOURCE_INSTRUMENT=Positive-Quattro_QQQ:10eV
FILENAME=hmdb_intermediate.mgf
SEQ=*..*
IONMODE=Positive
ORGANISM=HMDB
NAME=HMDB:HMDB00012-19 Deoxyuridine M+H
PI=HMDB
DATACOLLECTOR=HMDB
SMILES=OC[C@H]1O[C@H](C[C@@H]1O)N1C=CC(=O)NC1=O
INCHI=InChI=1S/C9H12N2O5/c12-4-6-5(13)3-8(16-6)11-2-1-7(14)10-9(11)15/h1-2,5-6,8,12-13H,3-4H2,(H,10,14,15)/t5-,6+,8+/m0/s1
INCHIAUX=N/A
PUBMED=N/A
SUBMITUSER=mwang87
TAGS=
LIBRARYQUALITY=3
SPECTRUMID=CCMSLIB00000426082
SCANS=1054
113.033 100.0 
END IONS

BEGIN IONS
PEPMASS=373.191
CHARGE=1+
MSLEVEL=2
SOURCE_INSTRUMENT=Positive-Quattro_QQQ:40eV
FILENAME=hmdb_intermediate.mgf
SEQ=*..*
IONMODE=Positive
ORGANISM=HMDB
NAME=HMDB:HMDB03134-2202 Biocytin M+H
PI=HMDB
DATACOLLECTOR=HMDB
SMILES=[H][C@]12CS[C@@H](CCCCC(=O)NCCCC[C@H](N)C(O)=O)[C@@]1([H])NC(=O)N2
INCHI=InChI=1S/C16H28N4O4S/c17-10(15(22)23)5-3-4-8-18-13(21)7-2-1-6-12-14-11(9-25-12)19-16(24)20-14/h10-12,14H,1-9,17H2,(H,18,21)(H,22,23)(H2,19,20,24)/t10-,11-,12-,14-/m0/s1
INCHIAUX=N/A
PUBMED=N/A
SUBMITUSER=mwang87
TAGS=
LIBRARYQUALITY=3
SPECTRUMID=CCMSLIB00000426083
SCANS=1055
83.0 100.0 
END IONS

BEGIN IONS
PEPMASS=73.029
CHARGE=1+
MSLEVEL=2
SOURCE_INSTRUMENT=Positive-Quattro_QQQ:10eV
FILENAME=hmdb_intermediate.mgf
SEQ=*..*
IONMODE=Positive
ORGANISM=HMDB
NAME=HMDB:HMDB01167-1442 Pyruvaldehyde M+H
PI=HMDB
DATACOLLECTOR=HMDB
SMILES=CC(=O)C=O
INCHI=InChI=1S/C3H4O2/c1-3(5)2-4/h2H,1H3
INCHIAUX=N/A
PUBMED=N/A
SUBMITUSER=mwang87
TAGS=
LIBRARYQUALITY=3
SPECTRUMID=CCMSLIB00000426084
SCANS=1056
45.0 79.186 
73.0 100.0 
END IONS

BEGIN IONS
PEPMASS=251.07
CHARGE=1+
MSLEVEL=2
SOURCE_INSTRUMENT=Positive-Quattro_QQQ:25eV
FILENAME=hmdb_intermediate.mgf
SEQ=*..*
IONMODE=Positive
ORGANISM=HMDB
NAME=HMDB:HMDB01049-1401 Gamma-Glutamylcysteine M+H
PI=HMDB
DATACOLLECTOR=HMDB
SMILES=N[C@@H](CCC(=O)N[C@@H](CS)C(O)=O)C(O)=O
INCHI=InChI=1S/C8H14N2O5S/c9-4(7(12)13)1-2-6(11)10-5(3-16)8(14)15/h4-5,16H,1-3,9H2,(H,10,11)(H,12,13)(H,14,15)/t4-,5-/m0/s1
INCHIAUX=N/A
PUBMED=N/A
SUBMITUSER=mwang87
TAGS=
LIBRARYQUALITY=3
SPECTRUMID=CCMSLIB00000426085
SCANS=1057
250.36 70.59 
251.45 100.0 
END IONS

BEGIN IONS
PEPMASS=482.997
CHARGE=1+
MSLEVEL=2
SOURCE_INSTRUMENT=Positive-Quattro_QQQ:40eV
FILENAME=hmdb_intermediate.mgf
SEQ=*..*
IONMODE=Positive
ORGANISM=HMDB
NAME=HMDB:HMDB01342-1527 Thymidine 5'-triphosphate M+H
PI=HMDB
DATACOLLECTOR=HMDB
SMILES=CC1=CN([C@H]2C[C@H](O)[C@@H](COP(O)(=O)OP(O)(=O)OP(O)(O)=O)O2)C(=O)NC1=O
INCHI=InChI=1S/C10H17N2O14P3/c1-5-3-12(10(15)11-9(5)14)8-2-6(13)7(24-8)4-23-28(19,20)26-29(21,22)25-27(16,17)18/h3,6-8,13H,2,4H2,1H3,(H,19,20)(H,21,22)(H,11,14,15)(H2,16,17,18)/t6-,7+,8+/m0/s1
INCHIAUX=N/A
PUBMED=N/A
SUBMITUSER=mwang87
TAGS=
LIBRARYQUALITY=3
SPECTRUMID=CCMSLIB00000426086
SCANS=1058
122.0 100.0 
END IONS

BEGIN IONS
PEPMASS=138.092
CHARGE=1+
MSLEVEL=2
SOURCE_INSTRUMENT=Positive-Quattro_QQQ:25eV
FILENAME=hmdb_intermediate.mgf
SEQ=*..*
IONMODE=Positive
ORGANISM=HMDB
NAME=HMDB:HMDB01065-1410 2-Hydroxyphenethylamine M+H
PI=HMDB
DATACOLLECTOR=HMDB
SMILES=NCC(O)C1=CC=CC=C1
INCHI=InChI=1S/C8H11NO/c9-6-8(10)7-4-2-1-3-5-7/h1-5,8,10H,6,9H2
INCHIAUX=N/A
PUBMED=N/A
SUBMITUSER=mwang87
TAGS=
LIBRARYQUALITY=3
SPECTRUMID=CCMSLIB00000426087
SCANS=1059
120.06 100.0 
END IONS

BEGIN IONS
PEPMASS=181.071
CHARGE=1+
MSLEVEL=2
SOURCE_INSTRUMENT=Positive-Quattro_QQQ:10eV
FILENAME=hmdb_intermediate.mgf
SEQ=*..*
IONMODE=Positive
ORGANISM=HMDB
NAME=HMDB:HMDB06088-2469 Scyllitol M+H
PI=HMDB
DATACOLLECTOR=HMDB
SMILES=O[C@H]1[C@H](O)[C@@H](O)[C@@H](O)[C@@H](O)[C@H]1O
INCHI=InChI=1S/C6H12O6/c7-1-2(8)4(10)6(12)5(11)3(1)9/h1-12H/t1-,2-,3-,4+,5-,6+
INCHIAUX=N/A
PUBMED=N/A
SUBMITUSER=mwang87
TAGS=
LIBRARYQUALITY=3
SPECTRUMID=CCMSLIB00000426088
SCANS=1060
98.61 100.0 
139.45 56.969 
139.59 69.596 
END IONS

BEGIN IONS
PEPMASS=173.081
CHARGE=1+
MSLEVEL=2
SOURCE_INSTRUMENT=Positive-Quattro_QQQ:25eV
FILENAME=hmdb_intermediate.mgf
SEQ=*..*
IONMODE=Positive
ORGANISM=HMDB
NAME=HMDB:HMDB00341-550 2-Octenedioic acid M+H
PI=HMDB
DATACOLLECTOR=HMDB
SMILES=OC(=O)CCCC\C=C\C(O)=O
INCHI=InChI=1S/C8H12O4/c9-7(10)5-3-1-2-4-6-8(11)12/h3,5H,1-2,4,6H2,(H,9,10)(H,11,12)/b5-3+
INCHIAUX=N/A
PUBMED=N/A
SUBMITUSER=mwang87
TAGS=
LIBRARYQUALITY=3
SPECTRUMID=CCMSLIB00000426089
SCANS=1061
79.0 51.92 
81.0 100.0 
END IONS

BEGIN IONS
PEPMASS=118.087
CHARGE=1+
MSLEVEL=2
SOURCE_INSTRUMENT=Positive-Quattro_QQQ:25eV
FILENAME=hmdb_intermediate.mgf
SEQ=*..*
IONMODE=Positive
ORGANISM=HMDB
NAME=HMDB:HMDB03355-2263 5-Aminopentanoic acid M+H
PI=HMDB
DATACOLLECTOR=HMDB
SMILES=NCCCCC(O)=O
INCHI=InChI=1S/C5H11NO2/c6-4-2-1-3-5(7)8/h1-4,6H2,(H,7,8)
INCHIAUX=N/A
PUBMED=N/A
SUBMITUSER=mwang87
TAGS=
LIBRARYQUALITY=3
SPECTRUMID=CCMSLIB00000426090
SCANS=1062
83.0 100.0 
END IONS

BEGIN IONS
PEPMASS=282.12
CHARGE=1+
MSLEVEL=2
SOURCE_INSTRUMENT=Positive-Quattro_QQQ:40eV
FILENAME=hmdb_intermediate.mgf
SEQ=*..*
IONMODE=Positive
ORGANISM=HMDB
NAME=HMDB:HMDB03331-2247 1-Methyladenosine M+H
PI=HMDB
DATACOLLECTOR=HMDB
SMILES=CN1C=NC2=C(N=CN2[C@@H]2O[C@H](CO)[C@@H](O)[C@H]2O)C1=N
INCHI=InChI=1S/C11H15N5O4/c1-15-3-14-10-6(9(15)12)13-4-16(10)11-8(19)7(18)5(2-17)20-11/h3-5,7-8,11-12,17-19H,2H2,1H3/t5-,7-,8-,11-/m1/s1
INCHIAUX=N/A
PUBMED=N/A
SUBMITUSER=mwang87
TAGS=
LIBRARYQUALITY=3
SPECTRUMID=CCMSLIB00000426091
SCANS=1063
150.0 100.0 
END IONS

BEGIN IONS
PEPMASS=89.0239
CHARGE=1+
MSLEVEL=2
SOURCE_INSTRUMENT=Negative-Quattro_QQQ:25eV
FILENAME=hmdb_intermediate.mgf
SEQ=*..*
IONMODE=Negative
ORGANISM=HMDB
NAME=HMDB:HMDB00190-302 L-Lactic acid M-H
PI=HMDB
DATACOLLECTOR=HMDB
SMILES=C[C@H](O)C(O)=O
INCHI=InChI=1S/C3H6O3/c1-2(4)3(5)6/h2,4H,1H3,(H,5,6)/t2-/m0/s1
INCHIAUX=N/A
PUBMED=N/A
SUBMITUSER=mwang87
TAGS=
LIBRARYQUALITY=3
SPECTRUMID=CCMSLIB00000426092
SCANS=1064
43.61 79.618 
45.542 77.07 
89.004 100.0 
END IONS

BEGIN IONS
PEPMASS=269.063
CHARGE=1+
MSLEVEL=2
SOURCE_INSTRUMENT=Positive-Quattro_QQQ:25eV
FILENAME=hmdb_intermediate.mgf
SEQ=*..*
IONMODE=Positive
ORGANISM=HMDB
NAME=HMDB:HMDB00676-937 L-Homocystine M+H
PI=HMDB
DATACOLLECTOR=HMDB
SMILES=NC(CCSSCC[C@H](N)C(O)=O)C(O)=O
INCHI=InChI=1S/C8H16N2O4S2/c9-5(7(11)12)1-3-15-16-4-2-6(10)8(13)14/h5-6H,1-4,9-10H2,(H,11,12)(H,13,14)/t5-,6?/m0/s1
INCHIAUX=N/A
PUBMED=N/A
SUBMITUSER=mwang87
TAGS=
LIBRARYQUALITY=3
SPECTRUMID=CCMSLIB00000426093
SCANS=1065
87.0 100.0 
88.0 81.939 
89.0 95.362 
90.0 68.233 
END IONS

BEGIN IONS
PEPMASS=289.217
CHARGE=1+
MSLEVEL=2
SOURCE_INSTRUMENT=Positive-Quattro_QQQ:40eV
FILENAME=hmdb_intermediate.mgf
SEQ=*..*
IONMODE=Positive
ORGANISM=HMDB
NAME=HMDB:HMDB00899-1276 Androstanedione M+H
PI=HMDB
DATACOLLECTOR=HMDB
SMILES=[H][C@@]12CCC(=O)[C@@]1(C)CC[C@@]1([H])[C@@]2([H])CC[C@@]2([H])CC(=O)CC[C@]12C
INCHI=InChI=1S/C19H28O2/c1-18-9-7-13(20)11-12(18)3-4-14-15-5-6-17(21)19(15,2)10-8-16(14)18/h12,14-16H,3-11H2,1-2H3/t12-,14-,15-,16-,18-,19-/m0/s1
INCHIAUX=N/A
PUBMED=N/A
SUBMITUSER=mwang87
TAGS=
LIBRARYQUALITY=3
SPECTRUMID=CCMSLIB00000426094
SCANS=1066
79.11 73.846 
81.109 100.0 
91.078 89.744 
93.076 83.59 
97.058 51.282 
105.052 91.282 
119.027 52.821 
END IONS

BEGIN IONS
PEPMASS=105.019
CHARGE=1+
MSLEVEL=2
SOURCE_INSTRUMENT=Negative-Quattro_QQQ:40eV
FILENAME=hmdb_intermediate.mgf
SEQ=*..*
IONMODE=Negative
ORGANISM=HMDB
NAME=HMDB:HMDB00139-214 Glyceric acid M-H
PI=HMDB
DATACOLLECTOR=HMDB
SMILES=OC[C@@H](O)C(O)=O
INCHI=InChI=1S/C3H6O4/c4-1-2(5)3(6)7/h2,4-5H,1H2,(H,6,7)/t2-/m1/s1
INCHIAUX=N/A
PUBMED=N/A
SUBMITUSER=mwang87
TAGS=
LIBRARYQUALITY=3
SPECTRUMID=CCMSLIB00000426095
SCANS=1067
104.844 100.0 
END IONS

BEGIN IONS
PEPMASS=130.05
CHARGE=1+
MSLEVEL=2
SOURCE_INSTRUMENT=Positive-Quattro_QQQ:40eV
FILENAME=hmdb_intermediate.mgf
SEQ=*..*
IONMODE=Positive
ORGANISM=HMDB
NAME=HMDB:HMDB01843-1695 N-Acryloylglycine M+H
PI=HMDB
DATACOLLECTOR=HMDB
SMILES=OC(=O)CNC(=O)C=C
INCHI=InChI=1S/C5H7NO3/c1-2-4(7)6-3-5(8)9/h2H,1,3H2,(H,6,7)(H,8,9)
INCHIAUX=N/A
PUBMED=N/A
SUBMITUSER=mwang87
TAGS=
LIBRARYQUALITY=3
SPECTRUMID=CCMSLIB00000426096
SCANS=1068
55.485 100.0 
END IONS

BEGIN IONS
PEPMASS=132.066
CHARGE=1+
MSLEVEL=2
SOURCE_INSTRUMENT=Positive-Quattro_QQQ:10eV
FILENAME=hmdb_intermediate.mgf
SEQ=*..*
IONMODE=Positive
ORGANISM=HMDB
NAME=HMDB:HMDB00766-1104 N-Acetyl-L-alanine M+H
PI=HMDB
DATACOLLECTOR=HMDB
SMILES=C[C@H](NC(C)=O)C(O)=O
INCHI=InChI=1S/C5H9NO3/c1-3(5(8)9)6-4(2)7/h3H,1-2H3,(H,6,7)(H,8,9)/t3-/m0/s1
INCHIAUX=N/A
PUBMED=N/A
SUBMITUSER=mwang87
TAGS=
LIBRARYQUALITY=3
SPECTRUMID=CCMSLIB00000426097
SCANS=1069
90.014 100.0 
END IONS

BEGIN IONS
PEPMASS=107.05
CHARGE=1+
MSLEVEL=2
SOURCE_INSTRUMENT=Positive-Quattro_QQQ:10eV
FILENAME=hmdb_intermediate.mgf
SEQ=*..*
IONMODE=Positive
ORGANISM=HMDB
NAME=HMDB:HMDB06115-2472 Benzaldehyde M+H
PI=HMDB
DATACOLLECTOR=HMDB
SMILES=O=CC1=CC=CC=C1
INCHI=InChI=1S/C7H6O/c8-6-7-4-2-1-3-5-7/h1-6H
INCHIAUX=N/A
PUBMED=N/A
SUBMITUSER=mwang87
TAGS=
LIBRARYQUALITY=3
SPECTRUMID=CCMSLIB00000426098
SCANS=1070
79.0 100.0 
107.0 57.256 
END IONS

BEGIN IONS
PEPMASS=142.027
CHARGE=1+
MSLEVEL=2
SOURCE_INSTRUMENT=Positive-Quattro_QQQ:10eV
FILENAME=hmdb_intermediate.mgf
SEQ=*..*
IONMODE=Positive
ORGANISM=HMDB
NAME=HMDB:HMDB60152-370 O-Phosphoethanolamine M+H
PI=HMDB
DATACOLLECTOR=HMDB
SMILES=NCCOP(O)(O)=O
INCHI=InChI=1S/C2H8NO4P/c3-1-2-7-8(4,5)6/h1-3H2,(H2,4,5,6)
INCHIAUX=N/A
PUBMED=N/A
SUBMITUSER=mwang87
TAGS=
LIBRARYQUALITY=3
SPECTRUMID=CCMSLIB00000426099
SCANS=1071
44.628 100.0 
END IONS

BEGIN IONS
PEPMASS=212.044
CHARGE=1+
MSLEVEL=2
SOURCE_INSTRUMENT=Positive-Quattro_QQQ:25eV
FILENAME=hmdb_intermediate.mgf
SEQ=*..*
IONMODE=Positive
ORGANISM=HMDB
NAME=HMDB:HMDB01511-1617 Phosphocreatine M+H
PI=HMDB
DATACOLLECTOR=HMDB
SMILES=CN(CC(O)=O)C(=N)NP(O)(O)=O
INCHI=InChI=1S/C4H10N3O5P/c1-7(2-3(8)9)4(5)6-13(10,11)12/h2H2,1H3,(H,8,9)(H4,5,6,10,11,12)
INCHIAUX=N/A
PUBMED=N/A
SUBMITUSER=mwang87
TAGS=
LIBRARYQUALITY=3
SPECTRUMID=CCMSLIB00000426100
SCANS=1072
76.0 100.0 
77.0 64.065 
END IONS

BEGIN IONS
PEPMASS=181.071
CHARGE=1+
MSLEVEL=2
SOURCE_INSTRUMENT=Positive-Quattro_QQQ:10eV
FILENAME=hmdb_intermediate.mgf
SEQ=*..*
IONMODE=Positive
ORGANISM=HMDB
NAME=HMDB:HMDB00143-215 D-Galactose M+H
PI=HMDB
DATACOLLECTOR=HMDB
SMILES=OC[C@H]1O[C@H](O)[C@H](O)[C@@H](O)[C@H]1O
INCHI=InChI=1S/C6H12O6/c7-1-2-3(8)4(9)5(10)6(11)12-2/h2-11H,1H2/t2-,3+,4+,5-,6+/m1/s1
INCHIAUX=N/A
PUBMED=N/A
SUBMITUSER=mwang87
TAGS=
LIBRARYQUALITY=3
SPECTRUMID=CCMSLIB00000426101
SCANS=1073
149.0 100.0 
END IONS

BEGIN IONS
PEPMASS=163.108
CHARGE=1+
MSLEVEL=2
SOURCE_INSTRUMENT=Positive-Quattro_QQQ:25eV
FILENAME=hmdb_intermediate.mgf
SEQ=*..*
IONMODE=Positive
ORGANISM=HMDB
NAME=HMDB:HMDB00450-657 5-Hydroxylysine M+H
PI=HMDB
DATACOLLECTOR=HMDB
SMILES=NC[C@H](O)CC[C@H](N)C(O)=O
INCHI=InChI=1S/C6H14N2O3/c7-3-4(9)1-2-5(8)6(10)11/h4-5,9H,1-3,7-8H2,(H,10,11)/t4-,5+/m1/s1
INCHIAUX=N/A
PUBMED=N/A
SUBMITUSER=mwang87
TAGS=
LIBRARYQUALITY=3
SPECTRUMID=CCMSLIB00000426102
SCANS=1074
82.0 100.0 
END IONS

BEGIN IONS
PEPMASS=391.285
CHARGE=1+
MSLEVEL=2
SOURCE_INSTRUMENT=Negative-Quattro_QQQ:25eV
FILENAME=hmdb_intermediate.mgf
SEQ=*..*
IONMODE=Negative
ORGANISM=HMDB
NAME=HMDB:HMDB00733-1036 Hyodeoxycholic acid M-H
PI=HMDB
DATACOLLECTOR=HMDB
SMILES=[H][C@@]12CC[C@H]([C@H](C)CCC(O)=O)[C@@]1(C)CC[C@@]1([H])[C@@]2([H])C[C@H](O)C2C[C@H](O)CC[C@]12C
INCHI=InChI=1S/C24H40O4/c1-14(4-7-22(27)28)17-5-6-18-16-13-21(26)20-12-15(25)8-10-24(20,3)19(16)9-11-23(17,18)2/h14-21,25-26H,4-13H2,1-3H3,(H,27,28)/t14-,15-,16+,17-,18+,19+,20?,21+,23-,24-/m1/s1
INCHIAUX=N/A
PUBMED=N/A
SUBMITUSER=mwang87
TAGS=
LIBRARYQUALITY=3
SPECTRUMID=CCMSLIB00000426103
SCANS=1075
391.0 100.0 
END IONS

BEGIN IONS
PEPMASS=122.097
CHARGE=1+
MSLEVEL=2
SOURCE_INSTRUMENT=Positive-Quattro_QQQ:40eV
FILENAME=hmdb_intermediate.mgf
SEQ=*..*
IONMODE=Positive
ORGANISM=HMDB
NAME=HMDB:HMDB02017-1949 1-Phenylethylamine M+H
PI=HMDB
DATACOLLECTOR=HMDB
SMILES=CC(N)C1=CC=CC=C1
INCHI=InChI=1S/C8H11N/c1-7(9)8-5-3-2-4-6-8/h2-7H,9H2,1H3
INCHIAUX=N/A
PUBMED=N/A
SUBMITUSER=mwang87
TAGS=
LIBRARYQUALITY=3
SPECTRUMID=CCMSLIB00000426104
SCANS=1076
51.11 63.882 
76.85 100.0 
END IONS

BEGIN IONS
PEPMASS=201.984
CHARGE=1+
MSLEVEL=2
SOURCE_INSTRUMENT=Positive-Quattro_QQQ:40eV
FILENAME=hmdb_intermediate.mgf
SEQ=*..*
IONMODE=Positive
ORGANISM=HMDB
NAME=HMDB:HMDB00731-1031 Cysteine-S-sulfate M+H
PI=HMDB
DATACOLLECTOR=HMDB
SMILES=N[C@@H](CSS(O)(=O)=O)C(O)=O
INCHI=InChI=1S/C3H7NO5S2/c4-2(3(5)6)1-10-11(7,8)9/h2H,1,4H2,(H,5,6)(H,7,8,9)/t2-/m0/s1
INCHIAUX=N/A
PUBMED=N/A
SUBMITUSER=mwang87
TAGS=
LIBRARYQUALITY=3
SPECTRUMID=CCMSLIB00000426105
SCANS=1077
74.0 100.0 
END IONS

BEGIN IONS
PEPMASS=181.071
CHARGE=1+
MSLEVEL=2
SOURCE_INSTRUMENT=Positive-Quattro_QQQ:25eV
FILENAME=hmdb_intermediate.mgf
SEQ=*..*
IONMODE=Positive
ORGANISM=HMDB
NAME=HMDB:HMDB01266-1499 L-Sorbose M+H
PI=HMDB
DATACOLLECTOR=HMDB
SMILES=OC[C@@]1(O)OC[C@H](O)[C@@H](O)[C@@H]1O
INCHI=InChI=1S/C6H12O6/c7-2-6(11)5(10)4(9)3(8)1-12-6/h3-5,7-11H,1-2H2/t3-,4+,5-,6+/m0/s1
INCHIAUX=N/A
PUBMED=N/A
SUBMITUSER=mwang87
TAGS=
LIBRARYQUALITY=3
SPECTRUMID=CCMSLIB00000426106
SCANS=1078
73.0 50.876 
85.0 100.0 
117.0 87.853 
END IONS

BEGIN IONS
PEPMASS=581.187
CHARGE=1+
MSLEVEL=2
SOURCE_INSTRUMENT=Positive-Quattro_QQQ:10eV
FILENAME=hmdb_intermediate.mgf
SEQ=*..*
IONMODE=Positive
ORGANISM=HMDB
NAME=HMDB:HMDB02927-2169 Naringin M+H
PI=HMDB
DATACOLLECTOR=HMDB
SMILES=C[C@@H]1O[C@@H](O[C@@H]2[C@@H](O)[C@H](O)[C@@H](CO)O[C@H]2OC2=CC(O)=C3C(=O)C[C@H](OC3=C2)C2=CC=C(O)C=C2)[C@H](O)[C@H](O)[C@H]1O
INCHI=InChI=1S/C27H32O14/c1-10-20(32)22(34)24(36)26(37-10)41-25-23(35)21(33)18(9-28)40-27(25)38-13-6-14(30)19-15(31)8-16(39-17(19)7-13)11-2-4-12(29)5-3-11/h2-7,10,16,18,20-30,32-36H,8-9H2,1H3/t10-,16-,18+,20-,21+,22+,23-,24+,25+,26-,27+/m0/s1
INCHIAUX=N/A
PUBMED=N/A
SUBMITUSER=mwang87
TAGS=
LIBRARYQUALITY=3
SPECTRUMID=CCMSLIB00000426107
SCANS=1079
581.0 100.0 
END IONS

BEGIN IONS
PEPMASS=176.071
CHARGE=1+
MSLEVEL=2
SOURCE_INSTRUMENT=Positive-Quattro_QQQ:40eV
FILENAME=hmdb_intermediate.mgf
SEQ=*..*
IONMODE=Positive
ORGANISM=HMDB
NAME=HMDB:HMDB00197-321 Indoleacetic acid M+H
PI=HMDB
DATACOLLECTOR=HMDB
SMILES=OC(=O)CC1=CNC2=C1C=CC=C2
INCHI=InChI=1S/C10H9NO2/c12-10(13)5-7-6-11-9-4-2-1-3-8(7)9/h1-4,6,11H,5H2,(H,12,13)
INCHIAUX=N/A
PUBMED=N/A
SUBMITUSER=mwang87
TAGS=
LIBRARYQUALITY=3
SPECTRUMID=CCMSLIB00000426108
SCANS=1080
77.035 100.0 
102.896 66.935 
129.892 65.86 
END IONS

BEGIN IONS
PEPMASS=95.0167
CHARGE=1+
MSLEVEL=2
SOURCE_INSTRUMENT=Positive-Quattro_QQQ:40eV
FILENAME=hmdb_intermediate.mgf
SEQ=*..*
IONMODE=Positive
ORGANISM=HMDB
NAME=HMDB:HMDB04983-2423 Dimethyl sulfone M+H
PI=HMDB
DATACOLLECTOR=HMDB
SMILES=CS(C)(=O)=O
INCHI=InChI=1S/C2H6O2S/c1-5(2,3)4/h1-2H3
INCHIAUX=N/A
PUBMED=N/A
SUBMITUSER=mwang87
TAGS=
LIBRARYQUALITY=3
SPECTRUMID=CCMSLIB00000426109
SCANS=1081
65.0 100.0 
END IONS

BEGIN IONS
PEPMASS=103.124
CHARGE=1+
MSLEVEL=2
SOURCE_INSTRUMENT=Positive-Quattro_QQQ:10eV
FILENAME=hmdb_intermediate.mgf
SEQ=*..*
IONMODE=Positive
ORGANISM=HMDB
NAME=HMDB:HMDB02322-2055 Cadaverine M+H
PI=HMDB
DATACOLLECTOR=HMDB
SMILES=NCCCCCN
INCHI=InChI=1S/C5H14N2/c6-4-2-1-3-5-7/h1-7H2
INCHIAUX=N/A
PUBMED=N/A
SUBMITUSER=mwang87
TAGS=
LIBRARYQUALITY=3
SPECTRUMID=CCMSLIB00000426110
SCANS=1082
86.0 100.0 
END IONS

BEGIN IONS
PEPMASS=647.465
CHARGE=1+
MSLEVEL=2
SOURCE_INSTRUMENT=Negative-Quattro_QQQ:10eV
FILENAME=hmdb_intermediate.mgf
SEQ=*..*
IONMODE=Negative
ORGANISM=HMDB
NAME=HMDB:HMDB00674-933 PA(16:0/16:0) M-H
PI=HMDB
DATACOLLECTOR=HMDB
SMILES=CCCCCCCCCCCCCCCC(=O)OC[C@H](COP(O)(O)=O)OC(=O)CCCCCCCCCCCCCCC
INCHI=InChI=1S/C35H69O8P/c1-3-5-7-9-11-13-15-17-19-21-23-25-27-29-34(36)41-31-33(32-42-44(38,39)40)43-35(37)30-28-26-24-22-20-18-16-14-12-10-8-6-4-2/h33H,3-32H2,1-2H3,(H2,38,39,40)/t33-/m1/s1
INCHIAUX=N/A
PUBMED=N/A
SUBMITUSER=mwang87
TAGS=
LIBRARYQUALITY=3
SPECTRUMID=CCMSLIB00000426111
SCANS=1083
647.0 100.0 
END IONS

BEGIN IONS
PEPMASS=276.11
CHARGE=1+
MSLEVEL=2
SOURCE_INSTRUMENT=Positive-Quattro_QQQ:25eV
FILENAME=hmdb_intermediate.mgf
SEQ=*..*
IONMODE=Positive
ORGANISM=HMDB
NAME=HMDB:HMDB01786-1682 Ethenodeoxyadenosine M+H
PI=HMDB
DATACOLLECTOR=HMDB
SMILES=OC[C@H]1O[C@H](C[C@@H]1O)N1C=NC2=C1N=CN1C=CN=C21
INCHI=InChI=1S/C12H13N5O3/c18-4-8-7(19)3-9(20-8)17-6-14-10-11-13-1-2-16(11)5-15-12(10)17/h1-2,5-9,18-19H,3-4H2/t7-,8+,9+/m0/s1
INCHIAUX=N/A
PUBMED=N/A
SUBMITUSER=mwang87
TAGS=
LIBRARYQUALITY=3
SPECTRUMID=CCMSLIB00000426112
SCANS=1084
160.038 100.0 
END IONS

BEGIN IONS
PEPMASS=89.0603
CHARGE=1+
MSLEVEL=2
SOURCE_INSTRUMENT=Positive-Quattro_QQQ:40eV
FILENAME=hmdb_intermediate.mgf
SEQ=*..*
IONMODE=Positive
ORGANISM=HMDB
NAME=HMDB:HMDB01873-1764 Isobutyric acid M+H
PI=HMDB
DATACOLLECTOR=HMDB
SMILES=CC(C)C(O)=O
INCHI=InChI=1S/C4H8O2/c1-3(2)4(5)6/h3H,1-2H3,(H,5,6)
INCHIAUX=N/A
PUBMED=N/A
SUBMITUSER=mwang87
TAGS=
LIBRARYQUALITY=3
SPECTRUMID=CCMSLIB00000426113
SCANS=1085
53.53 91.66 
89.085 100.0 
END IONS

BEGIN IONS
PEPMASS=331.227
CHARGE=1+
MSLEVEL=2
SOURCE_INSTRUMENT=Positive-Quattro_QQQ:25eV
FILENAME=hmdb_intermediate.mgf
SEQ=*..*
IONMODE=Positive
ORGANISM=HMDB
NAME=HMDB:HMDB00374-589 17-Hydroxyprogesterone M+H
PI=HMDB
DATACOLLECTOR=HMDB
SMILES=[H][C@@]12CC[C@](O)(C(C)=O)[C@@]1(C)CC[C@@]1([H])[C@@]2([H])CCC2=CC(=O)CC[C@]12C
INCHI=InChI=1S/C21H30O3/c1-13(22)21(24)11-8-18-16-5-4-14-12-15(23)6-9-19(14,2)17(16)7-10-20(18,21)3/h12,16-18,24H,4-11H2,1-3H3/t16-,17+,18+,19+,20+,21+/m1/s1
INCHIAUX=N/A
PUBMED=N/A
SUBMITUSER=mwang87
TAGS=
LIBRARYQUALITY=3
SPECTRUMID=CCMSLIB00000426114
SCANS=1086
97.09 100.0 
109.051 86.256 
END IONS

BEGIN IONS
PEPMASS=164.094
CHARGE=1+
MSLEVEL=2
SOURCE_INSTRUMENT=Positive-Quattro_QQQ:25eV
FILENAME=hmdb_intermediate.mgf
SEQ=*..*
IONMODE=Positive
ORGANISM=HMDB
NAME=HMDB:HMDB00473-690 6-Dimethylaminopurine M+H
PI=HMDB
DATACOLLECTOR=HMDB
SMILES=CN(C)C1=NC=NC2=C1NC=N2
INCHI=InChI=1S/C7H9N5/c1-12(2)7-5-6(9-3-8-5)10-4-11-7/h3-4H,1-2H3,(H,8,9,10,11)
INCHIAUX=N/A
PUBMED=N/A
SUBMITUSER=mwang87
TAGS=
LIBRARYQUALITY=3
SPECTRUMID=CCMSLIB00000426115
SCANS=1087
163.882 100.0 
END IONS

BEGIN IONS
PEPMASS=291.087
CHARGE=1+
MSLEVEL=2
SOURCE_INSTRUMENT=Positive-Quattro_QQQ:10eV
FILENAME=hmdb_intermediate.mgf
SEQ=*..*
IONMODE=Positive
ORGANISM=HMDB
NAME=HMDB:HMDB01871-1759 Epicatechin M+H
PI=HMDB
DATACOLLECTOR=HMDB
SMILES=O[C@@H]1CC2=C(O)C=C(O)C=C2O[C@@H]1C1=CC(O)=C(O)C=C1
INCHI=InChI=1S/C15H14O6/c16-8-4-11(18)9-6-13(20)15(21-14(9)5-8)7-1-2-10(17)12(19)3-7/h1-5,13,15-20H,6H2/t13-,15-/m1/s1
INCHIAUX=N/A
PUBMED=N/A
SUBMITUSER=mwang87
TAGS=
LIBRARYQUALITY=3
SPECTRUMID=CCMSLIB00000426116
SCANS=1088
188.302 100.0 
291.284 82.316 
END IONS

BEGIN IONS
PEPMASS=303.196
CHARGE=1+
MSLEVEL=2
SOURCE_INSTRUMENT=Positive-Quattro_QQQ:10eV
FILENAME=hmdb_intermediate.mgf
SEQ=*..*
IONMODE=Positive
ORGANISM=HMDB
NAME=HMDB:HMDB00405-615 2-Methoxyestradiol M+H
PI=HMDB
DATACOLLECTOR=HMDB
SMILES=[H][C@@]12CC[C@H](O)[C@@]1(C)CC[C@]1([H])C3=C(CC[C@@]21[H])C=C(O)C(OC)=C3
INCHI=InChI=1S/C19H26O3/c1-19-8-7-12-13(15(19)5-6-18(19)21)4-3-11-9-16(20)17(22-2)10-14(11)12/h9-10,12-13,15,18,20-21H,3-8H2,1-2H3/t12-,13+,15-,18-,19-/m0/s1
INCHIAUX=N/A
PUBMED=N/A
SUBMITUSER=mwang87
TAGS=
LIBRARYQUALITY=3
SPECTRUMID=CCMSLIB00000426117
SCANS=1089
151.0 100.0 
END IONS

BEGIN IONS
PEPMASS=179.056
CHARGE=1+
MSLEVEL=2
SOURCE_INSTRUMENT=Negative-Quattro_QQQ:10eV
FILENAME=hmdb_intermediate.mgf
SEQ=*..*
IONMODE=Negative
ORGANISM=HMDB
NAME=HMDB:HMDB01151-1436 Allose M-H
PI=HMDB
DATACOLLECTOR=HMDB
SMILES=[H][C@@]1(CO)OC(O)[C@@]([H])(O)[C@@]([H])(O)[C@@]1([H])O
INCHI=InChI=1S/C6H12O6/c7-1-2-3(8)4(9)5(10)6(11)12-2/h2-11H,1H2/t2-,3-,4-,5-,6?/m0/s1
INCHIAUX=N/A
PUBMED=N/A
SUBMITUSER=mwang87
TAGS=
LIBRARYQUALITY=3
SPECTRUMID=CCMSLIB00000426118
SCANS=1090
89.0 100.0 
119.0 52.873 
END IONS

BEGIN IONS
PEPMASS=235.108
CHARGE=1+
MSLEVEL=2
SOURCE_INSTRUMENT=Positive-Quattro_QQQ:10eV
FILENAME=hmdb_intermediate.mgf
SEQ=*..*
IONMODE=Positive
ORGANISM=HMDB
NAME=HMDB:HMDB02339-2064 5-Methoxytryptophan M+H
PI=HMDB
DATACOLLECTOR=HMDB
SMILES=COC1=CC2=C(NC=C2C[C@H](N)C(O)=O)C=C1
INCHI=InChI=1S/C12H14N2O3/c1-17-8-2-3-11-9(5-8)7(6-14-11)4-10(13)12(15)16/h2-3,5-6,10,14H,4,13H2,1H3,(H,15,16)/t10-/m0/s1
INCHIAUX=N/A
PUBMED=N/A
SUBMITUSER=mwang87
TAGS=
LIBRARYQUALITY=3
SPECTRUMID=CCMSLIB00000426119
SCANS=1091
217.0 100.0 
END IONS

BEGIN IONS
PEPMASS=151.04
CHARGE=1+
MSLEVEL=2
SOURCE_INSTRUMENT=Negative-Quattro_QQQ:40eV
FILENAME=hmdb_intermediate.mgf
SEQ=*..*
IONMODE=Negative
ORGANISM=HMDB
NAME=HMDB:HMDB00703-983 Mandelic acid M-H
PI=HMDB
DATACOLLECTOR=HMDB
SMILES=O[C@H](C(O)=O)C1=CC=CC=C1
INCHI=InChI=1S/C8H8O3/c9-7(8(10)11)6-4-2-1-3-5-6/h1-5,7,9H,(H,10,11)/t7-/m0/s1
INCHIAUX=N/A
PUBMED=N/A
SUBMITUSER=mwang87
TAGS=
LIBRARYQUALITY=3
SPECTRUMID=CCMSLIB00000426120
SCANS=1092
150.962 100.0 
END IONS

BEGIN IONS
PEPMASS=177.051
CHARGE=1+
MSLEVEL=2
SOURCE_INSTRUMENT=Positive-Quattro_QQQ:25eV
FILENAME=hmdb_intermediate.mgf
SEQ=*..*
IONMODE=Positive
ORGANISM=HMDB
NAME=HMDB:HMDB00828-1179 Ureidosuccinic acid M+H
PI=HMDB
DATACOLLECTOR=HMDB
SMILES=NC(=O)N[C@@H](CC(O)=O)C(O)=O
INCHI=InChI=1S/C5H8N2O5/c6-5(12)7-2(4(10)11)1-3(8)9/h2H,1H2,(H,8,9)(H,10,11)(H3,6,7,12)/t2-/m0/s1
INCHIAUX=N/A
PUBMED=N/A
SUBMITUSER=mwang87
TAGS=
LIBRARYQUALITY=3
SPECTRUMID=CCMSLIB00000426121
SCANS=1093
74.038 100.0 
END IONS

BEGIN IONS
PEPMASS=90.0555
CHARGE=1+
MSLEVEL=2
SOURCE_INSTRUMENT=Positive-Quattro_QQQ:25eV
FILENAME=hmdb_intermediate.mgf
SEQ=*..*
IONMODE=Positive
ORGANISM=HMDB
NAME=HMDB:HMDB00271-473 Sarcosine M+H
PI=HMDB
DATACOLLECTOR=HMDB
SMILES=CNCC(O)=O
INCHI=InChI=1S/C3H7NO2/c1-4-2-3(5)6/h4H,2H2,1H3,(H,5,6)
INCHIAUX=N/A
PUBMED=N/A
SUBMITUSER=mwang87
TAGS=
LIBRARYQUALITY=3
SPECTRUMID=CCMSLIB00000426122
SCANS=1094
44.263 100.0 
END IONS

BEGIN IONS
PEPMASS=288.217
CHARGE=1+
MSLEVEL=2
SOURCE_INSTRUMENT=Positive-Quattro_QQQ:25eV
FILENAME=hmdb_intermediate.mgf
SEQ=*..*
IONMODE=Positive
ORGANISM=HMDB
NAME=HMDB:HMDB00791-1127 L-Octanoylcarnitine M+H
PI=HMDB
DATACOLLECTOR=HMDB
SMILES=CCCCCCCC(=O)O[C@H](CC([O-])=O)C[N+](C)(C)C
INCHI=InChI=1S/C15H29NO4/c1-5-6-7-8-9-10-15(19)20-13(11-14(17)18)12-16(2,3)4/h13H,5-12H2,1-4H3/t13-/m1/s1
INCHIAUX=N/A
PUBMED=N/A
SUBMITUSER=mwang87
TAGS=
LIBRARYQUALITY=3
SPECTRUMID=CCMSLIB00000426123
SCANS=1095
85.197 100.0 
END IONS

BEGIN IONS
PEPMASS=240.11
CHARGE=1+
MSLEVEL=2
SOURCE_INSTRUMENT=Positive-Quattro_QQQ:40eV
FILENAME=hmdb_intermediate.mgf
SEQ=*..*
IONMODE=Positive
ORGANISM=HMDB
NAME=HMDB:HMDB00038-65 Dihydrobiopterin M+H
PI=HMDB
DATACOLLECTOR=HMDB
SMILES=CC(O)C(O)C1=NC2=C(NC1)N=C(N)NC2=O
INCHI=InChI=1S/C9H13N5O3/c1-3(15)6(16)4-2-11-7-5(12-4)8(17)14-9(10)13-7/h3,6,15-16H,2H2,1H3,(H4,10,11,13,14,17)
INCHIAUX=N/A
PUBMED=N/A
SUBMITUSER=mwang87
TAGS=
LIBRARYQUALITY=3
SPECTRUMID=CCMSLIB00000426124
SCANS=1096
65.0 100.0 
66.0 62.094 
67.0 51.11 
81.0 50.97 
END IONS

BEGIN IONS
PEPMASS=397.347
CHARGE=1+
MSLEVEL=2
SOURCE_INSTRUMENT=Positive-Quattro_QQQ:25eV
FILENAME=hmdb_intermediate.mgf
SEQ=*..*
IONMODE=Positive
ORGANISM=HMDB
NAME=HMDB:HMDB00900-1278 Ergocalciferol M+H
PI=HMDB
DATACOLLECTOR=HMDB
SMILES=CC(C)[C@@H](C)\C=C\[C@@H](C)[C@H]1CC[C@@]2([H])\C(CCC[C@]12C)=C\C=C1\C[C@@H](O)CCC1=C
INCHI=InChI=1S/C28H44O/c1-19(2)20(3)9-10-22(5)26-15-16-27-23(8-7-17-28(26,27)6)12-13-24-18-25(29)14-11-21(24)4/h9-10,12-13,19-20,22,25-27,29H,4,7-8,11,14-18H2,1-3,5-6H3/b10-9+,23-12+,24-13-/t20-,22+,25-,26+,27-,28+/m0/s1
INCHIAUX=N/A
PUBMED=N/A
SUBMITUSER=mwang87
TAGS=
LIBRARYQUALITY=3
SPECTRUMID=CCMSLIB00000426125
SCANS=1097
68.0 81.108 
80.0 64.012 
120.0 64.651 
124.0 72.577 
158.0 100.0 
396.0 74.997 
END IONS

BEGIN IONS
PEPMASS=167.034
CHARGE=1+
MSLEVEL=2
SOURCE_INSTRUMENT=Negative-Quattro_QQQ:40eV
FILENAME=hmdb_intermediate.mgf
SEQ=*..*
IONMODE=Negative
ORGANISM=HMDB
NAME=HMDB:HMDB00484-703 Vanillic acid M-H
PI=HMDB
DATACOLLECTOR=HMDB
SMILES=COC1=CC(=CC=C1O)C(O)=O
INCHI=InChI=1S/C8H8O4/c1-12-7-4-5(8(10)11)2-3-6(7)9/h2-4,9H,1H3,(H,10,11)
INCHIAUX=N/A
PUBMED=N/A
SUBMITUSER=mwang87
TAGS=
LIBRARYQUALITY=3
SPECTRUMID=CCMSLIB00000426126
SCANS=1098
107.921 100.0 
END IONS

BEGIN IONS
PEPMASS=260.054
CHARGE=1+
MSLEVEL=2
SOURCE_INSTRUMENT=Positive-Quattro_QQQ:25eV
FILENAME=hmdb_intermediate.mgf
SEQ=*..*
IONMODE=Positive
ORGANISM=HMDB
NAME=HMDB:HMDB01254-1485 Glucosamine 6-phosphate M+H
PI=HMDB
DATACOLLECTOR=HMDB
SMILES=N[C@H]1[C@@H](O)O[C@H](COP(O)(O)=O)[C@@H](O)[C@@H]1O
INCHI=InChI=1S/C6H14NO8P/c7-3-5(9)4(8)2(15-6(3)10)1-14-16(11,12)13/h2-6,8-10H,1,7H2,(H2,11,12,13)/t2-,3-,4-,5-,6+/m1/s1
INCHIAUX=N/A
PUBMED=N/A
SUBMITUSER=mwang87
TAGS=
LIBRARYQUALITY=3
SPECTRUMID=CCMSLIB00000426127
SCANS=1099
84.0 100.0 
98.0 61.098 
108.0 83.1 
126.0 67.32 
END IONS

BEGIN IONS
PEPMASS=133.061
CHARGE=1+
MSLEVEL=2
SOURCE_INSTRUMENT=Positive-Quattro_QQQ:40eV
FILENAME=hmdb_intermediate.mgf
SEQ=*..*
IONMODE=Positive
ORGANISM=HMDB
NAME=HMDB:HMDB00026-47 Ureidopropionic acid M+H
PI=HMDB
DATACOLLECTOR=HMDB
SMILES=NC(=O)NCCC(O)=O
INCHI=InChI=1S/C4H8N2O3/c5-4(9)6-2-1-3(7)8/h1-2H2,(H,7,8)(H3,5,6,9)
INCHIAUX=N/A
PUBMED=N/A
SUBMITUSER=mwang87
TAGS=
LIBRARYQUALITY=3
SPECTRUMID=CCMSLIB00000426128
SCANS=1100
44.148 100.0 
55.203 64.935 
72.246 51.948 
END IONS

BEGIN IONS
PEPMASS=136.043
CHARGE=1+
MSLEVEL=2
SOURCE_INSTRUMENT=Positive-Quattro_QQQ:40eV
FILENAME=hmdb_intermediate.mgf
SEQ=*..*
IONMODE=Positive
ORGANISM=HMDB
NAME=HMDB:HMDB00742-1055 Homocysteine M+H
PI=HMDB
DATACOLLECTOR=HMDB
SMILES=NC(CCS)C(O)=O
INCHI=InChI=1S/C4H9NO2S/c5-3(1-2-8)4(6)7/h3,8H,1-2,5H2,(H,6,7)
INCHIAUX=N/A
PUBMED=N/A
SUBMITUSER=mwang87
TAGS=
LIBRARYQUALITY=3
SPECTRUMID=CCMSLIB00000426129
SCANS=1101
47.216 100.0 
56.21 87.857 
END IONS

BEGIN IONS
PEPMASS=166.087
CHARGE=1+
MSLEVEL=2
SOURCE_INSTRUMENT=Positive-Quattro_QQQ:40eV
FILENAME=hmdb_intermediate.mgf
SEQ=*..*
IONMODE=Positive
ORGANISM=HMDB
NAME=HMDB:HMDB00159-250 L-Phenylalanine M+H
PI=HMDB
DATACOLLECTOR=HMDB
SMILES=N[C@@H](CC1=CC=CC=C1)C(O)=O
INCHI=InChI=1S/C9H11NO2/c10-8(9(11)12)6-7-4-2-1-3-5-7/h1-5,8H,6,10H2,(H,11,12)/t8-/m0/s1
INCHIAUX=N/A
PUBMED=N/A
SUBMITUSER=mwang87
TAGS=
LIBRARYQUALITY=3
SPECTRUMID=CCMSLIB00000426130
SCANS=1102
77.077 100.0 
END IONS

BEGIN IONS
PEPMASS=253.094
CHARGE=1+
MSLEVEL=2
SOURCE_INSTRUMENT=Positive-Quattro_QQQ:10eV
FILENAME=hmdb_intermediate.mgf
SEQ=*..*
IONMODE=Positive
ORGANISM=HMDB
NAME=HMDB:HMDB00071-114 Deoxyinosine M+H
PI=HMDB
DATACOLLECTOR=HMDB
SMILES=OC[C@H]1O[C@H](C[C@@H]1O)N1C=NC2=C1N=CN=C2O
INCHI=InChI=1S/C10H12N4O4/c15-2-6-5(16)1-7(18-6)14-4-13-8-9(14)11-3-12-10(8)17/h3-7,15-16H,1-2H2,(H,11,12,17)/t5-,6+,7+/m0/s1
INCHIAUX=N/A
PUBMED=N/A
SUBMITUSER=mwang87
TAGS=
LIBRARYQUALITY=3
SPECTRUMID=CCMSLIB00000426131
SCANS=1103
137.128 100.0 
END IONS

BEGIN IONS
PEPMASS=508.988
CHARGE=1+
MSLEVEL=2
SOURCE_INSTRUMENT=Positive-Quattro_QQQ:10eV
FILENAME=hmdb_intermediate.mgf
SEQ=*..*
IONMODE=Positive
ORGANISM=HMDB
NAME=HMDB:HMDB00189-298 Inosine triphosphate M+H
PI=HMDB
DATACOLLECTOR=HMDB
SMILES=O[C@@H]1[C@@H](COP(O)(=O)OP(O)(=O)OP(O)(O)=O)O[C@H]([C@@H]1O)N1C=NC2=C1N=CN=C2O
INCHI=InChI=1S/C10H15N4O14P3/c15-6-4(1-25-30(21,22)28-31(23,24)27-29(18,19)20)26-10(7(6)16)14-3-13-5-8(14)11-2-12-9(5)17/h2-4,6-7,10,15-16H,1H2,(H,21,22)(H,23,24)(H,11,12,17)(H2,18,19,20)/t4-,6-,7-,10-/m1/s1
INCHIAUX=N/A
PUBMED=N/A
SUBMITUSER=mwang87
TAGS=
LIBRARYQUALITY=3
SPECTRUMID=CCMSLIB00000426132
SCANS=1104
137.0 64.904 
509.0 100.0 
END IONS

BEGIN IONS
PEPMASS=130.087
CHARGE=1+
MSLEVEL=2
SOURCE_INSTRUMENT=Positive-Quattro_QQQ:40eV
FILENAME=hmdb_intermediate.mgf
SEQ=*..*
IONMODE=Positive
ORGANISM=HMDB
NAME=HMDB:HMDB00070-113 Pipecolic acid M+H
PI=HMDB
DATACOLLECTOR=HMDB
SMILES=OC(=O)C1CCCCN1
INCHI=InChI=1S/C6H11NO2/c8-6(9)5-3-1-2-4-7-5/h5,7H,1-4H2,(H,8,9)
INCHIAUX=N/A
PUBMED=N/A
SUBMITUSER=mwang87
TAGS=
LIBRARYQUALITY=3
SPECTRUMID=CCMSLIB00000426133
SCANS=1105
56.017 100.0 
83.989 58.209 
END IONS

BEGIN IONS
PEPMASS=195.066
CHARGE=1+
MSLEVEL=2
SOURCE_INSTRUMENT=Positive-Quattro_QQQ:10eV
FILENAME=hmdb_intermediate.mgf
SEQ=*..*
IONMODE=Positive
ORGANISM=HMDB
NAME=HMDB:HMDB00954-1348 trans-Ferulic acid M+H
PI=HMDB
DATACOLLECTOR=HMDB
SMILES=COC1=C(O)C=CC(\C=C\C(O)=O)=C1
INCHI=InChI=1S/C10H10O4/c1-14-9-6-7(2-4-8(9)11)3-5-10(12)13/h2-6,11H,1H3,(H,12,13)/b5-3+
INCHIAUX=N/A
PUBMED=N/A
SUBMITUSER=mwang87
TAGS=
LIBRARYQUALITY=3
SPECTRUMID=CCMSLIB00000426134
SCANS=1106
176.0 100.0 
END IONS

BEGIN IONS
PEPMASS=129.019
CHARGE=1+
MSLEVEL=2
SOURCE_INSTRUMENT=Negative-Quattro_QQQ:25eV
FILENAME=hmdb_intermediate.mgf
SEQ=*..*
IONMODE=Negative
ORGANISM=HMDB
NAME=HMDB:HMDB00620-838 Glutaconic acid M-H
PI=HMDB
DATACOLLECTOR=HMDB
SMILES=OC(=O)C\C=C\C(O)=O
INCHI=InChI=1S/C5H6O4/c6-4(7)2-1-3-5(8)9/h1-2H,3H2,(H,6,7)(H,8,9)/b2-1+
INCHIAUX=N/A
PUBMED=N/A
SUBMITUSER=mwang87
TAGS=
LIBRARYQUALITY=3
SPECTRUMID=CCMSLIB00000426135
SCANS=1107
41.301 100.0 
85.005 51.445 
END IONS

BEGIN IONS
PEPMASS=162.055
CHARGE=1+
MSLEVEL=2
SOURCE_INSTRUMENT=Positive-Quattro_QQQ:25eV
FILENAME=hmdb_intermediate.mgf
SEQ=*..*
IONMODE=Positive
ORGANISM=HMDB
NAME=HMDB:HMDB03320-2243 Indole-3-carboxylic acid M+H
PI=HMDB
DATACOLLECTOR=HMDB
SMILES=OC(=O)C1=CNC2=CC=CC=C12
INCHI=InChI=1S/C9H7NO2/c11-9(12)7-5-10-8-4-2-1-3-6(7)8/h1-5,10H,(H,11,12)
INCHIAUX=N/A
PUBMED=N/A
SUBMITUSER=mwang87
TAGS=
LIBRARYQUALITY=3
SPECTRUMID=CCMSLIB00000426136
SCANS=1108
90.0 100.0 
91.0 56.743 
118.0 76.145 
END IONS

BEGIN IONS
PEPMASS=168.99
CHARGE=1+
MSLEVEL=2
SOURCE_INSTRUMENT=Positive-Quattro_QQQ:25eV
FILENAME=hmdb_intermediate.mgf
SEQ=*..*
IONMODE=Positive
ORGANISM=HMDB
NAME=HMDB:HMDB00263-458 Phosphoenolpyruvic acid M+H
PI=HMDB
DATACOLLECTOR=HMDB
SMILES=OC(=O)C(=C)OP(O)(O)=O
INCHI=InChI=1S/C3H5O6P/c1-2(3(4)5)9-10(6,7)8/h1H2,(H,4,5)(H2,6,7,8)
INCHIAUX=N/A
PUBMED=N/A
SUBMITUSER=mwang87
TAGS=
LIBRARYQUALITY=3
SPECTRUMID=CCMSLIB00000426137
SCANS=1109
43.0 93.496 
59.0 52.197 
81.0 100.0 
98.0 58.302 
END IONS

BEGIN IONS
PEPMASS=205.098
CHARGE=1+
MSLEVEL=2
SOURCE_INSTRUMENT=Positive-Quattro_QQQ:10eV
FILENAME=hmdb_intermediate.mgf
SEQ=*..*
IONMODE=Positive
ORGANISM=HMDB
NAME=HMDB:HMDB00929-1321 L-Tryptophan M+H
PI=HMDB
DATACOLLECTOR=HMDB
SMILES=N[C@@H](CC1=CNC2=CC=CC=C12)C(O)=O
INCHI=InChI=1S/C11H12N2O2/c12-9(11(14)15)5-7-6-13-10-4-2-1-3-8(7)10/h1-4,6,9,13H,5,12H2,(H,14,15)/t9-/m0/s1
INCHIAUX=N/A
PUBMED=N/A
SUBMITUSER=mwang87
TAGS=
LIBRARYQUALITY=3
SPECTRUMID=CCMSLIB00000426138
SCANS=1110
187.876 100.0 
END IONS

BEGIN IONS
PEPMASS=333.243
CHARGE=1+
MSLEVEL=2
SOURCE_INSTRUMENT=Positive-Quattro_QQQ:40eV
FILENAME=hmdb_intermediate.mgf
SEQ=*..*
IONMODE=Positive
ORGANISM=HMDB
NAME=HMDB:HMDB00363-578 17a-Hydroxypregnenolone M+H
PI=HMDB
DATACOLLECTOR=HMDB
SMILES=[H][C@@]12CC[C@](O)(C(C)=O)[C@@]1(C)CC[C@@]1([H])[C@@]2([H])CC=C2C[C@@H](O)CC[C@]12C
INCHI=InChI=1S/C21H32O3/c1-13(22)21(24)11-8-18-16-5-4-14-12-15(23)6-9-19(14,2)17(16)7-10-20(18,21)3/h4,15-18,23-24H,5-12H2,1-3H3/t15-,16+,17-,18-,19-,20-,21-/m0/s1
INCHIAUX=N/A
PUBMED=N/A
SUBMITUSER=mwang87
TAGS=
LIBRARYQUALITY=3
SPECTRUMID=CCMSLIB00000426139
SCANS=1111
168.0 100.0 
END IONS

BEGIN IONS
PEPMASS=184.097
CHARGE=1+
MSLEVEL=2
SOURCE_INSTRUMENT=Positive-Quattro_QQQ:25eV
FILENAME=hmdb_intermediate.mgf
SEQ=*..*
IONMODE=Positive
ORGANISM=HMDB
NAME=HMDB:HMDB00068-109 Epinephrine M+H
PI=HMDB
DATACOLLECTOR=HMDB
SMILES=CNC[C@H](O)C1=CC=C(O)C(O)=C1
INCHI=InChI=1S/C9H13NO3/c1-10-5-9(13)6-2-3-7(11)8(12)4-6/h2-4,9-13H,5H2,1H3/t9-/m0/s1
INCHIAUX=N/A
PUBMED=N/A
SUBMITUSER=mwang87
TAGS=
LIBRARYQUALITY=3
SPECTRUMID=CCMSLIB00000426140
SCANS=1112
57.21 55.822 
107.01 100.0 
END IONS

BEGIN IONS
PEPMASS=299.123
CHARGE=1+
MSLEVEL=2
SOURCE_INSTRUMENT=Positive-Quattro_QQQ:10eV
FILENAME=hmdb_intermediate.mgf
SEQ=*..*
IONMODE=Positive
ORGANISM=HMDB
NAME=HMDB:HMDB01107-1424 7-Methylguanosine M+H
PI=HMDB
DATACOLLECTOR=HMDB
SMILES=CN1C=[N+]([C@@H]2O[C@H](CO)[C@@H](O)[C@H]2O)C2=C1C(=O)N=C(N)N2
INCHI=InChI=1S/C11H15N5O5/c1-15-3-16(8-5(15)9(20)14-11(12)13-8)10-7(19)6(18)4(2-17)21-10/h3-4,6-7,10,17-19H,2H2,1H3,(H2-,12,13,14,20)/p+1/t4-,6-,7-,10-/m1/s1
INCHIAUX=N/A
PUBMED=N/A
SUBMITUSER=mwang87
TAGS=
LIBRARYQUALITY=3
SPECTRUMID=CCMSLIB00000426141
SCANS=1113
165.981 100.0 
END IONS

BEGIN IONS
PEPMASS=157.014
CHARGE=1+
MSLEVEL=2
SOURCE_INSTRUMENT=Positive-Quattro_QQQ:10eV
FILENAME=hmdb_intermediate.mgf
SEQ=*..*
IONMODE=Positive
ORGANISM=HMDB
NAME=HMDB:HMDB04812-2403 2,5-Furandicarboxylic acid M+H
PI=HMDB
DATACOLLECTOR=HMDB
SMILES=OC(=O)C1=CC=C(O1)C(O)=O
INCHI=InChI=1S/C6H4O5/c7-5(8)3-1-2-4(11-3)6(9)10/h1-2H,(H,7,8)(H,9,10)
INCHIAUX=N/A
PUBMED=N/A
SUBMITUSER=mwang87
TAGS=
LIBRARYQUALITY=3
SPECTRUMID=CCMSLIB00000426142
SCANS=1114
138.55 100.0 
END IONS

BEGIN IONS
PEPMASS=177.103
CHARGE=1+
MSLEVEL=2
SOURCE_INSTRUMENT=Positive-Quattro_QQQ:40eV
FILENAME=hmdb_intermediate.mgf
SEQ=*..*
IONMODE=Positive
ORGANISM=HMDB
NAME=HMDB:HMDB01046-1399 Cotinine M+H
PI=HMDB
DATACOLLECTOR=HMDB
SMILES=CN1C(CCC1=O)C1=CN=CC=C1
INCHI=InChI=1S/C10H12N2O/c1-12-9(4-5-10(12)13)8-3-2-6-11-7-8/h2-3,6-7,9H,4-5H2,1H3
INCHIAUX=N/A
PUBMED=N/A
SUBMITUSER=mwang87
TAGS=
LIBRARYQUALITY=3
SPECTRUMID=CCMSLIB00000426143
SCANS=1115
80.0 100.0 
END IONS

BEGIN IONS
PEPMASS=131.034
CHARGE=1+
MSLEVEL=2
SOURCE_INSTRUMENT=Positive-Quattro_QQQ:40eV
FILENAME=hmdb_intermediate.mgf
SEQ=*..*
IONMODE=Positive
ORGANISM=HMDB
NAME=HMDB:HMDB00749-1070 Mesaconic acid M+H
PI=HMDB
DATACOLLECTOR=HMDB
SMILES=C\C(=C/C(O)=O)C(O)=O
INCHI=InChI=1S/C5H6O4/c1-3(5(8)9)2-4(6)7/h2H,1H3,(H,6,7)(H,8,9)/b3-2+
INCHIAUX=N/A
PUBMED=N/A
SUBMITUSER=mwang87
TAGS=
LIBRARYQUALITY=3
SPECTRUMID=CCMSLIB00000426144
SCANS=1116
63.0 79.816 
65.0 64.013 
67.0 84.059 
68.0 72.334 
71.0 63.713 
77.0 64.763 
81.0 100.0 
85.0 90.503 
91.0 60.959 
98.0 61.223 
99.0 68.127 
131.0 69.489 
END IONS

BEGIN IONS
PEPMASS=245.234
CHARGE=1+
MSLEVEL=2
SOURCE_INSTRUMENT=Positive-Quattro_QQQ:40eV
FILENAME=hmdb_intermediate.mgf
SEQ=*..*
IONMODE=Positive
ORGANISM=HMDB
NAME=HMDB:HMDB01186-1456 N1-Acetylspermine M+H
PI=HMDB
DATACOLLECTOR=HMDB
SMILES=CC(=O)NCCCNCCCCNCCCN
INCHI=InChI=1S/C12H28N4O/c1-12(17)16-11-5-10-15-8-3-2-7-14-9-4-6-13/h14-15H,2-11,13H2,1H3,(H,16,17)
INCHIAUX=N/A
PUBMED=N/A
SUBMITUSER=mwang87
TAGS=
LIBRARYQUALITY=3
SPECTRUMID=CCMSLIB00000426145
SCANS=1117
83.0 100.0 
END IONS

BEGIN IONS
PEPMASS=112.087
CHARGE=1+
MSLEVEL=2
SOURCE_INSTRUMENT=Positive-Quattro_QQQ:25eV
FILENAME=hmdb_intermediate.mgf
SEQ=*..*
IONMODE=Positive
ORGANISM=HMDB
NAME=HMDB:HMDB60263-1224 Histamium M+H
PI=HMDB
DATACOLLECTOR=HMDB
SMILES=NCCC1=CN=CN1
INCHI=InChI=1S/C5H9N3/c6-2-1-5-3-7-4-8-5/h3-4H,1-2,6H2,(H,7,8)
INCHIAUX=N/A
PUBMED=N/A
SUBMITUSER=mwang87
TAGS=
LIBRARYQUALITY=3
SPECTRUMID=CCMSLIB00000426146
SCANS=1118
41.332 57.872 
68.041 97.872 
94.993 100.0 
END IONS

BEGIN IONS
PEPMASS=349.055
CHARGE=1+
MSLEVEL=2
SOURCE_INSTRUMENT=Positive-Quattro_QQQ:10eV
FILENAME=hmdb_intermediate.mgf
SEQ=*..*
IONMODE=Positive
ORGANISM=HMDB
NAME=HMDB:HMDB00175-277 Inosinic acid M+H
PI=HMDB
DATACOLLECTOR=HMDB
SMILES=O[C@@H]1[C@@H](COP(O)(O)=O)O[C@H]([C@@H]1O)N1C=NC2=C1N=CNC2=O
INCHI=InChI=1S/C10H13N4O8P/c15-6-4(1-21-23(18,19)20)22-10(7(6)16)14-3-13-5-8(14)11-2-12-9(5)17/h2-4,6-7,10,15-16H,1H2,(H,11,12,17)(H2,18,19,20)/t4-,6-,7-,10-/m1/s1
INCHIAUX=N/A
PUBMED=N/A
SUBMITUSER=mwang87
TAGS=
LIBRARYQUALITY=3
SPECTRUMID=CCMSLIB00000426147
SCANS=1119
137.357 100.0 
END IONS

BEGIN IONS
PEPMASS=170.093
CHARGE=1+
MSLEVEL=2
SOURCE_INSTRUMENT=Positive-Quattro_QQQ:25eV
FILENAME=hmdb_intermediate.mgf
SEQ=*..*
IONMODE=Positive
ORGANISM=HMDB
NAME=HMDB:HMDB00001-2 1-Methylhistidine M+H
PI=HMDB
DATACOLLECTOR=HMDB
SMILES=CN1C=NC(C[C@H](N)C(O)=O)=C1
INCHI=InChI=1S/C7H11N3O2/c1-10-3-5(9-4-10)2-6(8)7(11)12/h3-4,6H,2,8H2,1H3,(H,11,12)/t6-/m0/s1
INCHIAUX=N/A
PUBMED=N/A
SUBMITUSER=mwang87
TAGS=
LIBRARYQUALITY=3
SPECTRUMID=CCMSLIB00000426148
SCANS=1120
124.08 100.0 
END IONS

BEGIN IONS
PEPMASS=332.076
CHARGE=1+
MSLEVEL=2
SOURCE_INSTRUMENT=Positive-Quattro_QQQ:25eV
FILENAME=hmdb_intermediate.mgf
SEQ=*..*
IONMODE=Positive
ORGANISM=HMDB
NAME=HMDB:HMDB00905-1290 Deoxyadenosine monophosphate M+H
PI=HMDB
DATACOLLECTOR=HMDB
SMILES=NC1=NC=NC2=C1N=CN2[C@H]1C[C@H](O)[C@@H](COP(O)(O)=O)O1
INCHI=InChI=1S/C10H14N5O6P/c11-9-8-10(13-3-12-9)15(4-14-8)7-1-5(16)6(21-7)2-20-22(17,18)19/h3-7,16H,1-2H2,(H2,11,12,13)(H2,17,18,19)/t5-,6+,7+/m0/s1
INCHIAUX=N/A
PUBMED=N/A
SUBMITUSER=mwang87
TAGS=
LIBRARYQUALITY=3
SPECTRUMID=CCMSLIB00000426149
SCANS=1121
81.0 100.0 
END IONS

BEGIN IONS
PEPMASS=153.055
CHARGE=1+
MSLEVEL=2
SOURCE_INSTRUMENT=Positive-Quattro_QQQ:25eV
FILENAME=hmdb_intermediate.mgf
SEQ=*..*
IONMODE=Positive
ORGANISM=HMDB
NAME=HMDB:HMDB02390-2093 3-Cresotinic acid M+H
PI=HMDB
DATACOLLECTOR=HMDB
SMILES=CC1=C(O)C(=CC=C1)C(O)=O
INCHI=InChI=1S/C8H8O3/c1-5-3-2-4-6(7(5)9)8(10)11/h2-4,9H,1H3,(H,10,11)
INCHIAUX=N/A
PUBMED=N/A
SUBMITUSER=mwang87
TAGS=
LIBRARYQUALITY=3
SPECTRUMID=CCMSLIB00000426150
SCANS=1122
77.0 100.0 
79.0 75.881 
END IONS

BEGIN IONS
PEPMASS=137.024
CHARGE=1+
MSLEVEL=2
SOURCE_INSTRUMENT=Negative-Quattro_QQQ:40eV
FILENAME=hmdb_intermediate.mgf
SEQ=*..*
IONMODE=Negative
ORGANISM=HMDB
NAME=HMDB:HMDB00500-718 4-Hydroxybenzoic acid M-H
PI=HMDB
DATACOLLECTOR=HMDB
SMILES=OC(=O)C1=CC=C(O)C=C1
INCHI=InChI=1S/C7H6O3/c8-6-3-1-5(2-4-6)7(9)10/h1-4,8H,(H,9,10)
INCHIAUX=N/A
PUBMED=N/A
SUBMITUSER=mwang87
TAGS=
LIBRARYQUALITY=3
SPECTRUMID=CCMSLIB00000426151
SCANS=1123
92.941 100.0 
END IONS

BEGIN IONS
PEPMASS=146.166
CHARGE=1+
MSLEVEL=2
SOURCE_INSTRUMENT=Positive-Quattro_QQQ:10eV
FILENAME=hmdb_intermediate.mgf
SEQ=*..*
IONMODE=Positive
ORGANISM=HMDB
NAME=HMDB:HMDB01257-1490 Spermidine M+H
PI=HMDB
DATACOLLECTOR=HMDB
SMILES=NCCCCNCCCN
INCHI=InChI=1S/C7H19N3/c8-4-1-2-6-10-7-3-5-9/h10H,1-9H2
INCHIAUX=N/A
PUBMED=N/A
SUBMITUSER=mwang87
TAGS=
LIBRARYQUALITY=3
SPECTRUMID=CCMSLIB00000426152
SCANS=1124
72.05 100.0 
146.04 77.594 
END IONS

BEGIN IONS
PEPMASS=181.086
CHARGE=1+
MSLEVEL=2
SOURCE_INSTRUMENT=Positive-Quattro_QQQ:40eV
FILENAME=hmdb_intermediate.mgf
SEQ=*..*
IONMODE=Positive
ORGANISM=HMDB
NAME=HMDB:HMDB11751-2504 3-Methoxybenzenepropanoic acid M+H
PI=HMDB
DATACOLLECTOR=HMDB
SMILES=COC1=CC(CCC(O)=O)=CC=C1
INCHI=InChI=1S/C10H12O3/c1-13-9-4-2-3-8(7-9)5-6-10(11)12/h2-4,7H,5-6H2,1H3,(H,11,12)
INCHIAUX=N/A
PUBMED=N/A
SUBMITUSER=mwang87
TAGS=
LIBRARYQUALITY=3
SPECTRUMID=CCMSLIB00000426153
SCANS=1125
91.08 53.6268738806 
105.06 72.5928188333 
121.02 100.0 
END IONS

BEGIN IONS
PEPMASS=175.12
CHARGE=1+
MSLEVEL=2
SOURCE_INSTRUMENT=Positive-Quattro_QQQ:40eV
FILENAME=hmdb_intermediate.mgf
SEQ=*..*
IONMODE=Positive
ORGANISM=HMDB
NAME=HMDB:HMDB03416-2294 D-Arginine M+H
PI=HMDB
DATACOLLECTOR=HMDB
SMILES=N[C@H](CCCNC(N)=N)C(O)=O
INCHI=InChI=1S/C6H14N4O2/c7-4(5(11)12)2-1-3-10-6(8)9/h4H,1-3,7H2,(H,11,12)(H4,8,9,10)/t4-/m1/s1
INCHIAUX=N/A
PUBMED=N/A
SUBMITUSER=mwang87
TAGS=
LIBRARYQUALITY=3
SPECTRUMID=CCMSLIB00000426154
SCANS=1126
70.06 100.0 
END IONS

BEGIN IONS
PEPMASS=221.093
CHARGE=1+
MSLEVEL=2
SOURCE_INSTRUMENT=Positive-Quattro_QQQ:10eV
FILENAME=hmdb_intermediate.mgf
SEQ=*..*
IONMODE=Positive
ORGANISM=HMDB
NAME=HMDB:HMDB00472-686 5-Hydroxy-L-tryptophan M+H
PI=HMDB
DATACOLLECTOR=HMDB
SMILES=NC(CC1=CNC2=C1C=C(O)C=C2)C(O)=O
INCHI=InChI=1S/C11H12N2O3/c12-9(11(15)16)3-6-5-13-10-2-1-7(14)4-8(6)10/h1-2,4-5,9,13-14H,3,12H2,(H,15,16)
INCHIAUX=N/A
PUBMED=N/A
SUBMITUSER=mwang87
TAGS=
LIBRARYQUALITY=3
SPECTRUMID=CCMSLIB00000426155
SCANS=1127
220.0 100.0 
221.0 70.178 
END IONS

BEGIN IONS
PEPMASS=455.291
CHARGE=1+
MSLEVEL=2
SOURCE_INSTRUMENT=Positive-Quattro_QQQ:40eV
FILENAME=hmdb_intermediate.mgf
SEQ=*..*
IONMODE=Positive
ORGANISM=HMDB
NAME=HMDB:HMDB01850-1713 Verapamil M+H
PI=HMDB
DATACOLLECTOR=HMDB
SMILES=COC1=C(OC)C=C(CCN(C)CCCC(C#N)(C(C)C)C2=CC(OC)=C(OC)C=C2)C=C1
INCHI=InChI=1S/C27H38N2O4/c1-20(2)27(19-28,22-10-12-24(31-5)26(18-22)33-7)14-8-15-29(3)16-13-21-9-11-23(30-4)25(17-21)32-6/h9-12,17-18,20H,8,13-16H2,1-7H3
INCHIAUX=N/A
PUBMED=N/A
SUBMITUSER=mwang87
TAGS=
LIBRARYQUALITY=3
SPECTRUMID=CCMSLIB00000426156
SCANS=1128
129.41 72.727 
194.754 80.682 
296.216 100.0 
306.844 73.864 
489.003 81.818 
END IONS

BEGIN IONS
PEPMASS=122.028
CHARGE=1+
MSLEVEL=2
SOURCE_INSTRUMENT=Positive-Quattro_QQQ:40eV
FILENAME=hmdb_intermediate.mgf
SEQ=*..*
IONMODE=Positive
ORGANISM=HMDB
NAME=HMDB:HMDB00574-802 L-Cysteine M+H
PI=HMDB
DATACOLLECTOR=HMDB
SMILES=N[C@@H](CS)C(O)=O
INCHI=InChI=1S/C3H7NO2S/c4-2(1-7)3(5)6/h2,7H,1,4H2,(H,5,6)/t2-/m0/s1
INCHIAUX=N/A
PUBMED=N/A
SUBMITUSER=mwang87
TAGS=
LIBRARYQUALITY=3
SPECTRUMID=CCMSLIB00000426157
SCANS=1129
58.999 100.0 
END IONS

BEGIN IONS
PEPMASS=43.0058
CHARGE=1+
MSLEVEL=2
SOURCE_INSTRUMENT=Positive-Quattro_QQQ:40eV
FILENAME=hmdb_intermediate.mgf
SEQ=*..*
IONMODE=Positive
ORGANISM=HMDB
NAME=HMDB:HMDB02078-1989 Cyanate M+H
PI=HMDB
DATACOLLECTOR=HMDB
SMILES=[O-]C#N
INCHI=InChI=1S/CHNO/c2-1-3/h3H/p-1
INCHIAUX=N/A
PUBMED=N/A
SUBMITUSER=mwang87
TAGS=
LIBRARYQUALITY=3
SPECTRUMID=CCMSLIB00000426158
SCANS=1130
43.0 100.0 
44.0 66.873 
END IONS

BEGIN IONS
PEPMASS=148.061
CHARGE=1+
MSLEVEL=2
SOURCE_INSTRUMENT=Positive-Quattro_QQQ:10eV
FILENAME=hmdb_intermediate.mgf
SEQ=*..*
IONMODE=Positive
ORGANISM=HMDB
NAME=HMDB:HMDB00148-221 L-Glutamic acid M+H
PI=HMDB
DATACOLLECTOR=HMDB
SMILES=N[C@@H](CCC(O)=O)C(O)=O
INCHI=InChI=1S/C5H9NO4/c6-3(5(9)10)1-2-4(7)8/h3H,1-2,6H2,(H,7,8)(H,9,10)/t3-/m0/s1
INCHIAUX=N/A
PUBMED=N/A
SUBMITUSER=mwang87
TAGS=
LIBRARYQUALITY=3
SPECTRUMID=CCMSLIB00000426159
SCANS=1131
84.062 100.0 
129.946 57.386 
END IONS

BEGIN IONS
PEPMASS=197.067
CHARGE=1+
MSLEVEL=2
SOURCE_INSTRUMENT=Positive-Quattro_QQQ:10eV
FILENAME=hmdb_intermediate.mgf
SEQ=*..*
IONMODE=Positive
ORGANISM=HMDB
NAME=HMDB:HMDB01857-1726 1,3-Dimethyluric acid M+H
PI=HMDB
DATACOLLECTOR=HMDB
SMILES=CN1C2=C(NC(=O)N2)C(=O)N(C)C1=O
INCHI=InChI=1S/C7H8N4O3/c1-10-4-3(8-6(13)9-4)5(12)11(2)7(10)14/h1-2H3,(H2,8,9,13)
INCHIAUX=N/A
PUBMED=N/A
SUBMITUSER=mwang87
TAGS=
LIBRARYQUALITY=3
SPECTRUMID=CCMSLIB00000426160
SCANS=1132
113.4 84.257 
113.526 51.771 
137.208 50.745 
196.483 67.596 
196.859 100.0 
197.611 59.43 
END IONS

BEGIN IONS
PEPMASS=163.061
CHARGE=1+
MSLEVEL=2
SOURCE_INSTRUMENT=Positive-Quattro_QQQ:10eV
FILENAME=hmdb_intermediate.mgf
SEQ=*..*
IONMODE=Positive
ORGANISM=HMDB
NAME=HMDB:HMDB00355-567 3-Hydroxymethylglutaric acid M+H
PI=HMDB
DATACOLLECTOR=HMDB
SMILES=CC(O)(CC(O)=O)CC(O)=O
INCHI=InChI=1S/C6H10O5/c1-6(11,2-4(7)8)3-5(9)10/h11H,2-3H2,1H3,(H,7,8)(H,9,10)
INCHIAUX=N/A
PUBMED=N/A
SUBMITUSER=mwang87
TAGS=
LIBRARYQUALITY=3
SPECTRUMID=CCMSLIB00000426161
SCANS=1133
84.912 63.371 
103.357 100.0 
105.475 56.365 
106.099 96.203 
121.428 89.249 
122.051 67.85 
122.799 69.328 
126.912 61.37 
163.181 64.269 
END IONS

BEGIN IONS
PEPMASS=477.231
CHARGE=1+
MSLEVEL=2
SOURCE_INSTRUMENT=Positive-Quattro_QQQ:10eV
FILENAME=hmdb_intermediate.mgf
SEQ=*..*
IONMODE=Positive
ORGANISM=HMDB
NAME=HMDB:HMDB04999-2430 Loperamide M+H
PI=HMDB
DATACOLLECTOR=HMDB
SMILES=CN(C)C(=O)C(CCN1CCC(O)(CC1)C1=CC=C(Cl)C=C1)(C1=CC=CC=C1)C1=CC=CC=C1
INCHI=InChI=1S/C29H33ClN2O2/c1-31(2)27(33)29(24-9-5-3-6-10-24,25-11-7-4-8-12-25)19-22-32-20-17-28(34,18-21-32)23-13-15-26(30)16-14-23/h3-16,34H,17-22H2,1-2H3
INCHIAUX=N/A
PUBMED=N/A
SUBMITUSER=mwang87
TAGS=
LIBRARYQUALITY=3
SPECTRUMID=CCMSLIB00000426162
SCANS=1134
477.0 100.0 
478.0 52.292 
END IONS

BEGIN IONS
PEPMASS=749.516
CHARGE=1+
MSLEVEL=2
SOURCE_INSTRUMENT=Positive-Quattro_QQQ:10eV
FILENAME=hmdb_intermediate.mgf
SEQ=*..*
IONMODE=Positive
ORGANISM=HMDB
NAME=HMDB:HMDB01916-1831 Azythromycin M+H
PI=HMDB
DATACOLLECTOR=HMDB
SMILES=CC[C@@H]1OC(=O)[C@H](C)[C@@H](O[C@@H]2C[C@](C)(OC)[C@H](O)[C@@H](C)O2)[C@@H](C)[C@H](O[C@H]2O[C@@H](C)C[C@H]([C@@H]2O)N(C)C)[C@@](C)(O)C[C@H](C)CN(C)[C@@H](C)[C@@H](O)[C@]1(C)O
INCHI=InChI=1S/C38H72N2O12/c1-15-27-38(10,46)31(42)24(6)40(13)19-20(2)17-36(8,45)33(52-35-29(41)26(39(11)12)16-21(3)48-35)22(4)30(23(5)34(44)50-27)51-28-18-37(9,47-14)32(43)25(7)49-28/h20-33,35,41-43,45-46H,15-19H2,1-14H3/t20-,21-,22+,23+,24-,25+,26+,27-,28+,29-,30-,31+,32+,33-,35+,36-,37-,38+/m0/s1
INCHIAUX=N/A
PUBMED=N/A
SUBMITUSER=mwang87
TAGS=
LIBRARYQUALITY=3
SPECTRUMID=CCMSLIB00000426163
SCANS=1135
61.395 66.79 
80.433 78.862 
110.05 51.695 
207.252 54.717 
260.28 54.717 
264.387 81.884 
296.754 54.717 
305.22 51.695 
329.247 60.746 
333.107 54.717 
345.059 54.717 
377.679 51.695 
410.176 51.695 
427.358 75.84 
433.709 100.0 
437.32 63.768 
450.643 81.884 
454.627 54.717 
459.11 66.79 
470.815 54.717 
503.439 51.695 
532.08 54.717 
535.816 54.717 
548.268 72.818 
659.97 54.717 
673.917 66.79 
686.619 57.724 
698.698 75.84 
710.528 54.717 
END IONS

BEGIN IONS
PEPMASS=227.067
CHARGE=1+
MSLEVEL=2
SOURCE_INSTRUMENT=Positive-Quattro_QQQ:10eV
FILENAME=hmdb_intermediate.mgf
SEQ=*..*
IONMODE=Positive
ORGANISM=HMDB
NAME=HMDB:HMDB01904-1822 3-Nitrotyrosine M+H
PI=HMDB
DATACOLLECTOR=HMDB
SMILES=N[C@@H](CC1=CC(=C(O)C=C1)[N+]([O-])=O)C(O)=O
INCHI=InChI=1S/C9H10N2O5/c10-6(9(13)14)3-5-1-2-8(12)7(4-5)11(15)16/h1-2,4,6,12H,3,10H2,(H,13,14)/t6-/m0/s1
INCHIAUX=N/A
PUBMED=N/A
SUBMITUSER=mwang87
TAGS=
LIBRARYQUALITY=3
SPECTRUMID=CCMSLIB00000426164
SCANS=1136
180.0 100.0 
END IONS

BEGIN IONS
PEPMASS=89.0603
CHARGE=1+
MSLEVEL=2
SOURCE_INSTRUMENT=Positive-Quattro_QQQ:10eV
FILENAME=hmdb_intermediate.mgf
SEQ=*..*
IONMODE=Positive
ORGANISM=HMDB
NAME=HMDB:HMDB03243-2218 Acetoin M+H
PI=HMDB
DATACOLLECTOR=HMDB
SMILES=CC(O)C(C)=O
INCHI=InChI=1S/C4H8O2/c1-3(5)4(2)6/h3,5H,1-2H3
INCHIAUX=N/A
PUBMED=N/A
SUBMITUSER=mwang87
TAGS=
LIBRARYQUALITY=3
SPECTRUMID=CCMSLIB00000426165
SCANS=1137
43.0 100.0 
71.0 74.61 
END IONS

BEGIN IONS
PEPMASS=355.358
CHARGE=1+
MSLEVEL=2
SOURCE_INSTRUMENT=Positive-Quattro_QQQ:25eV
FILENAME=hmdb_intermediate.mgf
SEQ=*..*
IONMODE=Positive
ORGANISM=HMDB
NAME=HMDB:HMDB01160-1440 Tricosanoic acid M+H
PI=HMDB
DATACOLLECTOR=HMDB
SMILES=CCCCCCCCCCCCCCCCCCCCCCC(O)=O
INCHI=InChI=1S/C23H46O2/c1-2-3-4-5-6-7-8-9-10-11-12-13-14-15-16-17-18-19-20-21-22-23(24)25/h2-22H2,1H3,(H,24,25)
INCHIAUX=N/A
PUBMED=N/A
SUBMITUSER=mwang87
TAGS=
LIBRARYQUALITY=3
SPECTRUMID=CCMSLIB00000426166
SCANS=1138
73.0 52.79 
90.0 52.637 
106.0 63.278 
186.0 50.564 
226.0 55.353 
270.0 100.0 
271.0 67.283 
END IONS

BEGIN IONS
PEPMASS=104.071
CHARGE=1+
MSLEVEL=2
SOURCE_INSTRUMENT=Positive-Quattro_QQQ:40eV
FILENAME=hmdb_intermediate.mgf
SEQ=*..*
IONMODE=Positive
ORGANISM=HMDB
NAME=HMDB:HMDB00452-661 L-Alpha-aminobutyric acid M+H
PI=HMDB
DATACOLLECTOR=HMDB
SMILES=CC[C@H](N)C(O)=O
INCHI=InChI=1S/C4H9NO2/c1-2-3(5)4(6)7/h3H,2,5H2,1H3,(H,6,7)/t3-/m0/s1
INCHIAUX=N/A
PUBMED=N/A
SUBMITUSER=mwang87
TAGS=
LIBRARYQUALITY=3
SPECTRUMID=CCMSLIB00000426167
SCANS=1139
43.159 100.0 
57.985 97.661 
END IONS

BEGIN IONS
PEPMASS=259.022
CHARGE=1+
MSLEVEL=2
SOURCE_INSTRUMENT=Negative-Quattro_QQQ:40eV
FILENAME=hmdb_intermediate.mgf
SEQ=*..*
IONMODE=Negative
ORGANISM=HMDB
NAME=HMDB:HMDB01586-1659 Glucose 1-phosphate M-H
PI=HMDB
DATACOLLECTOR=HMDB
SMILES=OC[C@H]1OC(OP(O)(O)=O)[C@H](O)[C@@H](O)[C@@H]1O
INCHI=InChI=1S/C6H13O9P/c7-1-2-3(8)4(9)5(10)6(14-2)15-16(11,12)13/h2-10H,1H2,(H2,11,12,13)/t2-,3-,4+,5-,6?/m1/s1
INCHIAUX=N/A
PUBMED=N/A
SUBMITUSER=mwang87
TAGS=
LIBRARYQUALITY=3
SPECTRUMID=CCMSLIB00000426168
SCANS=1140
62.851 71.332 
78.67 77.698 
84.973 71.332 
91.893 74.492 
121.185 77.698 
123.904 71.332 
134.904 80.903 
148.995 71.332 
168.401 71.332 
171.244 74.492 
204.743 80.903 
210.306 100.0 
253.328 68.126 
274.345 71.332 
292.397 71.332 
END IONS

BEGIN IONS
PEPMASS=132.077
CHARGE=1+
MSLEVEL=2
SOURCE_INSTRUMENT=Positive-Quattro_QQQ:25eV
FILENAME=hmdb_intermediate.mgf
SEQ=*..*
IONMODE=Positive
ORGANISM=HMDB
NAME=HMDB:HMDB00064-106 Creatine M+H
PI=HMDB
DATACOLLECTOR=HMDB
SMILES=CN(CC(O)=O)C(N)=N
INCHI=InChI=1S/C4H9N3O2/c1-7(4(5)6)2-3(8)9/h2H2,1H3,(H3,5,6)(H,8,9)
INCHIAUX=N/A
PUBMED=N/A
SUBMITUSER=mwang87
TAGS=
LIBRARYQUALITY=3
SPECTRUMID=CCMSLIB00000426169
SCANS=1141
44.108 100.0 
END IONS

BEGIN IONS
PEPMASS=250.025
CHARGE=1+
MSLEVEL=2
SOURCE_INSTRUMENT=Positive-Quattro_QQQ:10eV
FILENAME=hmdb_intermediate.mgf
SEQ=*..*
IONMODE=Positive
ORGANISM=HMDB
NAME=HMDB:HMDB01915-1828 Alendronic acid M+H
PI=HMDB
DATACOLLECTOR=HMDB
SMILES=NCCCC(O)(P(O)(O)=O)P(O)(O)=O
INCHI=InChI=1S/C4H13NO7P2/c5-3-1-2-4(6,13(7,8)9)14(10,11)12/h6H,1-3,5H2,(H2,7,8,9)(H2,10,11,12)
INCHIAUX=N/A
PUBMED=N/A
SUBMITUSER=mwang87
TAGS=
LIBRARYQUALITY=3
SPECTRUMID=CCMSLIB00000426170
SCANS=1142
167.798 100.0 
189.798 67.384 
END IONS

BEGIN IONS
PEPMASS=105.019
CHARGE=1+
MSLEVEL=2
SOURCE_INSTRUMENT=Negative-Quattro_QQQ:10eV
FILENAME=hmdb_intermediate.mgf
SEQ=*..*
IONMODE=Negative
ORGANISM=HMDB
NAME=HMDB:HMDB00139-212 Glyceric acid M-H
PI=HMDB
DATACOLLECTOR=HMDB
SMILES=OC[C@@H](O)C(O)=O
INCHI=InChI=1S/C3H6O4/c4-1-2(5)3(6)7/h2,4-5H,1H2,(H,6,7)/t2-/m1/s1
INCHIAUX=N/A
PUBMED=N/A
SUBMITUSER=mwang87
TAGS=
LIBRARYQUALITY=3
SPECTRUMID=CCMSLIB00000426171
SCANS=1143
75.051 55.523 
104.949 100.0 
END IONS

BEGIN IONS
PEPMASS=297.972
CHARGE=1+
MSLEVEL=2
SOURCE_INSTRUMENT=Positive-Quattro_QQQ:10eV
FILENAME=hmdb_intermediate.mgf
SEQ=*..*
IONMODE=Positive
ORGANISM=HMDB
NAME=HMDB:HMDB01928-1863 Hydrochlorothiazide M+H
PI=HMDB
DATACOLLECTOR=HMDB
SMILES=NS(=O)(=O)C1=C(Cl)C=C2NCNS(=O)(=O)C2=C1
INCHI=InChI=1S/C7H8ClN3O4S2/c8-4-1-5-7(2-6(4)16(9,12)13)17(14,15)11-3-10-5/h1-2,10-11H,3H2,(H2,9,12,13)
INCHIAUX=N/A
PUBMED=N/A
SUBMITUSER=mwang87
TAGS=
LIBRARYQUALITY=3
SPECTRUMID=CCMSLIB00000426172
SCANS=1144
256.709 62.577 
298.313 100.0 
END IONS

BEGIN IONS
PEPMASS=90.0555
CHARGE=1+
MSLEVEL=2
SOURCE_INSTRUMENT=Positive-Quattro_QQQ:25eV
FILENAME=hmdb_intermediate.mgf
SEQ=*..*
IONMODE=Positive
ORGANISM=HMDB
NAME=HMDB:HMDB00056-91 Beta-Alanine M+H
PI=HMDB
DATACOLLECTOR=HMDB
SMILES=NCCC(O)=O
INCHI=InChI=1S/C3H7NO2/c4-2-1-3(5)6/h1-2,4H2,(H,5,6)
INCHIAUX=N/A
PUBMED=N/A
SUBMITUSER=mwang87
TAGS=
LIBRARYQUALITY=3
SPECTRUMID=CCMSLIB00000426173
SCANS=1145
45.182 73.125 
89.818 100.0 
END IONS

BEGIN IONS
PEPMASS=138.092
CHARGE=1+
MSLEVEL=2
SOURCE_INSTRUMENT=Positive-Quattro_QQQ:10eV
FILENAME=hmdb_intermediate.mgf
SEQ=*..*
IONMODE=Positive
ORGANISM=HMDB
NAME=HMDB:HMDB00306-522 Tyramine M+H
PI=HMDB
DATACOLLECTOR=HMDB
SMILES=NCCC1=CC=C(O)C=C1
INCHI=InChI=1S/C8H11NO/c9-6-5-7-1-3-8(10)4-2-7/h1-4,10H,5-6,9H2
INCHIAUX=N/A
PUBMED=N/A
SUBMITUSER=mwang87
TAGS=
LIBRARYQUALITY=3
SPECTRUMID=CCMSLIB00000426174
SCANS=1146
120.987 100.0 
END IONS

BEGIN IONS
PEPMASS=239.092
CHARGE=1+
MSLEVEL=2
SOURCE_INSTRUMENT=Positive-Quattro_QQQ:25eV
FILENAME=hmdb_intermediate.mgf
SEQ=*..*
IONMODE=Positive
ORGANISM=HMDB
NAME=HMDB:HMDB02511-2114 3,4,5-Trimethoxycinnamic acid M+H
PI=HMDB
DATACOLLECTOR=HMDB
SMILES=COC1=CC(\C=C\C(O)=O)=CC(OC)=C1OC
INCHI=InChI=1S/C12H14O5/c1-15-9-6-8(4-5-11(13)14)7-10(16-2)12(9)17-3/h4-7H,1-3H3,(H,13,14)/b5-4+
INCHIAUX=N/A
PUBMED=N/A
SUBMITUSER=mwang87
TAGS=
LIBRARYQUALITY=3
SPECTRUMID=CCMSLIB00000426175
SCANS=1147
118.0 62.902 
137.0 100.0 
168.0 62.238 
END IONS

BEGIN IONS
PEPMASS=170.082
CHARGE=1+
MSLEVEL=2
SOURCE_INSTRUMENT=Positive-Quattro_QQQ:25eV
FILENAME=hmdb_intermediate.mgf
SEQ=*..*
IONMODE=Positive
ORGANISM=HMDB
NAME=HMDB:HMDB00239-404 Pyridoxine M+H
PI=HMDB
DATACOLLECTOR=HMDB
SMILES=CC1=NC=C(CO)C(CO)=C1O
INCHI=InChI=1S/C8H11NO3/c1-5-8(12)7(4-11)6(3-10)2-9-5/h2,10-12H,3-4H2,1H3
INCHIAUX=N/A
PUBMED=N/A
SUBMITUSER=mwang87
TAGS=
LIBRARYQUALITY=3
SPECTRUMID=CCMSLIB00000426176
SCANS=1148
133.968 100.0 
END IONS

BEGIN IONS
PEPMASS=118.98
CHARGE=1+
MSLEVEL=2
SOURCE_INSTRUMENT=Negative-Quattro_QQQ:25eV
FILENAME=hmdb_intermediate.mgf
SEQ=*..*
IONMODE=Negative
ORGANISM=HMDB
NAME=HMDB:HMDB01368-1535 3-Mercaptopyruvic acid M-H
PI=HMDB
DATACOLLECTOR=HMDB
SMILES=OC(=O)C(=O)CS
INCHI=InChI=1S/C3H4O3S/c4-2(1-7)3(5)6/h7H,1H2,(H,5,6)
INCHIAUX=N/A
PUBMED=N/A
SUBMITUSER=mwang87
TAGS=
LIBRARYQUALITY=3
SPECTRUMID=CCMSLIB00000426177
SCANS=1149
33.0 100.0 
47.0 71.24 
END IONS

BEGIN IONS
PEPMASS=165.055
CHARGE=1+
MSLEVEL=2
SOURCE_INSTRUMENT=Positive-Quattro_QQQ:25eV
FILENAME=hmdb_intermediate.mgf
SEQ=*..*
IONMODE=Positive
ORGANISM=HMDB
NAME=HMDB:HMDB31629-329 Phenylpyruvic acid M+H
PI=HMDB
DATACOLLECTOR=HMDB
SMILES=OC(=O)C(=O)CC1=CC=CC=C1
INCHI=InChI=1S/C9H8O3/c10-8(9(11)12)6-7-4-2-1-3-5-7/h1-5H,6H2,(H,11,12)
INCHIAUX=N/A
PUBMED=N/A
SUBMITUSER=mwang87
TAGS=
LIBRARYQUALITY=3
SPECTRUMID=CCMSLIB00000426178
SCANS=1150
77.0 100.0 
END IONS

BEGIN IONS
PEPMASS=222.098
CHARGE=1+
MSLEVEL=2
SOURCE_INSTRUMENT=Positive-Quattro_QQQ:40eV
FILENAME=hmdb_intermediate.mgf
SEQ=*..*
IONMODE=Positive
ORGANISM=HMDB
NAME=HMDB:HMDB01129-1429 N-Acetylmannosamine M+H
PI=HMDB
DATACOLLECTOR=HMDB
SMILES=[H][C@@]1(O)O[C@H](CO)[C@@H](O)[C@H](O)[C@@H]1NC(C)=O
INCHI=InChI=1S/C8H15NO6/c1-3(11)9-5-7(13)6(12)4(2-10)15-8(5)14/h4-8,10,12-14H,2H2,1H3,(H,9,11)/t4-,5+,6-,7-,8-/m1/s1
INCHIAUX=N/A
PUBMED=N/A
SUBMITUSER=mwang87
TAGS=
LIBRARYQUALITY=3
SPECTRUMID=CCMSLIB00000426179
SCANS=1151
84.0 100.0 
96.0 66.97 
END IONS

BEGIN IONS
PEPMASS=166.073
CHARGE=1+
MSLEVEL=2
SOURCE_INSTRUMENT=Positive-Quattro_QQQ:25eV
FILENAME=hmdb_intermediate.mgf
SEQ=*..*
IONMODE=Positive
ORGANISM=HMDB
NAME=HMDB:HMDB03282-2228 1-Methylguanine M+H
PI=HMDB
DATACOLLECTOR=HMDB
SMILES=CN1C(N)=NC2=C(NC=N2)C1=O
INCHI=InChI=1S/C6H7N5O/c1-11-5(12)3-4(9-2-8-3)10-6(11)7/h2H,1H3,(H2,7,10)(H,8,9)
INCHIAUX=N/A
PUBMED=N/A
SUBMITUSER=mwang87
TAGS=
LIBRARYQUALITY=3
SPECTRUMID=CCMSLIB00000426180
SCANS=1152
134.76 100.0 
148.82 76.241 
END IONS

BEGIN IONS
PEPMASS=210.077
CHARGE=1+
MSLEVEL=2
SOURCE_INSTRUMENT=Positive-Quattro_QQQ:25eV
FILENAME=hmdb_intermediate.mgf
SEQ=*..*
IONMODE=Positive
ORGANISM=HMDB
NAME=HMDB:HMDB00735-1042 Hydroxyphenylacetylglycine M+H
PI=HMDB
DATACOLLECTOR=HMDB
SMILES=OC(=O)CNC(=O)CC1=CC=C(O)C=C1
INCHI=InChI=1S/C10H11NO4/c12-8-3-1-7(2-4-8)5-9(13)11-6-10(14)15/h1-4,12H,5-6H2,(H,11,13)(H,14,15)
INCHIAUX=N/A
PUBMED=N/A
SUBMITUSER=mwang87
TAGS=
LIBRARYQUALITY=3
SPECTRUMID=CCMSLIB00000426181
SCANS=1153
106.0 100.0 
END IONS

BEGIN IONS
PEPMASS=209.097
CHARGE=1+
MSLEVEL=2
SOURCE_INSTRUMENT=Positive-Quattro_QQQ:10eV
FILENAME=hmdb_intermediate.mgf
SEQ=*..*
IONMODE=Positive
ORGANISM=HMDB
NAME=HMDB:HMDB03066-2185 Chalcone M+H
PI=HMDB
DATACOLLECTOR=HMDB
SMILES=O=C(\C=C\C1=CC=CC=C1)C1=CC=CC=C1
INCHI=InChI=1S/C15H12O/c16-15(14-9-5-2-6-10-14)12-11-13-7-3-1-4-8-13/h1-12H/b12-11+
INCHIAUX=N/A
PUBMED=N/A
SUBMITUSER=mwang87
TAGS=
LIBRARYQUALITY=3
SPECTRUMID=CCMSLIB00000426182
SCANS=1154
208.87 100.0 
END IONS

BEGIN IONS
PEPMASS=258.109
CHARGE=1+
MSLEVEL=2
SOURCE_INSTRUMENT=Positive-Quattro_QQQ:25eV
FILENAME=hmdb_intermediate.mgf
SEQ=*..*
IONMODE=Positive
ORGANISM=HMDB
NAME=HMDB:HMDB00982-1376 5-Methylcytidine M+H
PI=HMDB
DATACOLLECTOR=HMDB
SMILES=CC1=CN([C@@H]2O[C@H](CO)[C@@H](O)[C@H]2O)C(=O)N=C1N
INCHI=InChI=1S/C10H15N3O5/c1-4-2-13(10(17)12-8(4)11)9-7(16)6(15)5(3-14)18-9/h2,5-7,9,14-16H,3H2,1H3,(H2,11,12,17)/t5-,6-,7-,9-/m1/s1
INCHIAUX=N/A
PUBMED=N/A
SUBMITUSER=mwang87
TAGS=
LIBRARYQUALITY=3
SPECTRUMID=CCMSLIB00000426183
SCANS=1155
125.928 100.0 
END IONS

BEGIN IONS
PEPMASS=455.291
CHARGE=1+
MSLEVEL=2
SOURCE_INSTRUMENT=Positive-Quattro_QQQ:25eV
FILENAME=hmdb_intermediate.mgf
SEQ=*..*
IONMODE=Positive
ORGANISM=HMDB
NAME=HMDB:HMDB01850-1712 Verapamil M+H
PI=HMDB
DATACOLLECTOR=HMDB
SMILES=COC1=C(OC)C=C(CCN(C)CCCC(C#N)(C(C)C)C2=CC(OC)=C(OC)C=C2)C=C1
INCHI=InChI=1S/C27H38N2O4/c1-20(2)27(19-28,22-10-12-24(31-5)26(18-22)33-7)14-8-15-29(3)16-13-21-9-11-23(30-4)25(17-21)32-6/h9-12,17-18,20H,8,13-16H2,1-7H3
INCHIAUX=N/A
PUBMED=N/A
SUBMITUSER=mwang87
TAGS=
LIBRARYQUALITY=3
SPECTRUMID=CCMSLIB00000426184
SCANS=1156
490.706 100.0 
END IONS

BEGIN IONS
PEPMASS=777.695
CHARGE=1+
MSLEVEL=2
SOURCE_INSTRUMENT=Positive-Quattro_QQQ:25eV
FILENAME=hmdb_intermediate.mgf
SEQ=*..*
IONMODE=Positive
ORGANISM=HMDB
NAME=HMDB:HMDB00248-425 Thyroxine M+H
PI=HMDB
DATACOLLECTOR=HMDB
SMILES=N[C@@H](CC1=CC(I)=C(OC2=CC(I)=C(O)C(I)=C2)C(I)=C1)C(O)=O
INCHI=InChI=1S/C15H11I4NO4/c16-8-4-7(5-9(17)13(8)21)24-14-10(18)1-6(2-11(14)19)3-12(20)15(22)23/h1-2,4-5,12,21H,3,20H2,(H,22,23)/t12-/m0/s1
INCHIAUX=N/A
PUBMED=N/A
SUBMITUSER=mwang87
TAGS=
LIBRARYQUALITY=3
SPECTRUMID=CCMSLIB00000426185
SCANS=1157
668.051 100.0 
END IONS

BEGIN IONS
PEPMASS=191.092
CHARGE=1+
MSLEVEL=2
SOURCE_INSTRUMENT=Positive-Quattro_QQQ:25eV
FILENAME=hmdb_intermediate.mgf
SEQ=*..*
IONMODE=Positive
ORGANISM=HMDB
NAME=HMDB:HMDB00325-538 3-Hydroxysuberic acid M+H
PI=HMDB
DATACOLLECTOR=HMDB
SMILES=OC(CCCCC(O)=O)CC(O)=O
INCHI=InChI=1S/C8H14O5/c9-6(5-8(12)13)3-1-2-4-7(10)11/h6,9H,1-5H2,(H,10,11)(H,12,13)
INCHIAUX=N/A
PUBMED=N/A
SUBMITUSER=mwang87
TAGS=
LIBRARYQUALITY=3
SPECTRUMID=CCMSLIB00000426186
SCANS=1158
81.0 100.0 
109.0 55.484 
END IONS

BEGIN IONS
PEPMASS=131.13
CHARGE=1+
MSLEVEL=2
SOURCE_INSTRUMENT=Positive-Quattro_QQQ:40eV
FILENAME=hmdb_intermediate.mgf
SEQ=*..*
IONMODE=Positive
ORGANISM=HMDB
NAME=HMDB:HMDB01432-1579 Agmatine M+H
PI=HMDB
DATACOLLECTOR=HMDB
SMILES=NCCCCNC(N)=N
INCHI=InChI=1S/C5H14N4/c6-3-1-2-4-9-5(7)8/h1-4,6H2,(H4,7,8,9)
INCHIAUX=N/A
PUBMED=N/A
SUBMITUSER=mwang87
TAGS=
LIBRARYQUALITY=3
SPECTRUMID=CCMSLIB00000426187
SCANS=1159
72.0 100.0 
END IONS

BEGIN IONS
PEPMASS=103.04
CHARGE=1+
MSLEVEL=2
SOURCE_INSTRUMENT=Negative-Quattro_QQQ:10eV
FILENAME=hmdb_intermediate.mgf
SEQ=*..*
IONMODE=Negative
ORGANISM=HMDB
NAME=HMDB:HMDB00357-573 3-Hydroxybutyric acid M-H
PI=HMDB
DATACOLLECTOR=HMDB
SMILES=CC(O)CC(O)=O
INCHI=InChI=1S/C4H8O3/c1-3(5)2-4(6)7/h3,5H,2H2,1H3,(H,6,7)
INCHIAUX=N/A
PUBMED=N/A
SUBMITUSER=mwang87
TAGS=
LIBRARYQUALITY=3
SPECTRUMID=CCMSLIB00000426188
SCANS=1160
59.185 100.0 
END IONS

BEGIN IONS
PEPMASS=667.23
CHARGE=1+
MSLEVEL=2
SOURCE_INSTRUMENT=Positive-Quattro_QQQ:40eV
FILENAME=hmdb_intermediate.mgf
SEQ=*..*
IONMODE=Positive
ORGANISM=HMDB
NAME=HMDB:HMDB01296-1509 Maltotetraose M+H
PI=HMDB
DATACOLLECTOR=HMDB
SMILES=OC[C@H]1O[C@H](O[C@H]2[C@H](O)[C@@H](O)[C@@H](O[C@H]3[C@H](O)[C@@H](O)[C@@H](O[C@H]4[C@H](O)[C@@H](O)C(O)O[C@@H]4CO)O[C@@H]3CO)O[C@@H]2CO)[C@H](O)[C@@H](O)[C@@H]1O
INCHI=InChI=1S/C24H42O21/c25-1-5-9(29)10(30)15(35)22(40-5)44-19-7(3-27)42-24(17(37)12(19)32)45-20-8(4-28)41-23(16(36)13(20)33)43-18-6(2-26)39-21(38)14(34)11(18)31/h5-38H,1-4H2/t5-,6-,7-,8-,9-,10+,11-,12-,13-,14-,15-,16-,17-,18-,19-,20-,21?,22-,23-,24-/m1/s1
INCHIAUX=N/A
PUBMED=N/A
SUBMITUSER=mwang87
TAGS=
LIBRARYQUALITY=3
SPECTRUMID=CCMSLIB00000426189
SCANS=1161
85.0 100.0 
145.0 86.458 
163.0 80.89 
END IONS

BEGIN IONS
PEPMASS=125.06
CHARGE=1+
MSLEVEL=2
SOURCE_INSTRUMENT=Positive-Quattro_QQQ:25eV
FILENAME=hmdb_intermediate.mgf
SEQ=*..*
IONMODE=Positive
ORGANISM=HMDB
NAME=HMDB:HMDB00873-1233 4-Methylcatechol M+H
PI=HMDB
DATACOLLECTOR=HMDB
SMILES=CC1=CC(O)=C(O)C=C1
INCHI=InChI=1S/C7H8O2/c1-5-2-3-6(8)7(9)4-5/h2-4,8-9H,1H3
INCHIAUX=N/A
PUBMED=N/A
SUBMITUSER=mwang87
TAGS=
LIBRARYQUALITY=3
SPECTRUMID=CCMSLIB00000426190
SCANS=1162
77.12 100.0 
END IONS

BEGIN IONS
PEPMASS=206.067
CHARGE=1+
MSLEVEL=2
SOURCE_INSTRUMENT=Positive-Quattro_QQQ:25eV
FILENAME=hmdb_intermediate.mgf
SEQ=*..*
IONMODE=Positive
ORGANISM=HMDB
NAME=HMDB:HMDB00962-1367 Lipoamide M+H
PI=HMDB
DATACOLLECTOR=HMDB
SMILES=NC(=O)CCCCC1CCSS1
INCHI=InChI=1S/C8H15NOS2/c9-8(10)4-2-1-3-7-5-6-11-12-7/h7H,1-6H2,(H2,9,10)
INCHIAUX=N/A
PUBMED=N/A
SUBMITUSER=mwang87
TAGS=
LIBRARYQUALITY=3
SPECTRUMID=CCMSLIB00000426191
SCANS=1163
81.0 51.37 
93.0 52.959 
101.0 100.0 
127.0 59.525 
END IONS

BEGIN IONS
PEPMASS=174.055
CHARGE=1+
MSLEVEL=2
SOURCE_INSTRUMENT=Positive-Quattro_QQQ:40eV
FILENAME=hmdb_intermediate.mgf
SEQ=*..*
IONMODE=Positive
ORGANISM=HMDB
NAME=HMDB:HMDB00842-1189 Quinaldic acid M+H
PI=HMDB
DATACOLLECTOR=HMDB
SMILES=OC(=O)C1=NC2=CC=CC=C2C=C1
INCHI=InChI=1S/C10H7NO2/c12-10(13)9-6-5-7-3-1-2-4-8(7)11-9/h1-6H,(H,12,13)
INCHIAUX=N/A
PUBMED=N/A
SUBMITUSER=mwang87
TAGS=
LIBRARYQUALITY=3
SPECTRUMID=CCMSLIB00000426192
SCANS=1164
133.056 100.0 
133.684 50.611 
173.34 54.072 
173.842 51.063 
END IONS

BEGIN IONS
PEPMASS=99.0446
CHARGE=1+
MSLEVEL=2
SOURCE_INSTRUMENT=Negative-Quattro_QQQ:40eV
FILENAME=hmdb_intermediate.mgf
SEQ=*..*
IONMODE=Negative
ORGANISM=HMDB
NAME=HMDB:HMDB00509-730 Senecioic acid M-H
PI=HMDB
DATACOLLECTOR=HMDB
SMILES=CC(C)=CC(O)=O
INCHI=InChI=1S/C5H8O2/c1-4(2)3-5(6)7/h3H,1-2H3,(H,6,7)
INCHIAUX=N/A
PUBMED=N/A
SUBMITUSER=mwang87
TAGS=
LIBRARYQUALITY=3
SPECTRUMID=CCMSLIB00000426193
SCANS=1165
55.501 58.58 
99.376 100.0 
END IONS

BEGIN IONS
PEPMASS=90.0555
CHARGE=1+
MSLEVEL=2
SOURCE_INSTRUMENT=Positive-Quattro_QQQ:40eV
FILENAME=hmdb_intermediate.mgf
SEQ=*..*
IONMODE=Positive
ORGANISM=HMDB
NAME=HMDB:HMDB00271-474 Sarcosine M+H
PI=HMDB
DATACOLLECTOR=HMDB
SMILES=CNCC(O)=O
INCHI=InChI=1S/C3H7NO2/c1-4-2-3(5)6/h4H,2H2,1H3,(H,5,6)
INCHIAUX=N/A
PUBMED=N/A
SUBMITUSER=mwang87
TAGS=
LIBRARYQUALITY=3
SPECTRUMID=CCMSLIB00000426194
SCANS=1166
44.216 100.0 
END IONS

BEGIN IONS
PEPMASS=137.133
CHARGE=1+
MSLEVEL=2
SOURCE_INSTRUMENT=Positive-Quattro_QQQ:40eV
FILENAME=hmdb_intermediate.mgf
SEQ=*..*
IONMODE=Positive
ORGANISM=HMDB
NAME=HMDB:HMDB03375-2276 D-Limonene M+H
PI=HMDB
DATACOLLECTOR=HMDB
SMILES=CC(=C)[C@H]1CCC(C)=CC1
INCHI=InChI=1S/C10H16/c1-8(2)10-6-4-9(3)5-7-10/h4,10H,1,5-7H2,2-3H3/t10-/m1/s1
INCHIAUX=N/A
PUBMED=N/A
SUBMITUSER=mwang87
TAGS=
LIBRARYQUALITY=3
SPECTRUMID=CCMSLIB00000426195
SCANS=1167
42.0 72.603 
60.0 100.0 
76.0 97.022 
77.0 79.392 
END IONS

BEGIN IONS
PEPMASS=220.118
CHARGE=1+
MSLEVEL=2
SOURCE_INSTRUMENT=Positive-Quattro_QQQ:25eV
FILENAME=hmdb_intermediate.mgf
SEQ=*..*
IONMODE=Positive
ORGANISM=HMDB
NAME=HMDB:HMDB00210-341 Pantothenic acid M+H
PI=HMDB
DATACOLLECTOR=HMDB
SMILES=CC(C)(CO)C(O)C(=O)NCCC(O)=O
INCHI=InChI=1S/C9H17NO5/c1-9(2,5-11)7(14)8(15)10-4-3-6(12)13/h7,11,14H,3-5H2,1-2H3,(H,10,15)(H,12,13)
INCHIAUX=N/A
PUBMED=N/A
SUBMITUSER=mwang87
TAGS=
LIBRARYQUALITY=3
SPECTRUMID=CCMSLIB00000426196
SCANS=1168
72.135 100.0 
90.05 97.468 
98.013 52.848 
END IONS

BEGIN IONS
PEPMASS=268.105
CHARGE=1+
MSLEVEL=2
SOURCE_INSTRUMENT=Positive-Quattro_QQQ:10eV
FILENAME=hmdb_intermediate.mgf
SEQ=*..*
IONMODE=Positive
ORGANISM=HMDB
NAME=HMDB:HMDB00085-135 Deoxyguanosine M+H
PI=HMDB
DATACOLLECTOR=HMDB
SMILES=NC1=NC2=C(N=CN2[C@H]2C[C@H](O)[C@@H](CO)O2)C(=O)N1
INCHI=InChI=1S/C10H13N5O4/c11-10-13-8-7(9(18)14-10)12-3-15(8)6-1-4(17)5(2-16)19-6/h3-6,16-17H,1-2H2,(H3,11,13,14,18)/t4-,5+,6+/m0/s1
INCHIAUX=N/A
PUBMED=N/A
SUBMITUSER=mwang87
TAGS=
LIBRARYQUALITY=3
SPECTRUMID=CCMSLIB00000426197
SCANS=1169
151.942 100.0 
END IONS

BEGIN IONS
PEPMASS=553.237
CHARGE=1+
MSLEVEL=2
SOURCE_INSTRUMENT=Negative-Quattro_QQQ:40eV
FILENAME=hmdb_intermediate.mgf
SEQ=*..*
IONMODE=Negative
ORGANISM=HMDB
NAME=HMDB:HMDB03828-2345 D-Pantethine M-H
PI=HMDB
DATACOLLECTOR=HMDB
SMILES=CC(C)(CO)[C@@H](O)C(=O)NCCC(=O)NCCSSCCNC(=O)CCNC(=O)[C@H](O)C(C)(C)CO
INCHI=InChI=1S/C22H42N4O8S2/c1-21(2,13-27)17(31)19(33)25-7-5-15(29)23-9-11-35-36-12-10-24-16(30)6-8-26-20(34)18(32)22(3,4)14-28/h17-18,27-28,31-32H,5-14H2,1-4H3,(H,23,29)(H,24,30)(H,25,33)(H,26,34)/t17-,18-/m0/s1
INCHIAUX=N/A
PUBMED=N/A
SUBMITUSER=mwang87
TAGS=
LIBRARYQUALITY=3
SPECTRUMID=CCMSLIB00000426198
SCANS=1170
145.0 100.0 
END IONS

BEGIN IONS
PEPMASS=266.967
CHARGE=1+
MSLEVEL=2
SOURCE_INSTRUMENT=Positive-Quattro_QQQ:10eV
FILENAME=hmdb_intermediate.mgf
SEQ=*..*
IONMODE=Positive
ORGANISM=HMDB
NAME=HMDB:HMDB01294-1504 2,3-Diphosphoglyceric acid M+H
PI=HMDB
DATACOLLECTOR=HMDB
SMILES=OC(=O)[C@@H](COP(O)(O)=O)OP(O)(O)=O
INCHI=InChI=1S/C3H8O10P2/c4-3(5)2(13-15(9,10)11)1-12-14(6,7)8/h2H,1H2,(H,4,5)(H2,6,7,8)(H2,9,10,11)/t2-/m1/s1
INCHIAUX=N/A
PUBMED=N/A
SUBMITUSER=mwang87
TAGS=
LIBRARYQUALITY=3
SPECTRUMID=CCMSLIB00000426199
SCANS=1171
169.0 100.0 
END IONS

BEGIN IONS
PEPMASS=183.087
CHARGE=1+
MSLEVEL=2
SOURCE_INSTRUMENT=Positive-Quattro_QQQ:10eV
FILENAME=hmdb_intermediate.mgf
SEQ=*..*
IONMODE=Positive
ORGANISM=HMDB
NAME=HMDB:HMDB00247-421 Sorbitol M+H
PI=HMDB
DATACOLLECTOR=HMDB
SMILES=OC[C@H](O)[C@@H](O)[C@H](O)[C@H](O)CO
INCHI=InChI=1S/C6H14O6/c7-1-3(9)5(11)6(12)4(10)2-8/h3-12H,1-2H2/t3-,4+,5-,6-/m1/s1
INCHIAUX=N/A
PUBMED=N/A
SUBMITUSER=mwang87
TAGS=
LIBRARYQUALITY=3
SPECTRUMID=CCMSLIB00000426200
SCANS=1172
69.14 100.0 
129.008 68.349 
147.006 60.092 
END IONS

BEGIN IONS
PEPMASS=191.019
CHARGE=1+
MSLEVEL=2
SOURCE_INSTRUMENT=Negative-Quattro_QQQ:10eV
FILENAME=hmdb_intermediate.mgf
SEQ=*..*
IONMODE=Negative
ORGANISM=HMDB
NAME=HMDB:HMDB00094-144 Citric acid M-H
PI=HMDB
DATACOLLECTOR=HMDB
SMILES=OC(=O)CC(O)(CC(O)=O)C(O)=O
INCHI=InChI=1S/C6H8O7/c7-3(8)1-6(13,5(11)12)2-4(9)10/h13H,1-2H2,(H,7,8)(H,9,10)(H,11,12)
INCHIAUX=N/A
PUBMED=N/A
SUBMITUSER=mwang87
TAGS=
LIBRARYQUALITY=3
SPECTRUMID=CCMSLIB00000426201
SCANS=1173
110.997 100.0 
END IONS

BEGIN IONS
PEPMASS=239.092
CHARGE=1+
MSLEVEL=2
SOURCE_INSTRUMENT=Positive-Quattro_QQQ:10eV
FILENAME=hmdb_intermediate.mgf
SEQ=*..*
IONMODE=Positive
ORGANISM=HMDB
NAME=HMDB:HMDB02511-2113 3,4,5-Trimethoxycinnamic acid M+H
PI=HMDB
DATACOLLECTOR=HMDB
SMILES=COC1=CC(\C=C\C(O)=O)=CC(OC)=C1OC
INCHI=InChI=1S/C12H14O5/c1-15-9-6-8(4-5-11(13)14)7-10(16-2)12(9)17-3/h4-7H,1-3H3,(H,13,14)/b5-4+
INCHIAUX=N/A
PUBMED=N/A
SUBMITUSER=mwang87
TAGS=
LIBRARYQUALITY=3
SPECTRUMID=CCMSLIB00000426202
SCANS=1174
196.0 51.018 
238.0 100.0 
END IONS

BEGIN IONS
PEPMASS=101.097
CHARGE=1+
MSLEVEL=2
SOURCE_INSTRUMENT=Positive-Quattro_QQQ:40eV
FILENAME=hmdb_intermediate.mgf
SEQ=*..*
IONMODE=Positive
ORGANISM=HMDB
NAME=HMDB:HMDB00753-1079 3-Hexanone M+H
PI=HMDB
DATACOLLECTOR=HMDB
SMILES=CCCC(=O)CC
INCHI=InChI=1S/C6H12O/c1-3-5-6(7)4-2/h3-5H2,1-2H3
INCHIAUX=N/A
PUBMED=N/A
SUBMITUSER=mwang87
TAGS=
LIBRARYQUALITY=3
SPECTRUMID=CCMSLIB00000426203
SCANS=1175
59.04 100.0 
END IONS

BEGIN IONS
PEPMASS=188.071
CHARGE=1+
MSLEVEL=2
SOURCE_INSTRUMENT=Positive-Quattro_QQQ:10eV
FILENAME=hmdb_intermediate.mgf
SEQ=*..*
IONMODE=Positive
ORGANISM=HMDB
NAME=HMDB:HMDB00734-1038 Indoleacrylic acid M+H
PI=HMDB
DATACOLLECTOR=HMDB
SMILES=OC(=O)\C=C\C1=CC2=C(N1)C=CC=C2
INCHI=InChI=1S/C11H9NO2/c13-11(14)6-5-9-7-8-3-1-2-4-10(8)12-9/h1-7,12H,(H,13,14)/b6-5+
INCHIAUX=N/A
PUBMED=N/A
SUBMITUSER=mwang87
TAGS=
LIBRARYQUALITY=3
SPECTRUMID=CCMSLIB00000426204
SCANS=1176
169.381 66.985 
170.013 100.0 
170.518 73.395 
END IONS

BEGIN IONS
PEPMASS=117.055
CHARGE=1+
MSLEVEL=2
SOURCE_INSTRUMENT=Negative-Quattro_QQQ:10eV
FILENAME=hmdb_intermediate.mgf
SEQ=*..*
IONMODE=Negative
ORGANISM=HMDB
NAME=HMDB:HMDB00407-618 2-Hydroxy-3-methylbutyric acid M-H
PI=HMDB
DATACOLLECTOR=HMDB
SMILES=CC(C)C(O)C(O)=O
INCHI=InChI=1S/C5H10O3/c1-3(2)4(6)5(7)8/h3-4,6H,1-2H3,(H,7,8)
INCHIAUX=N/A
PUBMED=N/A
SUBMITUSER=mwang87
TAGS=
LIBRARYQUALITY=3
SPECTRUMID=CCMSLIB00000426205
SCANS=1177
71.418 85.714 
117.231 100.0 
END IONS

BEGIN IONS
PEPMASS=121.05
CHARGE=1+
MSLEVEL=2
SOURCE_INSTRUMENT=Positive-Quattro_QQQ:10eV
FILENAME=hmdb_intermediate.mgf
SEQ=*..*
IONMODE=Positive
ORGANISM=HMDB
NAME=HMDB:HMDB02649-2119 Erythrose M+H
PI=HMDB
DATACOLLECTOR=HMDB
SMILES=O[C@@H]1COC(O)[C@@H]1O
INCHI=InChI=1S/C4H8O4/c5-2-1-8-4(7)3(2)6/h2-7H,1H2/t2-,3-,4?/m1/s1
INCHIAUX=N/A
PUBMED=N/A
SUBMITUSER=mwang87
TAGS=
LIBRARYQUALITY=3
SPECTRUMID=CCMSLIB00000426206
SCANS=1178
120.0 100.0 
END IONS

BEGIN IONS
PEPMASS=132.066
CHARGE=1+
MSLEVEL=2
SOURCE_INSTRUMENT=Positive-Quattro_QQQ:40eV
FILENAME=hmdb_intermediate.mgf
SEQ=*..*
IONMODE=Positive
ORGANISM=HMDB
NAME=HMDB:HMDB01149-1435 5-Aminolevulinic acid M+H
PI=HMDB
DATACOLLECTOR=HMDB
SMILES=NCC(=O)CCC(O)=O
INCHI=InChI=1S/C5H9NO3/c6-3-4(7)1-2-5(8)9/h1-3,6H2,(H,8,9)
INCHIAUX=N/A
PUBMED=N/A
SUBMITUSER=mwang87
TAGS=
LIBRARYQUALITY=3
SPECTRUMID=CCMSLIB00000426207
SCANS=1179
51.289 66.386 
51.538 51.486 
65.231 50.007 
76.932 97.103 
77.679 96.796 
78.55 100.0 
END IONS

BEGIN IONS
PEPMASS=168.99
CHARGE=1+
MSLEVEL=2
SOURCE_INSTRUMENT=Positive-Quattro_QQQ:40eV
FILENAME=hmdb_intermediate.mgf
SEQ=*..*
IONMODE=Positive
ORGANISM=HMDB
NAME=HMDB:HMDB00263-459 Phosphoenolpyruvic acid M+H
PI=HMDB
DATACOLLECTOR=HMDB
SMILES=OC(=O)C(=C)OP(O)(O)=O
INCHI=InChI=1S/C3H5O6P/c1-2(3(4)5)9-10(6,7)8/h1H2,(H,4,5)(H2,6,7,8)
INCHIAUX=N/A
PUBMED=N/A
SUBMITUSER=mwang87
TAGS=
LIBRARYQUALITY=3
SPECTRUMID=CCMSLIB00000426208
SCANS=1180
81.0 100.0 
END IONS

BEGIN IONS
PEPMASS=192.102
CHARGE=1+
MSLEVEL=2
SOURCE_INSTRUMENT=Positive-Quattro_QQQ:40eV
FILENAME=hmdb_intermediate.mgf
SEQ=*..*
IONMODE=Positive
ORGANISM=HMDB
NAME=HMDB:HMDB01896-1815 5-Methoxytryptophol M+H
PI=HMDB
DATACOLLECTOR=HMDB
SMILES=COC1=CC=C2NC=C(CCO)C2=C1
INCHI=InChI=1S/C11H13NO2/c1-14-9-2-3-11-10(6-9)8(4-5-13)7-12-11/h2-3,6-7,12-13H,4-5H2,1H3
INCHIAUX=N/A
PUBMED=N/A
SUBMITUSER=mwang87
TAGS=
LIBRARYQUALITY=3
SPECTRUMID=CCMSLIB00000426209
SCANS=1181
130.0 100.0 
END IONS

BEGIN IONS
PEPMASS=253.094
CHARGE=1+
MSLEVEL=2
SOURCE_INSTRUMENT=Positive-Quattro_QQQ:40eV
FILENAME=hmdb_intermediate.mgf
SEQ=*..*
IONMODE=Positive
ORGANISM=HMDB
NAME=HMDB:HMDB00071-116 Deoxyinosine M+H
PI=HMDB
DATACOLLECTOR=HMDB
SMILES=OC[C@H]1O[C@H](C[C@@H]1O)N1C=NC2=C1N=CN=C2O
INCHI=InChI=1S/C10H12N4O4/c15-2-6-5(16)1-7(18-6)14-4-13-8-9(14)11-3-12-10(8)17/h3-7,15-16H,1-2H2,(H,11,12,17)/t5-,6+,7+/m0/s1
INCHIAUX=N/A
PUBMED=N/A
SUBMITUSER=mwang87
TAGS=
LIBRARYQUALITY=3
SPECTRUMID=CCMSLIB00000426210
SCANS=1182
137.096 100.0 
END IONS

BEGIN IONS
PEPMASS=105.066
CHARGE=1+
MSLEVEL=2
SOURCE_INSTRUMENT=Positive-Quattro_QQQ:25eV
FILENAME=hmdb_intermediate.mgf
SEQ=*..*
IONMODE=Positive
ORGANISM=HMDB
NAME=HMDB:HMDB02006-1945 2,3-Diaminopropionic acid M+H
PI=HMDB
DATACOLLECTOR=HMDB
SMILES=NC[C@H](N)C(O)=O
INCHI=InChI=1S/C3H8N2O2/c4-1-2(5)3(6)7/h2H,1,4-5H2,(H,6,7)/t2-/m0/s1
INCHIAUX=N/A
PUBMED=N/A
SUBMITUSER=mwang87
TAGS=
LIBRARYQUALITY=3
SPECTRUMID=CCMSLIB00000426211
SCANS=1183
70.0 100.0 
END IONS

BEGIN IONS
PEPMASS=142.027
CHARGE=1+
MSLEVEL=2
SOURCE_INSTRUMENT=Positive-Quattro_QQQ:40eV
FILENAME=hmdb_intermediate.mgf
SEQ=*..*
IONMODE=Positive
ORGANISM=HMDB
NAME=HMDB:HMDB60151-372 O-Phosphoethanolamine M+H
PI=HMDB
DATACOLLECTOR=HMDB
SMILES=NCCOP(O)(O)=O
INCHI=InChI=1S/C2H8NO4P/c3-1-2-7-8(4,5)6/h1-3H2,(H2,4,5,6)
INCHIAUX=N/A
PUBMED=N/A
SUBMITUSER=mwang87
TAGS=
LIBRARYQUALITY=3
SPECTRUMID=CCMSLIB00000426212
SCANS=1184
44.628 100.0 
END IONS

BEGIN IONS
PEPMASS=103.04
CHARGE=1+
MSLEVEL=2
SOURCE_INSTRUMENT=Negative-Quattro_QQQ:25eV
FILENAME=hmdb_intermediate.mgf
SEQ=*..*
IONMODE=Negative
ORGANISM=HMDB
NAME=HMDB:HMDB00008-11 2-Hydroxybutyric acid M-H
PI=HMDB
DATACOLLECTOR=HMDB
SMILES=CCC(O)C(O)=O
INCHI=InChI=1S/C4H8O3/c1-2-3(5)4(6)7/h3,5H,2H2,1H3,(H,6,7)
INCHIAUX=N/A
PUBMED=N/A
SUBMITUSER=mwang87
TAGS=
LIBRARYQUALITY=3
SPECTRUMID=CCMSLIB00000426213
SCANS=1185
45.535 79.444 
57.501 100.0 
END IONS

BEGIN IONS
PEPMASS=131.034
CHARGE=1+
MSLEVEL=2
SOURCE_INSTRUMENT=Negative-Quattro_QQQ:40eV
FILENAME=hmdb_intermediate.mgf
SEQ=*..*
IONMODE=Negative
ORGANISM=HMDB
NAME=HMDB:HMDB00622-845 Ethylmalonic acid M-H
PI=HMDB
DATACOLLECTOR=HMDB
SMILES=CCC(C(O)=O)C(O)=O
INCHI=InChI=1S/C5H8O4/c1-2-3(4(6)7)5(8)9/h3H,2H2,1H3,(H,6,7)(H,8,9)
INCHIAUX=N/A
PUBMED=N/A
SUBMITUSER=mwang87
TAGS=
LIBRARYQUALITY=3
SPECTRUMID=CCMSLIB00000426214
SCANS=1186
41.65 100.0 
END IONS

BEGIN IONS
PEPMASS=113.024
CHARGE=1+
MSLEVEL=2
SOURCE_INSTRUMENT=Positive-Quattro_QQQ:25eV
FILENAME=hmdb_intermediate.mgf
SEQ=*..*
IONMODE=Positive
ORGANISM=HMDB
NAME=HMDB:HMDB00444-648 3-Furoic acid M+H
PI=HMDB
DATACOLLECTOR=HMDB
SMILES=OC(=O)C1=COC=C1
INCHI=InChI=1S/C5H4O3/c6-5(7)4-1-2-8-3-4/h1-3H,(H,6,7)
INCHIAUX=N/A
PUBMED=N/A
SUBMITUSER=mwang87
TAGS=
LIBRARYQUALITY=3
SPECTRUMID=CCMSLIB00000426215
SCANS=1187
95.1 100.0 
END IONS

BEGIN IONS
PEPMASS=199.17
CHARGE=1+
MSLEVEL=2
SOURCE_INSTRUMENT=Positive-Quattro_QQQ:25eV
FILENAME=hmdb_intermediate.mgf
SEQ=*..*
IONMODE=Positive
ORGANISM=HMDB
NAME=HMDB:HMDB00529-750 5-Dodecenoic acid M+H
PI=HMDB
DATACOLLECTOR=HMDB
SMILES=CCCCCC\C=C/CCCC(O)=O
INCHI=InChI=1S/C12H22O2/c1-2-3-4-5-6-7-8-9-10-11-12(13)14/h7-8H,2-6,9-11H2,1H3,(H,13,14)/b8-7-
INCHIAUX=N/A
PUBMED=N/A
SUBMITUSER=mwang87
TAGS=
LIBRARYQUALITY=3
SPECTRUMID=CCMSLIB00000426216
SCANS=1188
54.0 100.0 
END IONS

BEGIN IONS
PEPMASS=465.304
CHARGE=1+
MSLEVEL=2
SOURCE_INSTRUMENT=Negative-Quattro_QQQ:40eV
FILENAME=hmdb_intermediate.mgf
SEQ=*..*
IONMODE=Negative
ORGANISM=HMDB
NAME=HMDB:HMDB00653-893 Cholesterol sulfate M-H
PI=HMDB
DATACOLLECTOR=HMDB
SMILES=[H][C@@]12CC[C@H]([C@H](C)CCCC(C)C)[C@@]1(C)CC[C@@]1([H])[C@@]2([H])CC=C2C[C@H](CC[C@]12C)OS(O)(=O)=O
INCHI=InChI=1S/C27H46O4S/c1-18(2)7-6-8-19(3)23-11-12-24-22-10-9-20-17-21(31-32(28,29)30)13-15-26(20,4)25(22)14-16-27(23,24)5/h9,18-19,21-25H,6-8,10-17H2,1-5H3,(H,28,29,30)/t19-,21+,22+,23-,24+,25+,26+,27-/m1/s1
INCHIAUX=N/A
PUBMED=N/A
SUBMITUSER=mwang87
TAGS=
LIBRARYQUALITY=3
SPECTRUMID=CCMSLIB00000426217
SCANS=1189
465.48 87.2611528662 
465.72 100.0 
END IONS

BEGIN IONS
PEPMASS=173.081
CHARGE=1+
MSLEVEL=2
SOURCE_INSTRUMENT=Positive-Quattro_QQQ:10eV
FILENAME=hmdb_intermediate.mgf
SEQ=*..*
IONMODE=Positive
ORGANISM=HMDB
NAME=HMDB:HMDB00341-549 2-Octenedioic acid M+H
PI=HMDB
DATACOLLECTOR=HMDB
SMILES=OC(=O)CCCC\C=C\C(O)=O
INCHI=InChI=1S/C8H12O4/c9-7(10)5-3-1-2-4-6-8(11)12/h3,5H,1-2,4,6H2,(H,9,10)(H,11,12)/b5-3+
INCHIAUX=N/A
PUBMED=N/A
SUBMITUSER=mwang87
TAGS=
LIBRARYQUALITY=3
SPECTRUMID=CCMSLIB00000426218
SCANS=1190
137.0 100.0 
END IONS

BEGIN IONS
PEPMASS=343.124
CHARGE=1+
MSLEVEL=2
SOURCE_INSTRUMENT=Positive-Quattro_QQQ:40eV
FILENAME=hmdb_intermediate.mgf
SEQ=*..*
IONMODE=Positive
ORGANISM=HMDB
NAME=HMDB:HMDB00975-1374 Trehalose M+H
PI=HMDB
DATACOLLECTOR=HMDB
SMILES=OC[C@H]1O[C@H](O[C@H]2O[C@H](CO)[C@@H](O)[C@H](O)[C@H]2O)[C@H](O)[C@@H](O)[C@@H]1O
INCHI=InChI=1S/C12H22O11/c13-1-3-5(15)7(17)9(19)11(21-3)23-12-10(20)8(18)6(16)4(2-14)22-12/h3-20H,1-2H2/t3-,4-,5-,6-,7+,8+,9-,10-,11-,12-/m1/s1
INCHIAUX=N/A
PUBMED=N/A
SUBMITUSER=mwang87
TAGS=
LIBRARYQUALITY=3
SPECTRUMID=CCMSLIB00000426219
SCANS=1191
85.0 100.0 
END IONS

BEGIN IONS
PEPMASS=170.093
CHARGE=1+
MSLEVEL=2
SOURCE_INSTRUMENT=Positive-Quattro_QQQ:25eV
FILENAME=hmdb_intermediate.mgf
SEQ=*..*
IONMODE=Positive
ORGANISM=HMDB
NAME=HMDB:HMDB00479-696 3-Methylhistidine M+H
PI=HMDB
DATACOLLECTOR=HMDB
SMILES=CN1C=NC=C1C[C@H](N)C(O)=O
INCHI=InChI=1S/C7H11N3O2/c1-10-4-9-3-5(10)2-6(8)7(11)12/h3-4,6H,2,8H2,1H3,(H,11,12)/t6-/m0/s1
INCHIAUX=N/A
PUBMED=N/A
SUBMITUSER=mwang87
TAGS=
LIBRARYQUALITY=3
SPECTRUMID=CCMSLIB00000426220
SCANS=1192
95.843 100.0 
END IONS

BEGIN IONS
PEPMASS=118.087
CHARGE=1+
MSLEVEL=2
SOURCE_INSTRUMENT=Positive-Quattro_QQQ:40eV
FILENAME=hmdb_intermediate.mgf
SEQ=*..*
IONMODE=Positive
ORGANISM=HMDB
NAME=HMDB:HMDB03355-2264 5-Aminopentanoic acid M+H
PI=HMDB
DATACOLLECTOR=HMDB
SMILES=NCCCCC(O)=O
INCHI=InChI=1S/C5H11NO2/c6-4-2-1-3-5(7)8/h1-4,6H2,(H,7,8)
INCHIAUX=N/A
PUBMED=N/A
SUBMITUSER=mwang87
TAGS=
LIBRARYQUALITY=3
SPECTRUMID=CCMSLIB00000426221
SCANS=1193
83.0 63.694 
100.0 53.909 
101.0 70.23 
117.0 51.449 
118.0 100.0 
END IONS

BEGIN IONS
PEPMASS=113.035
CHARGE=1+
MSLEVEL=2
SOURCE_INSTRUMENT=Positive-Quattro_QQQ:10eV
FILENAME=hmdb_intermediate.mgf
SEQ=*..*
IONMODE=Positive
ORGANISM=HMDB
NAME=HMDB:HMDB00300-510 Uracil M+H
PI=HMDB
DATACOLLECTOR=HMDB
SMILES=O=C1NC=CC(=O)N1
INCHI=InChI=1S/C4H4N2O2/c7-3-1-2-5-4(8)6-3/h1-2H,(H2,5,6,7,8)
INCHIAUX=N/A
PUBMED=N/A
SUBMITUSER=mwang87
TAGS=
LIBRARYQUALITY=3
SPECTRUMID=CCMSLIB00000426222
SCANS=1194
112.944 100.0 
END IONS

BEGIN IONS
PEPMASS=289.18
CHARGE=1+
MSLEVEL=2
SOURCE_INSTRUMENT=Positive-Quattro_QQQ:10eV
FILENAME=hmdb_intermediate.mgf
SEQ=*..*
IONMODE=Positive
ORGANISM=HMDB
NAME=HMDB:HMDB00338-543 2-Hydroxyestradiol M+H
PI=HMDB
DATACOLLECTOR=HMDB
SMILES=[H][C@@]12CC[C@H](O)[C@@]1(C)CC[C@]1([H])C3=C(CC[C@@]21[H])C=C(O)C(O)=C3
INCHI=InChI=1S/C18H24O3/c1-18-7-6-11-12(14(18)4-5-17(18)21)3-2-10-8-15(19)16(20)9-13(10)11/h8-9,11-12,14,17,19-21H,2-7H2,1H3/t11-,12+,14-,17-,18-/m0/s1
INCHIAUX=N/A
PUBMED=N/A
SUBMITUSER=mwang87
TAGS=
LIBRARYQUALITY=3
SPECTRUMID=CCMSLIB00000426223
SCANS=1195
123.381 100.0 
131.359 57.819 
134.673 69.759 
289.725 53.027 
END IONS

BEGIN IONS
PEPMASS=263.023
CHARGE=1+
MSLEVEL=2
SOURCE_INSTRUMENT=Negative-Quattro_QQQ:10eV
FILENAME=hmdb_intermediate.mgf
SEQ=*..*
IONMODE=Negative
ORGANISM=HMDB
NAME=HMDB:HMDB03332-2248 3-Methoxy-4-Hydroxyphenylglycol sulfate M-H
PI=HMDB
DATACOLLECTOR=HMDB
SMILES=COC1=C(O)C=CC(=C1)C(CO)OS(O)(=O)=O
INCHI=InChI=1S/C9H12O7S/c1-15-8-4-6(2-3-7(8)11)9(5-10)16-17(12,13)14/h2-4,9-11H,5H2,1H3,(H,12,13,14)
INCHIAUX=N/A
PUBMED=N/A
SUBMITUSER=mwang87
TAGS=
LIBRARYQUALITY=3
SPECTRUMID=CCMSLIB00000426224
SCANS=1196
262.0 100.0 
END IONS

BEGIN IONS
PEPMASS=138.092
CHARGE=1+
MSLEVEL=2
SOURCE_INSTRUMENT=Positive-Quattro_QQQ:10eV
FILENAME=hmdb_intermediate.mgf
SEQ=*..*
IONMODE=Positive
ORGANISM=HMDB
NAME=HMDB:HMDB01065-1409 2-Hydroxyphenethylamine M+H
PI=HMDB
DATACOLLECTOR=HMDB
SMILES=NCC(O)C1=CC=CC=C1
INCHI=InChI=1S/C8H11NO/c9-6-8(10)7-4-2-1-3-5-7/h1-5,8,10H,6,9H2
INCHIAUX=N/A
PUBMED=N/A
SUBMITUSER=mwang87
TAGS=
LIBRARYQUALITY=3
SPECTRUMID=CCMSLIB00000426225
SCANS=1197
465.48 96.9263704402 
465.72 100.0 
END IONS

BEGIN IONS
PEPMASS=308.092
CHARGE=1+
MSLEVEL=2
SOURCE_INSTRUMENT=Positive-Quattro_QQQ:40eV
FILENAME=hmdb_intermediate.mgf
SEQ=*..*
IONMODE=Positive
ORGANISM=HMDB
NAME=HMDB:HMDB00125-188 Glutathione M+H
PI=HMDB
DATACOLLECTOR=HMDB
SMILES=N[C@@H](CCC(=O)N[C@@H](CS)C(=O)NCC(O)=O)C(O)=O
INCHI=InChI=1S/C10H17N3O6S/c11-5(10(18)19)1-2-7(14)13-6(4-20)9(17)12-3-8(15)16/h5-6,20H,1-4,11H2,(H,12,17)(H,13,14)(H,15,16)(H,18,19)/t5-,6-/m0/s1
INCHIAUX=N/A
PUBMED=N/A
SUBMITUSER=mwang87
TAGS=
LIBRARYQUALITY=3
SPECTRUMID=CCMSLIB00000426226
SCANS=1198
84.089 100.0 
END IONS

BEGIN IONS
PEPMASS=118.087
CHARGE=1+
MSLEVEL=2
SOURCE_INSTRUMENT=Positive-Quattro_QQQ:10eV
FILENAME=hmdb_intermediate.mgf
SEQ=*..*
IONMODE=Positive
ORGANISM=HMDB
NAME=HMDB:HMDB00043-72 Betaine M+H
PI=HMDB
DATACOLLECTOR=HMDB
SMILES=C[N+](C)(C)CC([O-])=O
INCHI=InChI=1S/C5H11NO2/c1-6(2,3)4-5(7)8/h4H2,1-3H3
INCHIAUX=N/A
PUBMED=N/A
SUBMITUSER=mwang87
TAGS=
LIBRARYQUALITY=3
SPECTRUMID=CCMSLIB00000426227
SCANS=1199
118.024 100.0 
END IONS

BEGIN IONS
PEPMASS=104.071
CHARGE=1+
MSLEVEL=2
SOURCE_INSTRUMENT=Positive-Quattro_QQQ:10eV
FILENAME=hmdb_intermediate.mgf
SEQ=*..*
IONMODE=Positive
ORGANISM=HMDB
NAME=HMDB:HMDB00092-141 Dimethylglycine M+H
PI=HMDB
DATACOLLECTOR=HMDB
SMILES=CN(C)CC(O)=O
INCHI=InChI=1S/C4H9NO2/c1-5(2)3-4(6)7/h3H2,1-2H3,(H,6,7)
INCHIAUX=N/A
PUBMED=N/A
SUBMITUSER=mwang87
TAGS=
LIBRARYQUALITY=3
SPECTRUMID=CCMSLIB00000426228
SCANS=1200
58.201 100.0 
58.578 86.741 
END IONS

BEGIN IONS
PEPMASS=324.06
CHARGE=1+
MSLEVEL=2
SOURCE_INSTRUMENT=Positive-Quattro_QQQ:25eV
FILENAME=hmdb_intermediate.mgf
SEQ=*..*
IONMODE=Positive
ORGANISM=HMDB
NAME=HMDB:HMDB00095-148 Cytidine monophosphate M+H
PI=HMDB
DATACOLLECTOR=HMDB
SMILES=NC1=NC(=O)N(C=C1)[C@@H]1O[C@H](COP(O)(O)=O)[C@@H](O)[C@H]1O
INCHI=InChI=1S/C9H14N3O8P/c10-5-1-2-12(9(15)11-5)8-7(14)6(13)4(20-8)3-19-21(16,17)18/h1-2,4,6-8,13-14H,3H2,(H2,10,11,15)(H2,16,17,18)/t4-,6-,7-,8-/m1/s1
INCHIAUX=N/A
PUBMED=N/A
SUBMITUSER=mwang87
TAGS=
LIBRARYQUALITY=3
SPECTRUMID=CCMSLIB00000426229
SCANS=1201
112.0 100.0 
END IONS

BEGIN IONS
PEPMASS=343.124
CHARGE=1+
MSLEVEL=2
SOURCE_INSTRUMENT=Positive-Quattro_QQQ:25eV
FILENAME=hmdb_intermediate.mgf
SEQ=*..*
IONMODE=Positive
ORGANISM=HMDB
NAME=HMDB:HMDB00163-258 D-Maltose M+H
PI=HMDB
DATACOLLECTOR=HMDB
SMILES=OC[C@H]1O[C@H](O[C@H]2[C@H](O)[C@H](O)[C@@H](O)O[C@@H]2CO)[C@H](O)[C@@H](O)[C@@H]1O
INCHI=InChI=1S/C12H22O11/c13-1-3-5(15)6(16)9(19)12(22-3)23-10-4(2-14)21-11(20)8(18)7(10)17/h3-20H,1-2H2/t3-,4-,5-,6+,7-,8+,9-,10-,11+,12-/m1/s1
INCHIAUX=N/A
PUBMED=N/A
SUBMITUSER=mwang87
TAGS=
LIBRARYQUALITY=3
SPECTRUMID=CCMSLIB00000426230
SCANS=1202
80.48 58.95 
84.48 78.753 
121.45 56.783 
140.87 62.452 
182.66 65.896 
192.52 100.0 
215.68 54.046 
221.71 51.458 
239.55 51.581 
END IONS

BEGIN IONS
PEPMASS=208.097
CHARGE=1+
MSLEVEL=2
SOURCE_INSTRUMENT=Positive-Quattro_QQQ:40eV
FILENAME=hmdb_intermediate.mgf
SEQ=*..*
IONMODE=Positive
ORGANISM=HMDB
NAME=HMDB:HMDB00860-1216 Phenylpropionylglycine M+H
PI=HMDB
DATACOLLECTOR=HMDB
SMILES=OC(=O)CNC(=O)CCC1=CC=CC=C1
INCHI=InChI=1S/C11H13NO3/c13-10(12-8-11(14)15)7-6-9-4-2-1-3-5-9/h1-5H,6-8H2,(H,12,13)(H,14,15)
INCHIAUX=N/A
PUBMED=N/A
SUBMITUSER=mwang87
TAGS=
LIBRARYQUALITY=3
SPECTRUMID=CCMSLIB00000426231
SCANS=1203
77.258 85.145 
79.331 61.594 
91.273 100.0 
105.23 91.304 
END IONS

BEGIN IONS
PEPMASS=179.034
CHARGE=1+
MSLEVEL=2
SOURCE_INSTRUMENT=Negative-Quattro_QQQ:10eV
FILENAME=hmdb_intermediate.mgf
SEQ=*..*
IONMODE=Negative
ORGANISM=HMDB
NAME=HMDB:HMDB00707-990 4-Hydroxyphenylpyruvic acid M-H
PI=HMDB
DATACOLLECTOR=HMDB
SMILES=OC(=O)C(=O)CC1=CC=C(O)C=C1
INCHI=InChI=1S/C9H8O4/c10-7-3-1-6(2-4-7)5-8(11)9(12)13/h1-4,10H,5H2,(H,12,13)
INCHIAUX=N/A
PUBMED=N/A
SUBMITUSER=mwang87
TAGS=
LIBRARYQUALITY=3
SPECTRUMID=CCMSLIB00000426232
SCANS=1204
106.959 100.0 
END IONS

BEGIN IONS
PEPMASS=133.05
CHARGE=1+
MSLEVEL=2
SOURCE_INSTRUMENT=Positive-Quattro_QQQ:40eV
FILENAME=hmdb_intermediate.mgf
SEQ=*..*
IONMODE=Positive
ORGANISM=HMDB
NAME=HMDB:HMDB01844-1698 Methylsuccinic acid M+H
PI=HMDB
DATACOLLECTOR=HMDB
SMILES=CC(CC(O)=O)C(O)=O
INCHI=InChI=1S/C5H8O4/c1-3(5(8)9)2-4(6)7/h3H,2H2,1H3,(H,6,7)(H,8,9)
INCHIAUX=N/A
PUBMED=N/A
SUBMITUSER=mwang87
TAGS=
LIBRARYQUALITY=3
SPECTRUMID=CCMSLIB00000426233
SCANS=1205
59.0 54.1666694987 
69.0 67.7083330973 
87.0 100.0 
END IONS

BEGIN IONS
PEPMASS=153.055
CHARGE=1+
MSLEVEL=2
SOURCE_INSTRUMENT=Positive-Quattro_QQQ:10eV
FILENAME=hmdb_intermediate.mgf
SEQ=*..*
IONMODE=Positive
ORGANISM=HMDB
NAME=HMDB:HMDB01101-1421 p-Anisic acid M+H
PI=HMDB
DATACOLLECTOR=HMDB
SMILES=COC1=CC=C(C=C1)C(O)=O
INCHI=InChI=1S/C8H8O3/c1-11-7-4-2-6(3-5-7)8(9)10/h2-5H,1H3,(H,9,10)
INCHIAUX=N/A
PUBMED=N/A
SUBMITUSER=mwang87
TAGS=
LIBRARYQUALITY=3
SPECTRUMID=CCMSLIB00000426234
SCANS=1206
108.88 100.0 
END IONS

BEGIN IONS
PEPMASS=364.066
CHARGE=1+
MSLEVEL=2
SOURCE_INSTRUMENT=Positive-Quattro_QQQ:40eV
FILENAME=hmdb_intermediate.mgf
SEQ=*..*
IONMODE=Positive
ORGANISM=HMDB
NAME=HMDB:HMDB01397-1555 Guanosine monophosphate M+H
PI=HMDB
DATACOLLECTOR=HMDB
SMILES=NC1=NC2=C(N=CN2[C@@H]2O[C@H](COP(O)(O)=O)[C@@H](O)[C@H]2O)C(=O)N1
INCHI=InChI=1S/C10H14N5O8P/c11-10-13-7-4(8(18)14-10)12-2-15(7)9-6(17)5(16)3(23-9)1-22-24(19,20)21/h2-3,5-6,9,16-17H,1H2,(H2,19,20,21)(H3,11,13,14,18)/t3-,5-,6-,9-/m1/s1
INCHIAUX=N/A
PUBMED=N/A
SUBMITUSER=mwang87
TAGS=
LIBRARYQUALITY=3
SPECTRUMID=CCMSLIB00000426235
SCANS=1207
152.0 100.0 
END IONS

BEGIN IONS
PEPMASS=315.232
CHARGE=1+
MSLEVEL=2
SOURCE_INSTRUMENT=Positive-Quattro_QQQ:25eV
FILENAME=hmdb_intermediate.mgf
SEQ=*..*
IONMODE=Positive
ORGANISM=HMDB
NAME=HMDB:HMDB01830-1685 Progesterone M+H
PI=HMDB
DATACOLLECTOR=HMDB
SMILES=[H][C@@]12CC[C@H](C(C)=O)[C@@]1(C)CC[C@@]1([H])[C@@]2([H])CCC2=CC(=O)CC[C@]12C
INCHI=InChI=1S/C21H30O2/c1-13(22)17-6-7-18-16-5-4-14-12-15(23)8-10-20(14,2)19(16)9-11-21(17,18)3/h12,16-19H,4-11H2,1-3H3/t16-,17+,18-,19-,20-,21+/m0/s1
INCHIAUX=N/A
PUBMED=N/A
SUBMITUSER=mwang87
TAGS=
LIBRARYQUALITY=3
SPECTRUMID=CCMSLIB00000426236
SCANS=1208
97.265 100.0 
109.219 90.071 
END IONS

BEGIN IONS
PEPMASS=289.18
CHARGE=1+
MSLEVEL=2
SOURCE_INSTRUMENT=Positive-Quattro_QQQ:40eV
FILENAME=hmdb_intermediate.mgf
SEQ=*..*
IONMODE=Positive
ORGANISM=HMDB
NAME=HMDB:HMDB00338-545 2-Hydroxyestradiol M+H
PI=HMDB
DATACOLLECTOR=HMDB
SMILES=[H][C@@]12CC[C@H](O)[C@@]1(C)CC[C@]1([H])C3=C(CC[C@@]21[H])C=C(O)C(O)=C3
INCHI=InChI=1S/C18H24O3/c1-18-7-6-11-12(14(18)4-5-17(18)21)3-2-10-8-15(19)16(20)9-13(10)11/h8-9,11-12,14,17,19-21H,2-7H2,1H3/t11-,12+,14-,17-,18-/m0/s1
INCHIAUX=N/A
PUBMED=N/A
SUBMITUSER=mwang87
TAGS=
LIBRARYQUALITY=3
SPECTRUMID=CCMSLIB00000426237
SCANS=1209
91.96 100.0 
154.435 58.566 
END IONS

BEGIN IONS
PEPMASS=130.998
CHARGE=1+
MSLEVEL=2
SOURCE_INSTRUMENT=Negative-Quattro_QQQ:10eV
FILENAME=hmdb_intermediate.mgf
SEQ=*..*
IONMODE=Negative
ORGANISM=HMDB
NAME=HMDB:HMDB00223-367 Oxalacetic acid M-H
PI=HMDB
DATACOLLECTOR=HMDB
SMILES=OC(=O)CC(=O)C(O)=O
INCHI=InChI=1S/C4H4O5/c5-2(4(8)9)1-3(6)7/h1H2,(H,6,7)(H,8,9)
INCHIAUX=N/A
PUBMED=N/A
SUBMITUSER=mwang87
TAGS=
LIBRARYQUALITY=3
SPECTRUMID=CCMSLIB00000426238
SCANS=1210
87.288 100.0 
END IONS

BEGIN IONS
PEPMASS=142.027
CHARGE=1+
MSLEVEL=2
SOURCE_INSTRUMENT=Positive-Quattro_QQQ:25eV
FILENAME=hmdb_intermediate.mgf
SEQ=*..*
IONMODE=Positive
ORGANISM=HMDB
NAME=HMDB:HMDB00224-371 O-Phosphoethanolamine M+H
PI=HMDB
DATACOLLECTOR=HMDB
SMILES=NCCOP(O)(O)=O
INCHI=InChI=1S/C2H8NO4P/c3-1-2-7-8(4,5)6/h1-3H2,(H2,4,5,6)
INCHIAUX=N/A
PUBMED=N/A
SUBMITUSER=mwang87
TAGS=
LIBRARYQUALITY=3
SPECTRUMID=CCMSLIB00000426239
SCANS=1211
44.621 100.0 
END IONS

BEGIN IONS
PEPMASS=165.019
CHARGE=1+
MSLEVEL=2
SOURCE_INSTRUMENT=Negative-Quattro_QQQ:25eV
FILENAME=hmdb_intermediate.mgf
SEQ=*..*
IONMODE=Negative
ORGANISM=HMDB
NAME=HMDB:HMDB02428-2105 Terephthalic acid M-H
PI=HMDB
DATACOLLECTOR=HMDB
SMILES=OC(=O)C1=CC=C(C=C1)C(O)=O
INCHI=InChI=1S/C8H6O4/c9-7(10)5-1-2-6(4-3-5)8(11)12/h1-4H,(H,9,10)(H,11,12)
INCHIAUX=N/A
PUBMED=N/A
SUBMITUSER=mwang87
TAGS=
LIBRARYQUALITY=3
SPECTRUMID=CCMSLIB00000426240
SCANS=1212
76.0 100.0 
120.0 88.38 
END IONS

BEGIN IONS
PEPMASS=105.066
CHARGE=1+
MSLEVEL=2
SOURCE_INSTRUMENT=Positive-Quattro_QQQ:10eV
FILENAME=hmdb_intermediate.mgf
SEQ=*..*
IONMODE=Positive
ORGANISM=HMDB
NAME=HMDB:HMDB02006-1944 2,3-Diaminopropionic acid M+H
PI=HMDB
DATACOLLECTOR=HMDB
SMILES=NC[C@H](N)C(O)=O
INCHI=InChI=1S/C3H8N2O2/c4-1-2(5)3(6)7/h2H,1,4-5H2,(H,6,7)/t2-/m0/s1
INCHIAUX=N/A
PUBMED=N/A
SUBMITUSER=mwang87
TAGS=
LIBRARYQUALITY=3
SPECTRUMID=CCMSLIB00000426241
SCANS=1213
88.0 100.0 
END IONS

BEGIN IONS
PEPMASS=302.055
CHARGE=1+
MSLEVEL=2
SOURCE_INSTRUMENT=Positive-Quattro_QQQ:25eV
FILENAME=hmdb_intermediate.mgf
SEQ=*..*
IONMODE=Positive
ORGANISM=HMDB
NAME=HMDB:HMDB00781-1111 N-Acetylgalactosamine 4-sulphate M+H
PI=HMDB
DATACOLLECTOR=HMDB
SMILES=CC(=O)N[C@H]1[C@H](O)O[C@H](CO)[C@H](OS(O)(=O)=O)[C@@H]1O
INCHI=InChI=1S/C8H15NO9S/c1-3(11)9-5-6(12)7(18-19(14,15)16)4(2-10)17-8(5)13/h4-8,10,12-13H,2H2,1H3,(H,9,11)(H,14,15,16)/t4-,5-,6-,7+,8-/m1/s1
INCHIAUX=N/A
PUBMED=N/A
SUBMITUSER=mwang87
TAGS=
LIBRARYQUALITY=3
SPECTRUMID=CCMSLIB00000426242
SCANS=1214
84.0 76.265 
126.0 100.0 
END IONS

BEGIN IONS
PEPMASS=176.056
CHARGE=1+
MSLEVEL=2
SOURCE_INSTRUMENT=Positive-Quattro_QQQ:25eV
FILENAME=hmdb_intermediate.mgf
SEQ=*..*
IONMODE=Positive
ORGANISM=HMDB
NAME=HMDB:HMDB00812-1162 N-Acetyl-L-aspartic acid M+H
PI=HMDB
DATACOLLECTOR=HMDB
SMILES=CC(=O)N[C@@H](CC(O)=O)C(O)=O
INCHI=InChI=1S/C6H9NO5/c1-3(8)7-4(6(11)12)2-5(9)10/h4H,2H2,1H3,(H,7,8)(H,9,10)(H,11,12)/t4-/m0/s1
INCHIAUX=N/A
PUBMED=N/A
SUBMITUSER=mwang87
TAGS=
LIBRARYQUALITY=3
SPECTRUMID=CCMSLIB00000426243
SCANS=1215
74.106 100.0 
88.074 71.658 
END IONS

BEGIN IONS
PEPMASS=516.299
CHARGE=1+
MSLEVEL=2
SOURCE_INSTRUMENT=Positive-Quattro_QQQ:10eV
FILENAME=hmdb_intermediate.mgf
SEQ=*..*
IONMODE=Positive
ORGANISM=HMDB
NAME=HMDB:HMDB00036-60 Taurocholic acid M+H
PI=HMDB
DATACOLLECTOR=HMDB
SMILES=[H][C@@]12C[C@H](O)CCC1(C)C1C[C@H](O)C3(C)C(CCC3C1[C@H](O)C2)C(C)CCC(=O)NCCS(O)(=O)=O
INCHI=InChI=1S/C26H45NO7S/c1-15(4-7-23(31)27-10-11-35(32,33)34)18-5-6-19-24-20(14-22(30)26(18,19)3)25(2)9-8-17(28)12-16(25)13-21(24)29/h15-22,24,28-30H,4-14H2,1-3H3,(H,27,31)(H,32,33,34)/t15?,16-,17+,18?,19?,20?,21+,22-,24?,25?,26?/m0/s1
INCHIAUX=N/A
PUBMED=N/A
SUBMITUSER=mwang87
TAGS=
LIBRARYQUALITY=3
SPECTRUMID=CCMSLIB00000426244
SCANS=1216
461.85 67.263 
479.83 62.893 
497.94 76.838 
515.84 100.0 
END IONS

BEGIN IONS
PEPMASS=397.405
CHARGE=1+
MSLEVEL=2
SOURCE_INSTRUMENT=Positive-Quattro_QQQ:10eV
FILENAME=hmdb_intermediate.mgf
SEQ=*..*
IONMODE=Positive
ORGANISM=HMDB
NAME=HMDB:HMDB60125-2076 Hexacosanoic acid M+H
PI=HMDB
DATACOLLECTOR=HMDB
SMILES=CCCCCCCCCCCCCCCCCCCCCCCCCC(O)=O
INCHI=InChI=1S/C26H52O2/c1-2-3-4-5-6-7-8-9-10-11-12-13-14-15-16-17-18-19-20-21-22-23-24-25-26(27)28/h2-25H2,1H3,(H,27,28)
INCHIAUX=N/A
PUBMED=N/A
SUBMITUSER=mwang87
TAGS=
LIBRARYQUALITY=3
SPECTRUMID=CCMSLIB00000426245
SCANS=1217
158.7 56.201 
310.46 52.79 
356.45 100.0 
357.05 85.228 
388.7 50.367 
396.99 82.061 
END IONS

BEGIN IONS
PEPMASS=137.133
CHARGE=1+
MSLEVEL=2
SOURCE_INSTRUMENT=Positive-Quattro_QQQ:10eV
FILENAME=hmdb_intermediate.mgf
SEQ=*..*
IONMODE=Positive
ORGANISM=HMDB
NAME=HMDB:HMDB05806-2451 Gamma-terpinene M+H
PI=HMDB
DATACOLLECTOR=HMDB
SMILES=CC(C)C1=CCC(C)=CC1
INCHI=InChI=1S/C10H16/c1-8(2)10-6-4-9(3)5-7-10/h4,7-8H,5-6H2,1-3H3
INCHIAUX=N/A
PUBMED=N/A
SUBMITUSER=mwang87
TAGS=
LIBRARYQUALITY=3
SPECTRUMID=CCMSLIB00000426246
SCANS=1218
80.7 68.547 
136.66 100.0 
END IONS

BEGIN IONS
PEPMASS=188.071
CHARGE=1+
MSLEVEL=2
SOURCE_INSTRUMENT=Positive-Quattro_QQQ:40eV
FILENAME=hmdb_intermediate.mgf
SEQ=*..*
IONMODE=Positive
ORGANISM=HMDB
NAME=HMDB:HMDB00734-1040 Indoleacrylic acid M+H
PI=HMDB
DATACOLLECTOR=HMDB
SMILES=OC(=O)\C=C\C1=CC2=C(N1)C=CC=C2
INCHI=InChI=1S/C11H9NO2/c13-11(14)6-5-9-7-8-3-1-2-4-10(8)12-9/h1-7,12H,(H,13,14)/b6-5+
INCHIAUX=N/A
PUBMED=N/A
SUBMITUSER=mwang87
TAGS=
LIBRARYQUALITY=3
SPECTRUMID=CCMSLIB00000426247
SCANS=1219
93.075 65.273 
119.731 100.0 
END IONS

BEGIN IONS
PEPMASS=273.185
CHARGE=1+
MSLEVEL=2
SOURCE_INSTRUMENT=Positive-Quattro_QQQ:40eV
FILENAME=hmdb_intermediate.mgf
SEQ=*..*
IONMODE=Positive
ORGANISM=HMDB
NAME=HMDB:HMDB00151-232 Estradiol M+H
PI=HMDB
DATACOLLECTOR=HMDB
SMILES=[H][C@@]12CC[C@H](O)[C@@]1(C)CC[C@]1([H])C3=C(CC[C@@]21[H])C=C(O)C=C3
INCHI=InChI=1S/C18H24O2/c1-18-9-8-14-13-5-3-12(19)10-11(13)2-4-15(14)16(18)6-7-17(18)20/h3,5,10,14-17,19-20H,2,4,6-9H2,1H3/t14-,15-,16+,17+,18+/m1/s1
INCHIAUX=N/A
PUBMED=N/A
SUBMITUSER=mwang87
TAGS=
LIBRARYQUALITY=3
SPECTRUMID=CCMSLIB00000426248
SCANS=1220
107.0 100.0 
END IONS

BEGIN IONS
PEPMASS=117.055
CHARGE=1+
MSLEVEL=2
SOURCE_INSTRUMENT=Positive-Quattro_QQQ:10eV
FILENAME=hmdb_intermediate.mgf
SEQ=*..*
IONMODE=Positive
ORGANISM=HMDB
NAME=HMDB:HMDB00720-1011 Levulinic acid M+H
PI=HMDB
DATACOLLECTOR=HMDB
SMILES=CC(=O)CCC(O)=O
INCHI=InChI=1S/C5H8O3/c1-4(6)2-3-5(7)8/h2-3H2,1H3,(H,7,8)
INCHIAUX=N/A
PUBMED=N/A
SUBMITUSER=mwang87
TAGS=
LIBRARYQUALITY=3
SPECTRUMID=CCMSLIB00000426249
SCANS=1221
71.164 100.0 
115.005 51.056 
END IONS

BEGIN IONS
PEPMASS=313.311
CHARGE=1+
MSLEVEL=2
SOURCE_INSTRUMENT=Positive-Quattro_QQQ:25eV
FILENAME=hmdb_intermediate.mgf
SEQ=*..*
IONMODE=Positive
ORGANISM=HMDB
NAME=HMDB:HMDB02212-2035 Arachidic acid M+H
PI=HMDB
DATACOLLECTOR=HMDB
SMILES=CCCCCCCCCCCCCCCCCCCC(O)=O
INCHI=InChI=1S/C20H40O2/c1-2-3-4-5-6-7-8-9-10-11-12-13-14-15-16-17-18-19-20(21)22/h2-19H2,1H3,(H,21,22)
INCHIAUX=N/A
PUBMED=N/A
SUBMITUSER=mwang87
TAGS=
LIBRARYQUALITY=3
SPECTRUMID=CCMSLIB00000426250
SCANS=1222
57.0 100.0 
END IONS

BEGIN IONS
PEPMASS=667.23
CHARGE=1+
MSLEVEL=2
SOURCE_INSTRUMENT=Positive-Quattro_QQQ:25eV
FILENAME=hmdb_intermediate.mgf
SEQ=*..*
IONMODE=Positive
ORGANISM=HMDB
NAME=HMDB:HMDB01296-1508 Maltotetraose M+H
PI=HMDB
DATACOLLECTOR=HMDB
SMILES=OC[C@H]1O[C@H](O[C@H]2[C@H](O)[C@@H](O)[C@@H](O[C@H]3[C@H](O)[C@@H](O)[C@@H](O[C@H]4[C@H](O)[C@@H](O)C(O)O[C@@H]4CO)O[C@@H]3CO)O[C@@H]2CO)[C@H](O)[C@@H](O)[C@@H]1O
INCHI=InChI=1S/C24H42O21/c25-1-5-9(29)10(30)15(35)22(40-5)44-19-7(3-27)42-24(17(37)12(19)32)45-20-8(4-28)41-23(16(36)13(20)33)43-18-6(2-26)39-21(38)14(34)11(18)31/h5-38H,1-4H2/t5-,6-,7-,8-,9-,10+,11-,12-,13-,14-,15-,16-,17-,18-,19-,20-,21?,22-,23-,24-/m1/s1
INCHIAUX=N/A
PUBMED=N/A
SUBMITUSER=mwang87
TAGS=
LIBRARYQUALITY=3
SPECTRUMID=CCMSLIB00000426251
SCANS=1223
163.0 100.0 
END IONS

BEGIN IONS
PEPMASS=167.071
CHARGE=1+
MSLEVEL=2
SOURCE_INSTRUMENT=Positive-Quattro_QQQ:10eV
FILENAME=hmdb_intermediate.mgf
SEQ=*..*
IONMODE=Positive
ORGANISM=HMDB
NAME=HMDB:HMDB02229-2040 3-Phenoxypropionic acid M+H
PI=HMDB
DATACOLLECTOR=HMDB
SMILES=OC(=O)CCOC1=CC=CC=C1
INCHI=InChI=1S/C9H10O3/c10-9(11)6-7-12-8-4-2-1-3-5-8/h1-5H,6-7H2,(H,10,11)
INCHIAUX=N/A
PUBMED=N/A
SUBMITUSER=mwang87
TAGS=
LIBRARYQUALITY=3
SPECTRUMID=CCMSLIB00000426252
SCANS=1224
149.0 100.0 
END IONS

BEGIN IONS
PEPMASS=261.038
CHARGE=1+
MSLEVEL=2
SOURCE_INSTRUMENT=Positive-Quattro_QQQ:10eV
FILENAME=hmdb_intermediate.mgf
SEQ=*..*
IONMODE=Positive
ORGANISM=HMDB
NAME=HMDB:HMDB00124-183 Fructose 6-phosphate M+H
PI=HMDB
DATACOLLECTOR=HMDB
SMILES=OCC(=O)[C@@H](O)[C@H](O)[C@H](O)COP(O)(O)=O
INCHI=InChI=1S/C6H13O9P/c7-1-3(8)5(10)6(11)4(9)2-15-16(12,13)14/h4-7,9-11H,1-2H2,(H2,12,13,14)/t4-,5-,6-/m1/s1
INCHIAUX=N/A
PUBMED=N/A
SUBMITUSER=mwang87
TAGS=
LIBRARYQUALITY=3
SPECTRUMID=CCMSLIB00000426253
SCANS=1225
261.364 100.0 
END IONS

BEGIN IONS
PEPMASS=343.124
CHARGE=1+
MSLEVEL=2
SOURCE_INSTRUMENT=Positive-Quattro_QQQ:40eV
FILENAME=hmdb_intermediate.mgf
SEQ=*..*
IONMODE=Positive
ORGANISM=HMDB
NAME=HMDB:HMDB00055-89 Cellobiose M+H
PI=HMDB
DATACOLLECTOR=HMDB
SMILES=OC[C@H]1O[C@@H](O[C@H]2[C@H](O)[C@@H](O)[C@H](O)O[C@@H]2CO)[C@H](O)[C@@H](O)[C@@H]1O
INCHI=InChI=1S/C12H22O11/c13-1-3-5(15)6(16)9(19)12(22-3)23-10-4(2-14)21-11(20)8(18)7(10)17/h3-20H,1-2H2/t3-,4-,5-,6+,7-,8-,9-,10-,11-,12+/m1/s1
INCHIAUX=N/A
PUBMED=N/A
SUBMITUSER=mwang87
TAGS=
LIBRARYQUALITY=3
SPECTRUMID=CCMSLIB00000426254
SCANS=1226
85.245 100.0 
END IONS

BEGIN IONS
PEPMASS=179.034
CHARGE=1+
MSLEVEL=2
SOURCE_INSTRUMENT=Negative-Quattro_QQQ:40eV
FILENAME=hmdb_intermediate.mgf
SEQ=*..*
IONMODE=Negative
ORGANISM=HMDB
NAME=HMDB:HMDB00707-992 4-Hydroxyphenylpyruvic acid M-H
PI=HMDB
DATACOLLECTOR=HMDB
SMILES=OC(=O)C(=O)CC1=CC=C(O)C=C1
INCHI=InChI=1S/C9H8O4/c10-7-3-1-6(2-4-7)5-8(11)9(12)13/h1-4,10H,5H2,(H,12,13)
INCHIAUX=N/A
PUBMED=N/A
SUBMITUSER=mwang87
TAGS=
LIBRARYQUALITY=3
SPECTRUMID=CCMSLIB00000426255
SCANS=1227
77.058 88.235 
104.036 56.618 
106.932 94.118 
131.984 100.0 
133.928 77.941 
END IONS

BEGIN IONS
PEPMASS=241.13
CHARGE=1+
MSLEVEL=2
SOURCE_INSTRUMENT=Positive-Quattro_QQQ:10eV
FILENAME=hmdb_intermediate.mgf
SEQ=*..*
IONMODE=Positive
ORGANISM=HMDB
NAME=HMDB:HMDB00194-313 Anserine M+H
PI=HMDB
DATACOLLECTOR=HMDB
SMILES=CN1C=NC=C1C[C@H](NC(=O)CCN)C(O)=O
INCHI=InChI=1S/C10H16N4O3/c1-14-6-12-5-7(14)4-8(10(16)17)13-9(15)2-3-11/h5-6,8H,2-4,11H2,1H3,(H,13,15)(H,16,17)/t8-/m0/s1
INCHIAUX=N/A
PUBMED=N/A
SUBMITUSER=mwang87
TAGS=
LIBRARYQUALITY=3
SPECTRUMID=CCMSLIB00000426256
SCANS=1228
156.381 58.71 
158.887 100.0 
END IONS

BEGIN IONS
PEPMASS=235.108
CHARGE=1+
MSLEVEL=2
SOURCE_INSTRUMENT=Positive-Quattro_QQQ:40eV
FILENAME=hmdb_intermediate.mgf
SEQ=*..*
IONMODE=Positive
ORGANISM=HMDB
NAME=HMDB:HMDB02339-2066 5-Methoxytryptophan M+H
PI=HMDB
DATACOLLECTOR=HMDB
SMILES=COC1=CC2=C(NC=C2C[C@H](N)C(O)=O)C=C1
INCHI=InChI=1S/C12H14N2O3/c1-17-8-2-3-11-9(5-8)7(6-14-11)4-10(13)12(15)16/h2-3,5-6,10,14H,4,13H2,1H3,(H,15,16)/t10-/m0/s1
INCHIAUX=N/A
PUBMED=N/A
SUBMITUSER=mwang87
TAGS=
LIBRARYQUALITY=3
SPECTRUMID=CCMSLIB00000426257
SCANS=1229
104.0 52.302 
116.0 73.259 
129.0 100.0 
130.0 76.069 
132.0 90.894 
END IONS

BEGIN IONS
PEPMASS=93.0552
CHARGE=1+
MSLEVEL=2
SOURCE_INSTRUMENT=Positive-Quattro_QQQ:25eV
FILENAME=hmdb_intermediate.mgf
SEQ=*..*
IONMODE=Positive
ORGANISM=HMDB
NAME=HMDB:HMDB00131-201 Glycerol M+H
PI=HMDB
DATACOLLECTOR=HMDB
SMILES=OCC(O)CO
INCHI=InChI=1S/C3H8O3/c4-1-3(6)2-5/h3-6H,1-2H2
INCHIAUX=N/A
PUBMED=N/A
SUBMITUSER=mwang87
TAGS=
LIBRARYQUALITY=3
SPECTRUMID=CCMSLIB00000426258
SCANS=1230
57.14 100.0 
57.638 92.361 
END IONS

BEGIN IONS
PEPMASS=193.035
CHARGE=1+
MSLEVEL=2
SOURCE_INSTRUMENT=Positive-Quattro_QQQ:40eV
FILENAME=hmdb_intermediate.mgf
SEQ=*..*
IONMODE=Positive
ORGANISM=HMDB
NAME=HMDB:HMDB00193-312 Isocitric acid M+H
PI=HMDB
DATACOLLECTOR=HMDB
SMILES=OC(C(CC(O)=O)C(O)=O)C(O)=O
INCHI=InChI=1S/C6H8O7/c7-3(8)1-2(5(10)11)4(9)6(12)13/h2,4,9H,1H2,(H,7,8)(H,10,11)(H,12,13)
INCHIAUX=N/A
PUBMED=N/A
SUBMITUSER=mwang87
TAGS=
LIBRARYQUALITY=3
SPECTRUMID=CCMSLIB00000426259
SCANS=1231
55.044 51.575 
79.642 56.125 
84.814 68.011 
98.187 74.03 
110.928 100.0 
122.913 66.839 
END IONS

BEGIN IONS
PEPMASS=94.0657
CHARGE=1+
MSLEVEL=2
SOURCE_INSTRUMENT=Positive-Quattro_QQQ:25eV
FILENAME=hmdb_intermediate.mgf
SEQ=*..*
IONMODE=Positive
ORGANISM=HMDB
NAME=HMDB:HMDB03012-2183 Aniline M+H
PI=HMDB
DATACOLLECTOR=HMDB
SMILES=NC1=CC=CC=C1
INCHI=InChI=1S/C6H7N/c7-6-4-2-1-3-5-6/h1-5H,7H2
INCHIAUX=N/A
PUBMED=N/A
SUBMITUSER=mwang87
TAGS=
LIBRARYQUALITY=3
SPECTRUMID=CCMSLIB00000426260
SCANS=1232
77.0 100.0 
END IONS

BEGIN IONS
PEPMASS=1347.58
CHARGE=1+
MSLEVEL=2
SOURCE_INSTRUMENT=Positive-Quattro_QQQ:40eV
FILENAME=hmdb_intermediate.mgf
SEQ=*..*
IONMODE=Positive
ORGANISM=HMDB
NAME=HMDB:HMDB02308-2054 Hydroxycobalamin M+H
PI=HMDB
DATACOLLECTOR=HMDB
SMILES=[Co++].O.OC[C@H]1O[C@@]([H])([C@H](O)[C@]1([H])OP(=O)([O-])O[C@H](C)CNC(=O)CC[C@]1(C)[C@@H](CC(=O)N)[C@@]2([H])[N-]\C1=C(C)/C1=N/C(=C\C3=N\C(=C(C)/C4=N[C@]2(C)[C@@](C)(CC(=O)N)[C@@H]4CCC(=O)N)\[C@@](C)(CC(=O)N)[C@@H]3CCC(=O)N)/C(C)(C)[C@@H]1CCC(=O)N)N1C=NC2=C1C=C(C)C(C)=C2
INCHI=InChI=1S/C62H90N13O14P.Co.H2O/c1-29-20-39-40(21-30(29)2)75(28-70-39)57-52(84)53(41(27-76)87-57)89-90(85,86)88-31(3)26-69-49(83)18-19-59(8)37(22-46(66)80)56-62(11)61(10,25-48(68)82)36(14-17-45(65)79)51(74-62)33(5)55-60(9,24-47(67)81)34(12-15-43(63)77)38(71-55)23-42-58(6,7)35(13-16-44(64)78)50(72-42)32(4)54(59)73-56;;/h20-21,23,28,31,34-37,41,52-53,56-57,76,84H,12-19,22,24-27H2,1-11H3,(H15,63,64,65,66,67,68,69,71,72,73,74,77,78,79,80,81,82,83,85,86);;1H2/q;+2;/p-2/t31-,34-,35-,36-,37+,41-,52-,53-,56-,57+,59-,60+,61+,62+;;/m1../s1
INCHIAUX=N/A
PUBMED=N/A
SUBMITUSER=mwang87
TAGS=
LIBRARYQUALITY=3
SPECTRUMID=CCMSLIB00000426261
SCANS=1233
988.0 66.825 
989.0 90.832 
990.0 100.0 
1008.0 53.989 
1201.0 68.75 
1202.0 86.104 
END IONS

BEGIN IONS
PEPMASS=103.076
CHARGE=1+
MSLEVEL=2
SOURCE_INSTRUMENT=Positive-Quattro_QQQ:10eV
FILENAME=hmdb_intermediate.mgf
SEQ=*..*
IONMODE=Positive
ORGANISM=HMDB
NAME=HMDB:HMDB00892-1253 Valeric acid M+H
PI=HMDB
DATACOLLECTOR=HMDB
SMILES=CCCCC(O)=O
INCHI=InChI=1S/C5H10O2/c1-2-3-4-5(6)7/h2-4H2,1H3,(H,6,7)
INCHIAUX=N/A
PUBMED=N/A
SUBMITUSER=mwang87
TAGS=
LIBRARYQUALITY=3
SPECTRUMID=CCMSLIB00000426262
SCANS=1234
75.0 100.0 
103.0 95.598 
END IONS

BEGIN IONS
PEPMASS=225.088
CHARGE=1+
MSLEVEL=2
SOURCE_INSTRUMENT=Positive-Quattro_QQQ:40eV
FILENAME=hmdb_intermediate.mgf
SEQ=*..*
IONMODE=Positive
ORGANISM=HMDB
NAME=HMDB:HMDB00732-1034 Hydroxykynurenine M+H
PI=HMDB
DATACOLLECTOR=HMDB
SMILES=NC(CC(=O)C1=C(N)C(O)=CC=C1)C(O)=O
INCHI=InChI=1S/C10H12N2O4/c11-6(10(15)16)4-8(14)5-2-1-3-7(13)9(5)12/h1-3,6,13H,4,11-12H2,(H,15,16)
INCHIAUX=N/A
PUBMED=N/A
SUBMITUSER=mwang87
TAGS=
LIBRARYQUALITY=3
SPECTRUMID=CCMSLIB00000426263
SCANS=1235
74.095 50.278 
79.887 100.0 
92.096 77.778 
109.965 52.778 
END IONS

BEGIN IONS
PEPMASS=195.05
CHARGE=1+
MSLEVEL=2
SOURCE_INSTRUMENT=Positive-Quattro_QQQ:25eV
FILENAME=hmdb_intermediate.mgf
SEQ=*..*
IONMODE=Positive
ORGANISM=HMDB
NAME=HMDB:HMDB02545-2117 Galacturonic acid M+H
PI=HMDB
DATACOLLECTOR=HMDB
SMILES=O[C@@H](C=O)[C@@H](O)[C@@H](O)[C@H](O)C(O)=O
INCHI=InChI=1S/C6H10O7/c7-1-2(8)3(9)4(10)5(11)6(12)13/h1-5,8-11H,(H,12,13)/t2-,3+,4+,5-/m0/s1
INCHIAUX=N/A
PUBMED=N/A
SUBMITUSER=mwang87
TAGS=
LIBRARYQUALITY=3
SPECTRUMID=CCMSLIB00000426264
SCANS=1236
57.0 76.858 
73.0 54.43 
101.0 100.0 
117.0 72.418 
119.0 59.271 
END IONS

BEGIN IONS
PEPMASS=257.175
CHARGE=1+
MSLEVEL=2
SOURCE_INSTRUMENT=Negative-Quattro_QQQ:10eV
FILENAME=hmdb_intermediate.mgf
SEQ=*..*
IONMODE=Negative
ORGANISM=HMDB
NAME=HMDB:HMDB00872-1229 Tetradecanedioic acid M-H
PI=HMDB
DATACOLLECTOR=HMDB
SMILES=OC(=O)CCCCCCCCCCCCC(O)=O
INCHI=InChI=1S/C14H26O4/c15-13(16)11-9-7-5-3-1-2-4-6-8-10-12-14(17)18/h1-12H2,(H,15,16)(H,17,18)
INCHIAUX=N/A
PUBMED=N/A
SUBMITUSER=mwang87
TAGS=
LIBRARYQUALITY=3
SPECTRUMID=CCMSLIB00000426265
SCANS=1237
257.064 100.0 
END IONS

BEGIN IONS
PEPMASS=138.055
CHARGE=1+
MSLEVEL=2
SOURCE_INSTRUMENT=Positive-Quattro_QQQ:40eV
FILENAME=hmdb_intermediate.mgf
SEQ=*..*
IONMODE=Positive
ORGANISM=HMDB
NAME=HMDB:HMDB01392-1552 p-Aminobenzoic acid M+H
PI=HMDB
DATACOLLECTOR=HMDB
SMILES=NC1=CC=C(C=C1)C(O)=O
INCHI=InChI=1S/C7H7NO2/c8-6-3-1-5(2-4-6)7(9)10/h1-4H,8H2,(H,9,10)
INCHIAUX=N/A
PUBMED=N/A
SUBMITUSER=mwang87
TAGS=
LIBRARYQUALITY=3
SPECTRUMID=CCMSLIB00000426266
SCANS=1238
65.164 100.0 
END IONS

BEGIN IONS
PEPMASS=81.9725
CHARGE=1+
MSLEVEL=2
SOURCE_INSTRUMENT=Positive-Quattro_QQQ:40eV
FILENAME=hmdb_intermediate.mgf
SEQ=*..*
IONMODE=Positive
ORGANISM=HMDB
NAME=HMDB:HMDB01033-1395 Hydrogen sulfite M+H
PI=HMDB
DATACOLLECTOR=HMDB
SMILES=OS([O-])=O
INCHI=InChI=1S/H2O3S/c1-4(2)3/h(H2,1,2,3)/p-1
INCHIAUX=N/A
PUBMED=N/A
SUBMITUSER=mwang87
TAGS=
LIBRARYQUALITY=3
SPECTRUMID=CCMSLIB00000426267
SCANS=1239
39.0 52.269 
40.0 54.612 
41.0 100.0 
42.0 65.593 
81.0 51.977 
END IONS

BEGIN IONS
PEPMASS=137.045
CHARGE=1+
MSLEVEL=2
SOURCE_INSTRUMENT=Positive-Quattro_QQQ:40eV
FILENAME=hmdb_intermediate.mgf
SEQ=*..*
IONMODE=Positive
ORGANISM=HMDB
NAME=HMDB:HMDB00943-1338 Threonic acid M+H
PI=HMDB
DATACOLLECTOR=HMDB
SMILES=OC[C@@H](O)[C@H](O)C(O)=O
INCHI=InChI=1S/C4H8O5/c5-1-2(6)3(7)4(8)9/h2-3,5-7H,1H2,(H,8,9)/t2-,3+/m1/s1
INCHIAUX=N/A
PUBMED=N/A
SUBMITUSER=mwang87
TAGS=
LIBRARYQUALITY=3
SPECTRUMID=CCMSLIB00000426268
SCANS=1240
51.514 62.547 
55.004 84.652 
66.967 68.767 
95.007 100.0 
137.007 75.914 
END IONS

BEGIN IONS
PEPMASS=209.093
CHARGE=1+
MSLEVEL=2
SOURCE_INSTRUMENT=Positive-Quattro_QQQ:10eV
FILENAME=hmdb_intermediate.mgf
SEQ=*..*
IONMODE=Positive
ORGANISM=HMDB
NAME=HMDB:HMDB00684-948 L-Kynurenine M+H
PI=HMDB
DATACOLLECTOR=HMDB
SMILES=N[C@@H](CC(=O)C1=CC=CC=C1N)C(O)=O
INCHI=InChI=1S/C10H12N2O3/c11-7-4-2-1-3-6(7)9(13)5-8(12)10(14)15/h1-4,8H,5,11-12H2,(H,14,15)/t8-/m0/s1
INCHIAUX=N/A
PUBMED=N/A
SUBMITUSER=mwang87
TAGS=
LIBRARYQUALITY=3
SPECTRUMID=CCMSLIB00000426269
SCANS=1241
191.904 100.0 
END IONS

BEGIN IONS
PEPMASS=137.024
CHARGE=1+
MSLEVEL=2
SOURCE_INSTRUMENT=Negative-Quattro_QQQ:10eV
FILENAME=hmdb_intermediate.mgf
SEQ=*..*
IONMODE=Negative
ORGANISM=HMDB
NAME=HMDB:HMDB00500-716 4-Hydroxybenzoic acid M-H
PI=HMDB
DATACOLLECTOR=HMDB
SMILES=OC(=O)C1=CC=C(O)C=C1
INCHI=InChI=1S/C7H6O3/c8-6-3-1-5(2-4-6)7(9)10/h1-4,8H,(H,9,10)
INCHIAUX=N/A
PUBMED=N/A
SUBMITUSER=mwang87
TAGS=
LIBRARYQUALITY=3
SPECTRUMID=CCMSLIB00000426270
SCANS=1242
93.042 100.0 
136.921 55.0 
END IONS

BEGIN IONS
PEPMASS=464.301
CHARGE=1+
MSLEVEL=2
SOURCE_INSTRUMENT=Negative-Quattro_QQQ:25eV
FILENAME=hmdb_intermediate.mgf
SEQ=*..*
IONMODE=Negative
ORGANISM=HMDB
NAME=HMDB:HMDB00138-210 Glycocholic acid M-H
PI=HMDB
DATACOLLECTOR=HMDB
SMILES=[H][C@@]12CC[C@H]([C@H](C)CCC(=O)NCC(O)=O)[C@@]1(C)[C@@H](O)C[C@@]1([H])[C@@]2([H])[C@H](O)CC2C[C@H](O)CC[C@]12C
INCHI=InChI=1S/C26H43NO6/c1-14(4-7-22(31)27-13-23(32)33)17-5-6-18-24-19(12-21(30)26(17,18)3)25(2)9-8-16(28)10-15(25)11-20(24)29/h14-21,24,28-30H,4-13H2,1-3H3,(H,27,31)(H,32,33)/t14-,15?,16-,17-,18+,19+,20-,21+,24+,25+,26-/m1/s1
INCHIAUX=N/A
PUBMED=N/A
SUBMITUSER=mwang87
TAGS=
LIBRARYQUALITY=3
SPECTRUMID=CCMSLIB00000426271
SCANS=1243
74.151 51.316 
464.352 100.0 
END IONS

BEGIN IONS
PEPMASS=333.243
CHARGE=1+
MSLEVEL=2
SOURCE_INSTRUMENT=Positive-Quattro_QQQ:25eV
FILENAME=hmdb_intermediate.mgf
SEQ=*..*
IONMODE=Positive
ORGANISM=HMDB
NAME=HMDB:HMDB00363-577 17a-Hydroxypregnenolone M+H
PI=HMDB
DATACOLLECTOR=HMDB
SMILES=[H][C@@]12CC[C@](O)(C(C)=O)[C@@]1(C)CC[C@@]1([H])[C@@]2([H])CC=C2C[C@@H](O)CC[C@]12C
INCHI=InChI=1S/C21H32O3/c1-13(22)21(24)11-8-18-16-5-4-14-12-15(23)6-9-19(14,2)17(16)7-10-20(18,21)3/h4,15-18,23-24H,5-12H2,1-3H3/t15-,16+,17-,18-,19-,20-,21-/m0/s1
INCHIAUX=N/A
PUBMED=N/A
SUBMITUSER=mwang87
TAGS=
LIBRARYQUALITY=3
SPECTRUMID=CCMSLIB00000426272
SCANS=1244
158.0 100.0 
END IONS

BEGIN IONS
PEPMASS=206.067
CHARGE=1+
MSLEVEL=2
SOURCE_INSTRUMENT=Positive-Quattro_QQQ:40eV
FILENAME=hmdb_intermediate.mgf
SEQ=*..*
IONMODE=Positive
ORGANISM=HMDB
NAME=HMDB:HMDB00962-1368 Lipoamide M+H
PI=HMDB
DATACOLLECTOR=HMDB
SMILES=NC(=O)CCCCC1CCSS1
INCHI=InChI=1S/C8H15NOS2/c9-8(10)4-2-1-3-7-5-6-11-12-7/h7H,1-6H2,(H2,9,10)
INCHIAUX=N/A
PUBMED=N/A
SUBMITUSER=mwang87
TAGS=
LIBRARYQUALITY=3
SPECTRUMID=CCMSLIB00000426273
SCANS=1245
55.0 90.875 
67.0 81.04 
77.0 77.709 
79.0 100.0 
81.0 64.82 
END IONS

BEGIN IONS
PEPMASS=76.0399
CHARGE=1+
MSLEVEL=2
SOURCE_INSTRUMENT=Positive-Quattro_QQQ:40eV
FILENAME=hmdb_intermediate.mgf
SEQ=*..*
IONMODE=Positive
ORGANISM=HMDB
NAME=HMDB:HMDB00123-182 Glycine M+H
PI=HMDB
DATACOLLECTOR=HMDB
SMILES=NCC(O)=O
INCHI=InChI=1S/C2H5NO2/c3-1-2(4)5/h1,3H2,(H,4,5)
INCHIAUX=N/A
PUBMED=N/A
SUBMITUSER=mwang87
TAGS=
LIBRARYQUALITY=3
SPECTRUMID=CCMSLIB00000426274
SCANS=1246
30.305 100.0 
END IONS

BEGIN IONS
PEPMASS=73.0653
CHARGE=1+
MSLEVEL=2
SOURCE_INSTRUMENT=Positive-Quattro_QQQ:40eV
FILENAME=hmdb_intermediate.mgf
SEQ=*..*
IONMODE=Positive
ORGANISM=HMDB
NAME=HMDB:HMDB00474-694 Butanone M+H
PI=HMDB
DATACOLLECTOR=HMDB
SMILES=CCC(C)=O
INCHI=InChI=1S/C4H8O/c1-3-4(2)5/h3H2,1-2H3
INCHIAUX=N/A
PUBMED=N/A
SUBMITUSER=mwang87
TAGS=
LIBRARYQUALITY=3
SPECTRUMID=CCMSLIB00000426275
SCANS=1247
43.0 61.283 
73.0 100.0 
END IONS

BEGIN IONS
PEPMASS=147.077
CHARGE=1+
MSLEVEL=2
SOURCE_INSTRUMENT=Positive-Quattro_QQQ:10eV
FILENAME=hmdb_intermediate.mgf
SEQ=*..*
IONMODE=Positive
ORGANISM=HMDB
NAME=HMDB:HMDB03423-2301 D-Glutamine M+H
PI=HMDB
DATACOLLECTOR=HMDB
SMILES=N[C@H](CCC(N)=O)C(O)=O
INCHI=InChI=1S/C5H10N2O3/c6-3(5(9)10)1-2-4(7)8/h3H,1-2,6H2,(H2,7,8)(H,9,10)/t3-/m1/s1
INCHIAUX=N/A
PUBMED=N/A
SUBMITUSER=mwang87
TAGS=
LIBRARYQUALITY=3
SPECTRUMID=CCMSLIB00000426276
SCANS=1248
129.86 100.0 
END IONS

BEGIN IONS
PEPMASS=160.134
CHARGE=1+
MSLEVEL=2
SOURCE_INSTRUMENT=Positive-Quattro_QQQ:40eV
FILENAME=hmdb_intermediate.mgf
SEQ=*..*
IONMODE=Positive
ORGANISM=HMDB
NAME=HMDB:HMDB00991-1383 DL-2-Aminooctanoic acid M+H
PI=HMDB
DATACOLLECTOR=HMDB
SMILES=CCCCCCC(N)C(O)=O
INCHI=InChI=1S/C8H17NO2/c1-2-3-4-5-6-7(9)8(10)11/h7H,2-6,9H2,1H3,(H,10,11)
INCHIAUX=N/A
PUBMED=N/A
SUBMITUSER=mwang87
TAGS=
LIBRARYQUALITY=3
SPECTRUMID=CCMSLIB00000426277
SCANS=1249
41.3 50.794 
43.159 100.0 
57.993 86.243 
END IONS

BEGIN IONS
PEPMASS=131.071
CHARGE=1+
MSLEVEL=2
SOURCE_INSTRUMENT=Positive-Quattro_QQQ:10eV
FILENAME=hmdb_intermediate.mgf
SEQ=*..*
IONMODE=Positive
ORGANISM=HMDB
NAME=HMDB:HMDB00408-621 2-Methyl-3-ketovaleric acid M+H
PI=HMDB
DATACOLLECTOR=HMDB
SMILES=CCC(=O)C(C)C(O)=O
INCHI=InChI=1S/C6H10O3/c1-3-5(7)4(2)6(8)9/h4H,3H2,1-2H3,(H,8,9)
INCHIAUX=N/A
PUBMED=N/A
SUBMITUSER=mwang87
TAGS=
LIBRARYQUALITY=3
SPECTRUMID=CCMSLIB00000426278
SCANS=1250
130.81 100.0 
END IONS

BEGIN IONS
PEPMASS=786.165
CHARGE=1+
MSLEVEL=2
SOURCE_INSTRUMENT=Positive-Quattro_QQQ:40eV
FILENAME=hmdb_intermediate.mgf
SEQ=*..*
IONMODE=Positive
ORGANISM=HMDB
NAME=HMDB:HMDB01248-1483 FAD M+H
PI=HMDB
DATACOLLECTOR=HMDB
SMILES=CC1=CC2=C(C=C1C)N(C[C@H](O)[C@H](O)[C@H](O)COP(O)(=O)OP(O)(=O)OC[C@H]1O[C@H]([C@H](O)[C@@H]1O)N1C=NC3=C1N=CN=C3N)C1=NC(=O)NC(=O)C1=N2
INCHI=InChI=1S/C27H33N9O15P2/c1-10-3-12-13(4-11(10)2)35(24-18(32-12)25(42)34-27(43)33-24)5-14(37)19(39)15(38)6-48-52(44,45)51-53(46,47)49-7-16-20(40)21(41)26(50-16)36-9-31-17-22(28)29-8-30-23(17)36/h3-4,8-9,14-16,19-21,26,37-41H,5-7H2,1-2H3,(H,44,45)(H,46,47)(H2,28,29,30)(H,34,42,43)/t14-,15+,16+,19-,20+,21+,26+/m0/s1
INCHIAUX=N/A
PUBMED=N/A
SUBMITUSER=mwang87
TAGS=
LIBRARYQUALITY=3
SPECTRUMID=CCMSLIB00000426279
SCANS=1251
135.0 100.0 
136.0 84.163 
439.0 80.013 
440.0 56.038 
END IONS

BEGIN IONS
PEPMASS=127.062
CHARGE=1+
MSLEVEL=2
SOURCE_INSTRUMENT=Positive-Quattro_QQQ:25eV
FILENAME=hmdb_intermediate.mgf
SEQ=*..*
IONMODE=Positive
ORGANISM=HMDB
NAME=HMDB:HMDB02128-2014 2,4-Diamino-6-hydroxypyrimidine M+H
PI=HMDB
DATACOLLECTOR=HMDB
SMILES=NC1=CC(=O)N=C(N)N1
INCHI=InChI=1S/C4H6N4O/c5-2-1-3(9)8-4(6)7-2/h1H,(H5,5,6,7,8,9)
INCHIAUX=N/A
PUBMED=N/A
SUBMITUSER=mwang87
TAGS=
LIBRARYQUALITY=3
SPECTRUMID=CCMSLIB00000426280
SCANS=1252
68.0 100.0 
END IONS

BEGIN IONS
PEPMASS=222.098
CHARGE=1+
MSLEVEL=2
SOURCE_INSTRUMENT=Positive-Quattro_QQQ:10eV
FILENAME=hmdb_intermediate.mgf
SEQ=*..*
IONMODE=Positive
ORGANISM=HMDB
NAME=HMDB:HMDB01129-1427 N-Acetylmannosamine M+H
PI=HMDB
DATACOLLECTOR=HMDB
SMILES=[H][C@@]1(O)O[C@H](CO)[C@@H](O)[C@H](O)[C@@H]1NC(C)=O
INCHI=InChI=1S/C8H15NO6/c1-3(11)9-5-7(13)6(12)4(2-10)15-8(5)14/h4-8,10,12-14H,2H2,1H3,(H,9,11)/t4-,5+,6-,7-,8-/m1/s1
INCHIAUX=N/A
PUBMED=N/A
SUBMITUSER=mwang87
TAGS=
LIBRARYQUALITY=3
SPECTRUMID=CCMSLIB00000426281
SCANS=1253
126.0 100.0 
END IONS

BEGIN IONS
PEPMASS=283.264
CHARGE=1+
MSLEVEL=2
SOURCE_INSTRUMENT=Negative-Quattro_QQQ:25eV
FILENAME=hmdb_intermediate.mgf
SEQ=*..*
IONMODE=Negative
ORGANISM=HMDB
NAME=HMDB:HMDB00827-1177 Stearic acid M-H
PI=HMDB
DATACOLLECTOR=HMDB
SMILES=CCCCCCCCCCCCCCCCCC(O)=O
INCHI=InChI=1S/C18H36O2/c1-2-3-4-5-6-7-8-9-10-11-12-13-14-15-16-17-18(19)20/h2-17H2,1H3,(H,19,20)
INCHIAUX=N/A
PUBMED=N/A
SUBMITUSER=mwang87
TAGS=
LIBRARYQUALITY=3
SPECTRUMID=CCMSLIB00000426282
SCANS=1254
283.243 100.0 
END IONS

BEGIN IONS
PEPMASS=183.066
CHARGE=1+
MSLEVEL=2
SOURCE_INSTRUMENT=Positive-Quattro_QQQ:10eV
FILENAME=hmdb_intermediate.mgf
SEQ=*..*
IONMODE=Positive
ORGANISM=HMDB
NAME=HMDB:HMDB00423-626 3,4-Dihydroxyhydrocinnamic acid M+H
PI=HMDB
DATACOLLECTOR=HMDB
SMILES=OC(=O)CCC1=CC=C(O)C(O)=C1
INCHI=InChI=1S/C9H10O4/c10-7-3-1-6(5-8(7)11)2-4-9(12)13/h1,3,5,10-11H,2,4H2,(H,12,13)
INCHIAUX=N/A
PUBMED=N/A
SUBMITUSER=mwang87
TAGS=
LIBRARYQUALITY=3
SPECTRUMID=CCMSLIB00000426283
SCANS=1255
141.0 100.0 
END IONS

BEGIN IONS
PEPMASS=187.097
CHARGE=1+
MSLEVEL=2
SOURCE_INSTRUMENT=Negative-Quattro_QQQ:25eV
FILENAME=hmdb_intermediate.mgf
SEQ=*..*
IONMODE=Negative
ORGANISM=HMDB
NAME=HMDB:HMDB00784-1120 Azelaic acid M-H
PI=HMDB
DATACOLLECTOR=HMDB
SMILES=OC(=O)CCCCCCCC(O)=O
INCHI=InChI=1S/C9H16O4/c10-8(11)6-4-2-1-3-5-7-9(12)13/h1-7H2,(H,10,11)(H,12,13)
INCHIAUX=N/A
PUBMED=N/A
SUBMITUSER=mwang87
TAGS=
LIBRARYQUALITY=3
SPECTRUMID=CCMSLIB00000426284
SCANS=1256
57.16 56.044 
97.023 100.0 
122.995 58.791 
124.986 56.593 
END IONS

BEGIN IONS
PEPMASS=343.124
CHARGE=1+
MSLEVEL=2
SOURCE_INSTRUMENT=Positive-Quattro_QQQ:10eV
FILENAME=hmdb_intermediate.mgf
SEQ=*..*
IONMODE=Positive
ORGANISM=HMDB
NAME=HMDB:HMDB00258-448 Sucrose M+H
PI=HMDB
DATACOLLECTOR=HMDB
SMILES=OC[C@H]1O[C@@](CO)(O[C@H]2O[C@H](CO)[C@@H](O)[C@H](O)[C@H]2O)[C@@H](O)[C@@H]1O
INCHI=InChI=1S/C12H22O11/c13-1-4-6(16)8(18)9(19)11(21-4)23-12(3-15)10(20)7(17)5(2-14)22-12/h4-11,13-20H,1-3H2/t4-,5-,6-,7-,8+,9-,10+,11-,12+/m1/s1
INCHIAUX=N/A
PUBMED=N/A
SUBMITUSER=mwang87
TAGS=
LIBRARYQUALITY=3
SPECTRUMID=CCMSLIB00000426285
SCANS=1257
162.967 100.0 
END IONS

BEGIN IONS
PEPMASS=131.13
CHARGE=1+
MSLEVEL=2
SOURCE_INSTRUMENT=Positive-Quattro_QQQ:25eV
FILENAME=hmdb_intermediate.mgf
SEQ=*..*
IONMODE=Positive
ORGANISM=HMDB
NAME=HMDB:HMDB01432-1578 Agmatine M+H
PI=HMDB
DATACOLLECTOR=HMDB
SMILES=NCCCCNC(N)=N
INCHI=InChI=1S/C5H14N4/c6-3-1-2-4-9-5(7)8/h1-4,6H2,(H4,7,8,9)
INCHIAUX=N/A
PUBMED=N/A
SUBMITUSER=mwang87
TAGS=
LIBRARYQUALITY=3
SPECTRUMID=CCMSLIB00000426286
SCANS=1258
72.0 100.0 
END IONS

BEGIN IONS
PEPMASS=147.029
CHARGE=1+
MSLEVEL=2
SOURCE_INSTRUMENT=Negative-Quattro_QQQ:25eV
FILENAME=hmdb_intermediate.mgf
SEQ=*..*
IONMODE=Negative
ORGANISM=HMDB
NAME=HMDB:HMDB00426-630 Citramalic acid M-H
PI=HMDB
DATACOLLECTOR=HMDB
SMILES=CC(O)(CC(O)=O)C(O)=O
INCHI=InChI=1S/C5H8O5/c1-5(10,4(8)9)2-3(6)7/h10H,2H2,1H3,(H,6,7)(H,8,9)
INCHIAUX=N/A
PUBMED=N/A
SUBMITUSER=mwang87
TAGS=
LIBRARYQUALITY=3
SPECTRUMID=CCMSLIB00000426287
SCANS=1259
41.637 72.989 
43.6 78.161 
57.46 70.402 
85.265 64.08 
87.245 100.0 
END IONS

BEGIN IONS
PEPMASS=243.098
CHARGE=1+
MSLEVEL=2
SOURCE_INSTRUMENT=Positive-Quattro_QQQ:25eV
FILENAME=hmdb_intermediate.mgf
SEQ=*..*
IONMODE=Positive
ORGANISM=HMDB
NAME=HMDB:HMDB00273-479 Thymidine M+H
PI=HMDB
DATACOLLECTOR=HMDB
SMILES=CC1=CN([C@H]2C[C@H](O)[C@@H](CO)O2)C(=O)NC1=O
INCHI=InChI=1S/C10H14N2O5/c1-5-3-12(10(16)11-9(5)15)8-2-6(14)7(4-13)17-8/h3,6-8,13-14H,2,4H2,1H3,(H,11,15,16)/t6-,7+,8+/m0/s1
INCHIAUX=N/A
PUBMED=N/A
SUBMITUSER=mwang87
TAGS=
LIBRARYQUALITY=3
SPECTRUMID=CCMSLIB00000426288
SCANS=1260
126.904 67.606 
127.919 100.0 
END IONS

BEGIN IONS
PEPMASS=411.399
CHARGE=1+
MSLEVEL=2
SOURCE_INSTRUMENT=Positive-Quattro_QQQ:40eV
FILENAME=hmdb_intermediate.mgf
SEQ=*..*
IONMODE=Positive
ORGANISM=HMDB
NAME=HMDB:HMDB00256-444 Squalene M+H
PI=HMDB
DATACOLLECTOR=HMDB
SMILES=CC(C)=CCC\C(C)=C/CC\C(C)=C\CC\C=C(/C)CC\C=C(/C)CCC=C(C)C
INCHI=InChI=1S/C30H50/c1-25(2)15-11-19-29(7)23-13-21-27(5)17-9-10-18-28(6)22-14-24-30(8)20-12-16-26(3)4/h15-18,23-24H,9-14,19-22H2,1-8H3/b27-17+,28-18+,29-23-,30-24+
INCHIAUX=N/A
PUBMED=N/A
SUBMITUSER=mwang87
TAGS=
LIBRARYQUALITY=3
SPECTRUMID=CCMSLIB00000426289
SCANS=1261
136.091 100.0 
END IONS

BEGIN IONS
PEPMASS=89.1079
CHARGE=1+
MSLEVEL=2
SOURCE_INSTRUMENT=Positive-Quattro_QQQ:10eV
FILENAME=hmdb_intermediate.mgf
SEQ=*..*
IONMODE=Positive
ORGANISM=HMDB
NAME=HMDB:HMDB60243-1568 Putrescine M+H
PI=HMDB
DATACOLLECTOR=HMDB
SMILES=NCCCCN
INCHI=InChI=1S/C4H12N2/c5-3-1-2-4-6/h1-6H2
INCHIAUX=N/A
PUBMED=N/A
SUBMITUSER=mwang87
TAGS=
LIBRARYQUALITY=3
SPECTRUMID=CCMSLIB00000426290
SCANS=1262
72.141 100.0 
END IONS

BEGIN IONS
PEPMASS=337.131
CHARGE=1+
MSLEVEL=2
SOURCE_INSTRUMENT=Positive-Quattro_QQQ:10eV
FILENAME=hmdb_intermediate.mgf
SEQ=*..*
IONMODE=Positive
ORGANISM=HMDB
NAME=HMDB:HMDB03409-2289 Berberine M+H
PI=HMDB
DATACOLLECTOR=HMDB
SMILES=COC1=C(OC)C2=C[N+]3=C(C=C2C=C1)C1=CC2=C(OCO2)C=C1CC3
INCHI=InChI=1S/C20H18NO4/c1-22-17-4-3-12-7-16-14-9-19-18(24-11-25-19)8-13(14)5-6-21(16)10-15(12)20(17)23-2/h3-4,7-10H,5-6,11H2,1-2H3/q+1
INCHIAUX=N/A
PUBMED=N/A
SUBMITUSER=mwang87
TAGS=
LIBRARYQUALITY=3
SPECTRUMID=CCMSLIB00000426291
SCANS=1263
336.95 100.0 
END IONS

BEGIN IONS
PEPMASS=181.061
CHARGE=1+
MSLEVEL=2
SOURCE_INSTRUMENT=Positive-Quattro_QQQ:40eV
FILENAME=hmdb_intermediate.mgf
SEQ=*..*
IONMODE=Positive
ORGANISM=HMDB
NAME=HMDB:HMDB03269-2226 Nicotinuric acid M+H
PI=HMDB
DATACOLLECTOR=HMDB
SMILES=OC(=O)CNC(=O)C1=CN=CC=C1
INCHI=InChI=1S/C8H8N2O3/c11-7(12)5-10-8(13)6-2-1-3-9-4-6/h1-4H,5H2,(H,10,13)(H,11,12)
INCHIAUX=N/A
PUBMED=N/A
SUBMITUSER=mwang87
TAGS=
LIBRARYQUALITY=3
SPECTRUMID=CCMSLIB00000426292
SCANS=1264
79.0 100.0 
END IONS

BEGIN IONS
PEPMASS=337.131
CHARGE=1+
MSLEVEL=2
SOURCE_INSTRUMENT=Positive-Quattro_QQQ:40eV
FILENAME=hmdb_intermediate.mgf
SEQ=*..*
IONMODE=Positive
ORGANISM=HMDB
NAME=HMDB:HMDB03409-2291 Berberine M+H
PI=HMDB
DATACOLLECTOR=HMDB
SMILES=COC1=C(OC)C2=C[N+]3=C(C=C2C=C1)C1=CC2=C(OCO2)C=C1CC3
INCHI=InChI=1S/C20H18NO4/c1-22-17-4-3-12-7-16-14-9-19-18(24-11-25-19)8-13(14)5-6-21(16)10-15(12)20(17)23-2/h3-4,7-10H,5-6,11H2,1-2H3/q+1
INCHIAUX=N/A
PUBMED=N/A
SUBMITUSER=mwang87
TAGS=
LIBRARYQUALITY=3
SPECTRUMID=CCMSLIB00000426293
SCANS=1265
279.18 70.601 
292.88 76.205 
318.93 68.304 
320.93 100.0 
END IONS

BEGIN IONS
PEPMASS=250.025
CHARGE=1+
MSLEVEL=2
SOURCE_INSTRUMENT=Positive-Quattro_QQQ:25eV
FILENAME=hmdb_intermediate.mgf
SEQ=*..*
IONMODE=Positive
ORGANISM=HMDB
NAME=HMDB:HMDB01915-1829 Alendronic acid M+H
PI=HMDB
DATACOLLECTOR=HMDB
SMILES=NCCCC(O)(P(O)(O)=O)P(O)(O)=O
INCHI=InChI=1S/C4H13NO7P2/c5-3-1-2-4(6,13(7,8)9)14(10,11)12/h6H,1-3,5H2,(H2,7,8,9)(H2,10,11,12)
INCHIAUX=N/A
PUBMED=N/A
SUBMITUSER=mwang87
TAGS=
LIBRARYQUALITY=3
SPECTRUMID=CCMSLIB00000426294
SCANS=1266
134.863 100.0 
END IONS

BEGIN IONS
PEPMASS=181.05
CHARGE=1+
MSLEVEL=2
SOURCE_INSTRUMENT=Positive-Quattro_QQQ:40eV
FILENAME=hmdb_intermediate.mgf
SEQ=*..*
IONMODE=Positive
ORGANISM=HMDB
NAME=HMDB:HMDB01879-1779 Aspirin M+H
PI=HMDB
DATACOLLECTOR=HMDB
SMILES=CC(=O)OC1=CC=CC=C1C(O)=O
INCHI=InChI=1S/C9H8O4/c1-6(10)13-8-5-3-2-4-7(8)9(11)12/h2-5H,1H3,(H,11,12)
INCHIAUX=N/A
PUBMED=N/A
SUBMITUSER=mwang87
TAGS=
LIBRARYQUALITY=3
SPECTRUMID=CCMSLIB00000426295
SCANS=1267
85.0 100.0 
END IONS

BEGIN IONS
PEPMASS=117.019
CHARGE=1+
MSLEVEL=2
SOURCE_INSTRUMENT=Negative-Quattro_QQQ:10eV
FILENAME=hmdb_intermediate.mgf
SEQ=*..*
IONMODE=Negative
ORGANISM=HMDB
NAME=HMDB:HMDB00254-439 Succinic acid M-H
PI=HMDB
DATACOLLECTOR=HMDB
SMILES=OC(=O)CCC(O)=O
INCHI=InChI=1S/C4H6O4/c5-3(6)1-2-4(7)8/h1-2H2,(H,5,6)(H,7,8)
INCHIAUX=N/A
PUBMED=N/A
SUBMITUSER=mwang87
TAGS=
LIBRARYQUALITY=3
SPECTRUMID=CCMSLIB00000426296
SCANS=1268
73.114 100.0 
END IONS

BEGIN IONS
PEPMASS=145.086
CHARGE=1+
MSLEVEL=2
SOURCE_INSTRUMENT=Positive-Quattro_QQQ:10eV
FILENAME=hmdb_intermediate.mgf
SEQ=*..*
IONMODE=Positive
ORGANISM=HMDB
NAME=HMDB:HMDB01988-1929 4-Hydroxycyclohexylcarboxylic acid M+H
PI=HMDB
DATACOLLECTOR=HMDB
SMILES=OC1CCC(CC1)C(O)=O
INCHI=InChI=1S/C7H12O3/c8-6-3-1-5(2-4-6)7(9)10/h5-6,8H,1-4H2,(H,9,10)
INCHIAUX=N/A
PUBMED=N/A
SUBMITUSER=mwang87
TAGS=
LIBRARYQUALITY=3
SPECTRUMID=CCMSLIB00000426297
SCANS=1269
81.0 81.916 
109.0 77.436 
127.0 100.0 
END IONS

BEGIN IONS
PEPMASS=139.051
CHARGE=1+
MSLEVEL=2
SOURCE_INSTRUMENT=Positive-Quattro_QQQ:10eV
FILENAME=hmdb_intermediate.mgf
SEQ=*..*
IONMODE=Positive
ORGANISM=HMDB
NAME=HMDB:HMDB00301-513 Urocanic acid M+H
PI=HMDB
DATACOLLECTOR=HMDB
SMILES=OC(=O)\C=C\C1=CNC=N1
INCHI=InChI=1S/C6H6N2O2/c9-6(10)2-1-5-3-7-4-8-5/h1-4H,(H,7,8)(H,9,10)/b2-1+
INCHIAUX=N/A
PUBMED=N/A
SUBMITUSER=mwang87
TAGS=
LIBRARYQUALITY=3
SPECTRUMID=CCMSLIB00000426298
SCANS=1270
120.924 100.0 
END IONS

BEGIN IONS
PEPMASS=165.055
CHARGE=1+
MSLEVEL=2
SOURCE_INSTRUMENT=Positive-Quattro_QQQ:10eV
FILENAME=hmdb_intermediate.mgf
SEQ=*..*
IONMODE=Positive
ORGANISM=HMDB
NAME=HMDB:HMDB31629-328 Phenylpyruvic acid M+H
PI=HMDB
DATACOLLECTOR=HMDB
SMILES=OC(=O)C(=O)CC1=CC=CC=C1
INCHI=InChI=1S/C9H8O3/c10-8(9(11)12)6-7-4-2-1-3-5-7/h1-5H,6H2,(H,11,12)
INCHIAUX=N/A
PUBMED=N/A
SUBMITUSER=mwang87
TAGS=
LIBRARYQUALITY=3
SPECTRUMID=CCMSLIB00000426299
SCANS=1271
105.0 70.424 
165.0 100.0 
END IONS

BEGIN IONS
PEPMASS=104.071
CHARGE=1+
MSLEVEL=2
SOURCE_INSTRUMENT=Positive-Quattro_QQQ:40eV
FILENAME=hmdb_intermediate.mgf
SEQ=*..*
IONMODE=Positive
ORGANISM=HMDB
NAME=HMDB:HMDB00112-164 Gamma-Aminobutyric acid M+H
PI=HMDB
DATACOLLECTOR=HMDB
SMILES=NCCCC(O)=O
INCHI=InChI=1S/C4H9NO2/c5-3-1-2-4(6)7/h1-3,5H2,(H,6,7)
INCHIAUX=N/A
PUBMED=N/A
SUBMITUSER=mwang87
TAGS=
LIBRARYQUALITY=3
SPECTRUMID=CCMSLIB00000426300
SCANS=1272
41.294 53.2 
45.195 100.0 
END IONS

BEGIN IONS
PEPMASS=148.076
CHARGE=1+
MSLEVEL=2
SOURCE_INSTRUMENT=Positive-Quattro_QQQ:25eV
FILENAME=hmdb_intermediate.mgf
SEQ=*..*
IONMODE=Positive
ORGANISM=HMDB
NAME=HMDB:HMDB05785-2443 Indole-3-carbinol M+H
PI=HMDB
DATACOLLECTOR=HMDB
SMILES=OCC1=CNC2=CC=CC=C12
INCHI=InChI=1S/C9H9NO/c11-6-7-5-10-9-4-2-1-3-8(7)9/h1-5,10-11H,6H2
INCHIAUX=N/A
PUBMED=N/A
SUBMITUSER=mwang87
TAGS=
LIBRARYQUALITY=3
SPECTRUMID=CCMSLIB00000426301
SCANS=1273
90.0 100.0 
END IONS

BEGIN IONS
PEPMASS=80.05
CHARGE=1+
MSLEVEL=2
SOURCE_INSTRUMENT=Positive-Quattro_QQQ:40eV
FILENAME=hmdb_intermediate.mgf
SEQ=*..*
IONMODE=Positive
ORGANISM=HMDB
NAME=HMDB:HMDB00926-1317 Pyridine M+H
PI=HMDB
DATACOLLECTOR=HMDB
SMILES=C1=CC=NC=C1
INCHI=InChI=1S/C5H5N/c1-2-4-6-5-3-1/h1-5H
INCHIAUX=N/A
PUBMED=N/A
SUBMITUSER=mwang87
TAGS=
LIBRARYQUALITY=3
SPECTRUMID=CCMSLIB00000426302
SCANS=1274
53.149 66.484 
79.843 100.0 
END IONS

BEGIN IONS
PEPMASS=428.037
CHARGE=1+
MSLEVEL=2
SOURCE_INSTRUMENT=Positive-Quattro_QQQ:25eV
FILENAME=hmdb_intermediate.mgf
SEQ=*..*
IONMODE=Positive
ORGANISM=HMDB
NAME=HMDB:HMDB01341-1523 ADP M+H
PI=HMDB
DATACOLLECTOR=HMDB
SMILES=NC1=NC=NC2=C1N=CN2[C@@H]1O[C@H](COP(O)(=O)OP(O)(O)=O)[C@@H](O)[C@H]1O
INCHI=InChI=1S/C10H15N5O10P2/c11-8-5-9(13-2-12-8)15(3-14-5)10-7(17)6(16)4(24-10)1-23-27(21,22)25-26(18,19)20/h2-4,6-7,10,16-17H,1H2,(H,21,22)(H2,11,12,13)(H2,18,19,20)/t4-,6-,7-,10-/m1/s1
INCHIAUX=N/A
PUBMED=N/A
SUBMITUSER=mwang87
TAGS=
LIBRARYQUALITY=3
SPECTRUMID=CCMSLIB00000426303
SCANS=1275
135.0 100.0 
END IONS

BEGIN IONS
PEPMASS=167.034
CHARGE=1+
MSLEVEL=2
SOURCE_INSTRUMENT=Positive-Quattro_QQQ:40eV
FILENAME=hmdb_intermediate.mgf
SEQ=*..*
IONMODE=Positive
ORGANISM=HMDB
NAME=HMDB:HMDB02107-2006 Phthalic acid M+H
PI=HMDB
DATACOLLECTOR=HMDB
SMILES=OC(=O)C1=CC=CC=C1C(O)=O
INCHI=InChI=1S/C8H6O4/c9-7(10)5-3-1-2-4-6(5)8(11)12/h1-4H,(H,9,10)(H,11,12)
INCHIAUX=N/A
PUBMED=N/A
SUBMITUSER=mwang87
TAGS=
LIBRARYQUALITY=3
SPECTRUMID=CCMSLIB00000426304
SCANS=1276
65.0 100.0 
END IONS

BEGIN IONS
PEPMASS=406.234
CHARGE=1+
MSLEVEL=2
SOURCE_INSTRUMENT=Positive-Quattro_QQQ:10eV
FILENAME=hmdb_intermediate.mgf
SEQ=*..*
IONMODE=Positive
ORGANISM=HMDB
NAME=HMDB:HMDB01938-1890 Lisinopril M+H
PI=HMDB
DATACOLLECTOR=HMDB
SMILES=NCCCC[C@H](N[C@@H](CCC1=CC=CC=C1)C(O)=O)C(=O)N1CCC[C@H]1C(O)=O
INCHI=InChI=1S/C21H31N3O5/c22-13-5-4-9-16(19(25)24-14-6-10-18(24)21(28)29)23-17(20(26)27)12-11-15-7-2-1-3-8-15/h1-3,7-8,16-18,23H,4-6,9-14,22H2,(H,26,27)(H,28,29)/t16-,17-,18-/m0/s1
INCHIAUX=N/A
PUBMED=N/A
SUBMITUSER=mwang87
TAGS=
LIBRARYQUALITY=3
SPECTRUMID=CCMSLIB00000426305
SCANS=1277
107.961 69.524 
208.385 100.0 
239.741 55.238 
285.827 75.238 
288.747 55.238 
292.566 50.476 
313.768 56.19 
365.43 75.238 
383.269 62.857 
406.748 74.286 
END IONS

BEGIN IONS
PEPMASS=162.055
CHARGE=1+
MSLEVEL=2
SOURCE_INSTRUMENT=Positive-Quattro_QQQ:40eV
FILENAME=hmdb_intermediate.mgf
SEQ=*..*
IONMODE=Positive
ORGANISM=HMDB
NAME=HMDB:HMDB03320-2244 Indole-3-carboxylic acid M+H
PI=HMDB
DATACOLLECTOR=HMDB
SMILES=OC(=O)C1=CNC2=CC=CC=C12
INCHI=InChI=1S/C9H7NO2/c11-9(12)7-5-10-8-4-2-1-3-6(7)8/h1-5,10H,(H,11,12)
INCHIAUX=N/A
PUBMED=N/A
SUBMITUSER=mwang87
TAGS=
LIBRARYQUALITY=3
SPECTRUMID=CCMSLIB00000426306
SCANS=1278
64.0 51.151 
88.0 73.092 
89.0 100.0 
90.0 64.85 
91.0 59.168 
115.0 54.802 
116.0 69.184 
END IONS

BEGIN IONS
PEPMASS=206.082
CHARGE=1+
MSLEVEL=2
SOURCE_INSTRUMENT=Positive-Quattro_QQQ:25eV
FILENAME=hmdb_intermediate.mgf
SEQ=*..*
IONMODE=Positive
ORGANISM=HMDB
NAME=HMDB:HMDB00671-925 Indolelactic acid M+H
PI=HMDB
DATACOLLECTOR=HMDB
SMILES=OC(CC1=CNC2=C1C=CC=C2)C(O)=O
INCHI=InChI=1S/C11H11NO3/c13-10(11(14)15)5-7-6-12-9-4-2-1-3-8(7)9/h1-4,6,10,12-13H,5H2,(H,14,15)
INCHIAUX=N/A
PUBMED=N/A
SUBMITUSER=mwang87
TAGS=
LIBRARYQUALITY=3
SPECTRUMID=CCMSLIB00000426307
SCANS=1279
117.893 100.0 
130.058 83.984 
END IONS

BEGIN IONS
PEPMASS=170.045
CHARGE=1+
MSLEVEL=2
SOURCE_INSTRUMENT=Positive-Quattro_QQQ:25eV
FILENAME=hmdb_intermediate.mgf
SEQ=*..*
IONMODE=Positive
ORGANISM=HMDB
NAME=HMDB:HMDB00439-639 2-Furoylglycine M+H
PI=HMDB
DATACOLLECTOR=HMDB
SMILES=OC(=O)CNC(=O)C1=CC=CO1
INCHI=InChI=1S/C7H7NO4/c9-6(10)4-8-7(11)5-2-1-3-12-5/h1-3H,4H2,(H,8,11)(H,9,10)
INCHIAUX=N/A
PUBMED=N/A
SUBMITUSER=mwang87
TAGS=
LIBRARYQUALITY=3
SPECTRUMID=CCMSLIB00000426308
SCANS=1280
95.031 100.0 
END IONS

BEGIN IONS
PEPMASS=163.061
CHARGE=1+
MSLEVEL=2
SOURCE_INSTRUMENT=Positive-Quattro_QQQ:10eV
FILENAME=hmdb_intermediate.mgf
SEQ=*..*
IONMODE=Positive
ORGANISM=HMDB
NAME=HMDB:HMDB00640-876 Levoglucosan M+H
PI=HMDB
DATACOLLECTOR=HMDB
SMILES=[H][C@@]12OC[C@@H](O1)[C@@H](O)[C@H](O)[C@H]2O
INCHI=InChI=1S/C6H10O5/c7-3-2-1-10-6(11-2)5(9)4(3)8/h2-9H,1H2/t2-,3-,4+,5-,6-/m1/s1
INCHIAUX=N/A
PUBMED=N/A
SUBMITUSER=mwang87
TAGS=
LIBRARYQUALITY=3
SPECTRUMID=CCMSLIB00000426309
SCANS=1281
85.085 100.0 
END IONS

BEGIN IONS
PEPMASS=406.234
CHARGE=1+
MSLEVEL=2
SOURCE_INSTRUMENT=Positive-Quattro_QQQ:40eV
FILENAME=hmdb_intermediate.mgf
SEQ=*..*
IONMODE=Positive
ORGANISM=HMDB
NAME=HMDB:HMDB01938-1892 Lisinopril M+H
PI=HMDB
DATACOLLECTOR=HMDB
SMILES=NCCCC[C@H](N[C@@H](CCC1=CC=CC=C1)C(O)=O)C(=O)N1CCC[C@H]1C(O)=O
INCHI=InChI=1S/C21H31N3O5/c22-13-5-4-9-16(19(25)24-14-6-10-18(24)21(28)29)23-17(20(26)27)12-11-15-7-2-1-3-8-15/h1-3,7-8,16-18,23H,4-6,9-14,22H2,(H,26,27)(H,28,29)/t16-,17-,18-/m0/s1
INCHIAUX=N/A
PUBMED=N/A
SUBMITUSER=mwang87
TAGS=
LIBRARYQUALITY=3
SPECTRUMID=CCMSLIB00000426310
SCANS=1282
83.968 100.0 
84.655 50.0 
END IONS

BEGIN IONS
PEPMASS=310.114
CHARGE=1+
MSLEVEL=2
SOURCE_INSTRUMENT=Positive-Quattro_QQQ:25eV
FILENAME=hmdb_intermediate.mgf
SEQ=*..*
IONMODE=Positive
ORGANISM=HMDB
NAME=HMDB:HMDB00230-386 N-Acetylneuraminic acid M+H
PI=HMDB
DATACOLLECTOR=HMDB
SMILES=CC(=O)N[C@@H]1[C@@H](O)C[C@](O)(O[C@H]1[C@H](O)[C@H](O)CO)C(O)=O
INCHI=InChI=1S/C11H19NO9/c1-4(14)12-7-5(15)2-11(20,10(18)19)21-9(7)8(17)6(16)3-13/h5-9,13,15-17,20H,2-3H2,1H3,(H,12,14)(H,18,19)/t5-,6+,7+,8+,9+,11-/m0/s1
INCHIAUX=N/A
PUBMED=N/A
SUBMITUSER=mwang87
TAGS=
LIBRARYQUALITY=3
SPECTRUMID=CCMSLIB00000426311
SCANS=1283
120.951 100.0 
END IONS

BEGIN IONS
PEPMASS=367.358
CHARGE=1+
MSLEVEL=2
SOURCE_INSTRUMENT=Positive-Quattro_QQQ:10eV
FILENAME=hmdb_intermediate.mgf
SEQ=*..*
IONMODE=Positive
ORGANISM=HMDB
NAME=HMDB:HMDB02368-2086 Nervonic acid M+H
PI=HMDB
DATACOLLECTOR=HMDB
SMILES=CCCCCCCC\C=C/CCCCCCCCCCCCCC(O)=O
INCHI=InChI=1S/C24H46O2/c1-2-3-4-5-6-7-8-9-10-11-12-13-14-15-16-17-18-19-20-21-22-23-24(25)26/h9-10H,2-8,11-23H2,1H3,(H,25,26)/b10-9-
INCHIAUX=N/A
PUBMED=N/A
SUBMITUSER=mwang87
TAGS=
LIBRARYQUALITY=3
SPECTRUMID=CCMSLIB00000426312
SCANS=1284
366.0 100.0 
367.0 70.453 
END IONS

BEGIN IONS
PEPMASS=334.905
CHARGE=1+
MSLEVEL=2
SOURCE_INSTRUMENT=Negative-Quattro_QQQ:10eV
FILENAME=hmdb_intermediate.mgf
SEQ=*..*
IONMODE=Negative
ORGANISM=HMDB
NAME=HMDB:HMDB04122-2367 Selenocystine M-H
PI=HMDB
DATACOLLECTOR=HMDB
SMILES=NC(C[Se][Se]CC(N)C(O)=O)C(O)=O
INCHI=InChI=1S/C6H12N2O4Se2/c7-3(5(9)10)1-13-14-2-4(8)6(11)12/h3-4H,1-2,7-8H2,(H,9,10)(H,11,12)
INCHIAUX=N/A
PUBMED=N/A
SUBMITUSER=mwang87
TAGS=
LIBRARYQUALITY=3
SPECTRUMID=CCMSLIB00000426313
SCANS=1285
247.0 100.0 
END IONS

BEGIN IONS
PEPMASS=109.029
CHARGE=1+
MSLEVEL=2
SOURCE_INSTRUMENT=Positive-Quattro_QQQ:40eV
FILENAME=hmdb_intermediate.mgf
SEQ=*..*
IONMODE=Positive
ORGANISM=HMDB
NAME=HMDB:HMDB03364-2270 Quinone M+H
PI=HMDB
DATACOLLECTOR=HMDB
SMILES=O=C1C=CC(=O)C=C1
INCHI=InChI=1S/C6H4O2/c7-5-1-2-6(8)4-3-5/h1-4H
INCHIAUX=N/A
PUBMED=N/A
SUBMITUSER=mwang87
TAGS=
LIBRARYQUALITY=3
SPECTRUMID=CCMSLIB00000426314
SCANS=1286
39.0 68.608 
40.0 50.884 
64.0 69.341 
65.0 100.0 
66.0 52.859 
END IONS

BEGIN IONS
PEPMASS=106.05
CHARGE=1+
MSLEVEL=2
SOURCE_INSTRUMENT=Positive-Quattro_QQQ:10eV
FILENAME=hmdb_intermediate.mgf
SEQ=*..*
IONMODE=Positive
ORGANISM=HMDB
NAME=HMDB:HMDB00187-295 L-Serine M+H
PI=HMDB
DATACOLLECTOR=HMDB
SMILES=N[C@@H](CO)C(O)=O
INCHI=InChI=1S/C3H7NO3/c4-2(1-5)3(6)7/h2,5H,1,4H2,(H,6,7)/t2-/m0/s1
INCHIAUX=N/A
PUBMED=N/A
SUBMITUSER=mwang87
TAGS=
LIBRARYQUALITY=3
SPECTRUMID=CCMSLIB00000426315
SCANS=1287
60.154 100.0 
END IONS

BEGIN IONS
PEPMASS=147.029
CHARGE=1+
MSLEVEL=2
SOURCE_INSTRUMENT=Negative-Quattro_QQQ:10eV
FILENAME=hmdb_intermediate.mgf
SEQ=*..*
IONMODE=Negative
ORGANISM=HMDB
NAME=HMDB:HMDB00426-629 Citramalic acid M-H
PI=HMDB
DATACOLLECTOR=HMDB
SMILES=CC(O)(CC(O)=O)C(O)=O
INCHI=InChI=1S/C5H8O5/c1-5(10,4(8)9)2-3(6)7/h10H,2H2,1H3,(H,6,7)(H,8,9)
INCHIAUX=N/A
PUBMED=N/A
SUBMITUSER=mwang87
TAGS=
LIBRARYQUALITY=3
SPECTRUMID=CCMSLIB00000426316
SCANS=1288
87.261 65.278 
147.093 100.0 
END IONS

BEGIN IONS
PEPMASS=227.128
CHARGE=1+
MSLEVEL=2
SOURCE_INSTRUMENT=Negative-Quattro_QQQ:10eV
FILENAME=hmdb_intermediate.mgf
SEQ=*..*
IONMODE=Negative
ORGANISM=HMDB
NAME=HMDB:HMDB00933-1327 Traumatic acid M-H
PI=HMDB
DATACOLLECTOR=HMDB
SMILES=OC(=O)CCCCCCCC\C=C\C(O)=O
INCHI=InChI=1S/C12H20O4/c13-11(14)9-7-5-3-1-2-4-6-8-10-12(15)16/h7,9H,1-6,8,10H2,(H,13,14)(H,15,16)/b9-7+
INCHIAUX=N/A
PUBMED=N/A
SUBMITUSER=mwang87
TAGS=
LIBRARYQUALITY=3
SPECTRUMID=CCMSLIB00000426317
SCANS=1289
286.0 89.9 
287.0 100.0 
END IONS

BEGIN IONS
PEPMASS=181.073
CHARGE=1+
MSLEVEL=2
SOURCE_INSTRUMENT=Positive-Quattro_QQQ:10eV
FILENAME=hmdb_intermediate.mgf
SEQ=*..*
IONMODE=Positive
ORGANISM=HMDB
NAME=HMDB:HMDB01860-1735 Paraxanthine M+H
PI=HMDB
DATACOLLECTOR=HMDB
SMILES=CN1C=NC2=C1C(=O)N(C)C(=O)N2
INCHI=InChI=1S/C7H8N4O2/c1-10-3-8-5-4(10)6(12)11(2)7(13)9-5/h3H,1-2H3,(H,9,13)
INCHIAUX=N/A
PUBMED=N/A
SUBMITUSER=mwang87
TAGS=
LIBRARYQUALITY=3
SPECTRUMID=CCMSLIB00000426318
SCANS=1290
180.468 62.602 
180.966 100.0 
181.589 65.556 
END IONS

BEGIN IONS
PEPMASS=158.082
CHARGE=1+
MSLEVEL=2
SOURCE_INSTRUMENT=Positive-Quattro_QQQ:40eV
FILENAME=hmdb_intermediate.mgf
SEQ=*..*
IONMODE=Positive
ORGANISM=HMDB
NAME=HMDB:HMDB00459-670 3-Methylcrotonylglycine M+H
PI=HMDB
DATACOLLECTOR=HMDB
SMILES=CC(C)=CC(=O)NCC(O)=O
INCHI=InChI=1S/C7H11NO3/c1-5(2)3-6(9)8-4-7(10)11/h3H,4H2,1-2H3,(H,8,9)(H,10,11)
INCHIAUX=N/A
PUBMED=N/A
SUBMITUSER=mwang87
TAGS=
LIBRARYQUALITY=3
SPECTRUMID=CCMSLIB00000426319
SCANS=1291
55.562 100.0 
83.336 51.62 
END IONS

BEGIN IONS
PEPMASS=649.592
CHARGE=1+
MSLEVEL=2
SOURCE_INSTRUMENT=Positive-Quattro_QQQ:40eV
FILENAME=hmdb_intermediate.mgf
SEQ=*..*
IONMODE=Positive
ORGANISM=HMDB
NAME=HMDB:HMDB00610-830 CE(18:2(9Z,12Z)) M+H
PI=HMDB
DATACOLLECTOR=HMDB
SMILES=CCCCC\C=C/C\C=C/CCCCCCCC(=O)O[C@H]1CC[C@@]2(C)C(=CC[C@@]3([H])[C@]4([H])CC[C@]([H])([C@H](C)CCCC(C)C)[C@@]4(C)CC[C@]23[H])C1
INCHI=InChI=1S/C45H76O2/c1-7-8-9-10-11-12-13-14-15-16-17-18-19-20-21-25-43(46)47-38-30-32-44(5)37(34-38)26-27-39-41-29-28-40(36(4)24-22-23-35(2)3)45(41,6)33-31-42(39)44/h11-12,14-15,26,35-36,38-42H,7-10,13,16-25,27-34H2,1-6H3/b12-11-,15-14-/t36-,38+,39+,40-,41+,42+,44+,45-/m1/s1
INCHIAUX=N/A
PUBMED=N/A
SUBMITUSER=mwang87
TAGS=
LIBRARYQUALITY=3
SPECTRUMID=CCMSLIB00000426320
SCANS=1292
123.0 75.624 
249.0 73.839 
267.0 89.298 
434.0 70.568 
649.0 100.0 
650.0 78.311 
END IONS

BEGIN IONS
PEPMASS=201.185
CHARGE=1+
MSLEVEL=2
SOURCE_INSTRUMENT=Positive-Quattro_QQQ:25eV
FILENAME=hmdb_intermediate.mgf
SEQ=*..*
IONMODE=Positive
ORGANISM=HMDB
NAME=HMDB:HMDB00638-871 Dodecanoic acid M+H
PI=HMDB
DATACOLLECTOR=HMDB
SMILES=CCCCCCCCCCCC(O)=O
INCHI=InChI=1S/C12H24O2/c1-2-3-4-5-6-7-8-9-10-11-12(13)14/h2-11H2,1H3,(H,13,14)
INCHIAUX=N/A
PUBMED=N/A
SUBMITUSER=mwang87
TAGS=
LIBRARYQUALITY=3
SPECTRUMID=CCMSLIB00000426321
SCANS=1293
41.0 56.221 
43.0 100.0 
44.0 63.771 
55.0 96.263 
56.0 50.594 
57.0 80.004 
58.0 58.662 
69.0 63.136 
83.0 51.922 
129.0 52.292 
END IONS

BEGIN IONS
PEPMASS=159.052
CHARGE=1+
MSLEVEL=2
SOURCE_INSTRUMENT=Positive-Quattro_QQQ:25eV
FILENAME=hmdb_intermediate.mgf
SEQ=*..*
IONMODE=Positive
ORGANISM=HMDB
NAME=HMDB:HMDB00462-672 Allantoin M+H
PI=HMDB
DATACOLLECTOR=HMDB
SMILES=NC(=O)NC1NC(=O)NC1=O
INCHI=InChI=1S/C4H6N4O3/c5-3(10)6-1-2(9)8-4(11)7-1/h1H,(H3,5,6,10)(H2,7,8,9,11)
INCHIAUX=N/A
PUBMED=N/A
SUBMITUSER=mwang87
TAGS=
LIBRARYQUALITY=3
SPECTRUMID=CCMSLIB00000426322
SCANS=1294
61.149 100.0 
98.958 64.497 
END IONS

BEGIN IONS
PEPMASS=118.062
CHARGE=1+
MSLEVEL=2
SOURCE_INSTRUMENT=Positive-Quattro_QQQ:10eV
FILENAME=hmdb_intermediate.mgf
SEQ=*..*
IONMODE=Positive
ORGANISM=HMDB
NAME=HMDB:HMDB00128-194 Guanidoacetic acid M+H
PI=HMDB
DATACOLLECTOR=HMDB
SMILES=NC(=N)NCC(O)=O
INCHI=InChI=1S/C3H7N3O2/c4-3(5)6-1-2(7)8/h1H2,(H,7,8)(H4,4,5,6)
INCHIAUX=N/A
PUBMED=N/A
SUBMITUSER=mwang87
TAGS=
LIBRARYQUALITY=3
SPECTRUMID=CCMSLIB00000426323
SCANS=1295
76.105 66.379 
118.002 100.0 
END IONS

BEGIN IONS
PEPMASS=305.098
CHARGE=1+
MSLEVEL=2
SOURCE_INSTRUMENT=Positive-Quattro_QQQ:10eV
FILENAME=hmdb_intermediate.mgf
SEQ=*..*
IONMODE=Positive
ORGANISM=HMDB
NAME=HMDB:HMDB01067-1412 N-Acetylaspartylglutamic acid M+H
PI=HMDB
DATACOLLECTOR=HMDB
SMILES=CC(=O)NC(CC(O)=O)C(=O)NC(CCC(O)=O)C(O)=O
INCHI=InChI=1S/C11H16N2O8/c1-5(14)12-7(4-9(17)18)10(19)13-6(11(20)21)2-3-8(15)16/h6-7H,2-4H2,1H3,(H,12,14)(H,13,19)(H,15,16)(H,17,18)(H,20,21)
INCHIAUX=N/A
PUBMED=N/A
SUBMITUSER=mwang87
TAGS=
LIBRARYQUALITY=3
SPECTRUMID=CCMSLIB00000426324
SCANS=1296
148.0 100.0 
END IONS

BEGIN IONS
PEPMASS=347.222
CHARGE=1+
MSLEVEL=2
SOURCE_INSTRUMENT=Positive-Quattro_QQQ:10eV
FILENAME=hmdb_intermediate.mgf
SEQ=*..*
IONMODE=Positive
ORGANISM=HMDB
NAME=HMDB:HMDB01547-1646 Corticosterone M+H
PI=HMDB
DATACOLLECTOR=HMDB
SMILES=[H][C@@]12CC[C@H](C(=O)CO)[C@@]1(C)C[C@H](O)[C@@]1([H])[C@@]2([H])CCC2=CC(=O)CC[C@]12C
INCHI=InChI=1S/C21H30O4/c1-20-8-7-13(23)9-12(20)3-4-14-15-5-6-16(18(25)11-22)21(15,2)10-17(24)19(14)20/h9,14-17,19,22,24H,3-8,10-11H2,1-2H3/t14-,15-,16+,17-,19+,20-,21-/m0/s1
INCHIAUX=N/A
PUBMED=N/A
SUBMITUSER=mwang87
TAGS=
LIBRARYQUALITY=3
SPECTRUMID=CCMSLIB00000426325
SCANS=1297
347.3 100.0 
END IONS

BEGIN IONS
PEPMASS=768.123
CHARGE=1+
MSLEVEL=2
SOURCE_INSTRUMENT=Positive-Quattro_QQQ:10eV
FILENAME=hmdb_intermediate.mgf
SEQ=*..*
IONMODE=Positive
ORGANISM=HMDB
NAME=HMDB:HMDB01423-1571 Coenzyme A M+H
PI=HMDB
DATACOLLECTOR=HMDB
SMILES=CC(C)(COP(O)(=O)OP(O)(=O)OC[C@H]1O[C@H]([C@H](O)[C@@H]1OP(O)(O)=O)N1C=NC2=C1N=CN=C2N)C(O)C(=O)NCCC(=O)NCCS
INCHI=InChI=1S/C21H36N7O16P3S/c1-21(2,16(31)19(32)24-4-3-12(29)23-5-6-48)8-41-47(38,39)44-46(36,37)40-7-11-15(43-45(33,34)35)14(30)20(42-11)28-10-27-13-17(22)25-9-26-18(13)28/h9-11,14-16,20,30-31,48H,3-8H2,1-2H3,(H,23,29)(H,24,32)(H,36,37)(H,38,39)(H2,22,25,26)(H2,33,34,35)/t11-,14-,15-,16?,20-/m1/s1
INCHIAUX=N/A
PUBMED=N/A
SUBMITUSER=mwang87
TAGS=
LIBRARYQUALITY=3
SPECTRUMID=CCMSLIB00000426326
SCANS=1298
768.0 100.0 
END IONS

BEGIN IONS
PEPMASS=76.0762
CHARGE=1+
MSLEVEL=2
SOURCE_INSTRUMENT=Positive-Quattro_QQQ:40eV
FILENAME=hmdb_intermediate.mgf
SEQ=*..*
IONMODE=Positive
ORGANISM=HMDB
NAME=HMDB:HMDB00925-1314 Trimethylamine N-oxide M+H
PI=HMDB
DATACOLLECTOR=HMDB
SMILES=C[N+](C)(C)[O-]
INCHI=InChI=1S/C3H9NO/c1-4(2,3)5/h1-3H3
INCHIAUX=N/A
PUBMED=N/A
SUBMITUSER=mwang87
TAGS=
LIBRARYQUALITY=3
SPECTRUMID=CCMSLIB00000426327
SCANS=1299
42.288 91.818 
43.404 56.591 
58.114 100.0 
60.089 54.318 
END IONS

BEGIN IONS
PEPMASS=163.04
CHARGE=1+
MSLEVEL=2
SOURCE_INSTRUMENT=Negative-Quattro_QQQ:10eV
FILENAME=hmdb_intermediate.mgf
SEQ=*..*
IONMODE=Negative
ORGANISM=HMDB
NAME=HMDB:HMDB01713-1675 m-Coumaric acid M-H
PI=HMDB
DATACOLLECTOR=HMDB
SMILES=OC(=O)\C=C\C1=CC=CC(O)=C1
INCHI=InChI=1S/C9H8O3/c10-8-3-1-2-7(6-8)4-5-9(11)12/h1-6,10H,(H,11,12)/b5-4+
INCHIAUX=N/A
PUBMED=N/A
SUBMITUSER=mwang87
TAGS=
LIBRARYQUALITY=3
SPECTRUMID=CCMSLIB00000426328
SCANS=1300
119.203 97.59 
163.111 100.0 
END IONS

BEGIN IONS
PEPMASS=160.097
CHARGE=1+
MSLEVEL=2
SOURCE_INSTRUMENT=Positive-Quattro_QQQ:40eV
FILENAME=hmdb_intermediate.mgf
SEQ=*..*
IONMODE=Positive
ORGANISM=HMDB
NAME=HMDB:HMDB00339-548 2-Methylbutyrylglycine M+H
PI=HMDB
DATACOLLECTOR=HMDB
SMILES=CCC(C)C(=O)NCC(O)=O
INCHI=InChI=1S/C7H13NO3/c1-3-5(2)7(11)8-4-6(9)10/h5H,3-4H2,1-2H3,(H,8,11)(H,9,10)
INCHIAUX=N/A
PUBMED=N/A
SUBMITUSER=mwang87
TAGS=
LIBRARYQUALITY=3
SPECTRUMID=CCMSLIB00000426329
SCANS=1301
41.69 74.747 
57.529 100.0 
END IONS

BEGIN IONS
PEPMASS=297.972
CHARGE=1+
MSLEVEL=2
SOURCE_INSTRUMENT=Positive-Quattro_QQQ:25eV
FILENAME=hmdb_intermediate.mgf
SEQ=*..*
IONMODE=Positive
ORGANISM=HMDB
NAME=HMDB:HMDB01928-1864 Hydrochlorothiazide M+H
PI=HMDB
DATACOLLECTOR=HMDB
SMILES=NS(=O)(=O)C1=C(Cl)C=C2NCNS(=O)(=O)C2=C1
INCHI=InChI=1S/C7H8ClN3O4S2/c8-4-1-5-7(2-6(4)16(9,12)13)17(14,15)11-3-10-5/h1-2,10-11H,3H2,(H2,9,12,13)
INCHIAUX=N/A
PUBMED=N/A
SUBMITUSER=mwang87
TAGS=
LIBRARYQUALITY=3
SPECTRUMID=CCMSLIB00000426330
SCANS=1302
156.441 100.0 
159.36 91.765 
160.391 62.059 
162.303 52.941 
171.64 98.824 
173.919 56.765 
204.975 72.059 
252.82 63.529 
263.072 55.294 
END IONS

BEGIN IONS
PEPMASS=132.066
CHARGE=1+
MSLEVEL=2
SOURCE_INSTRUMENT=Positive-Quattro_QQQ:10eV
FILENAME=hmdb_intermediate.mgf
SEQ=*..*
IONMODE=Positive
ORGANISM=HMDB
NAME=HMDB:HMDB00725-1017 4-Hydroxyproline M+H
PI=HMDB
DATACOLLECTOR=HMDB
SMILES=O[C@H]1CN[C@@H](C1)C(O)=O
INCHI=InChI=1S/C5H9NO3/c7-3-1-4(5(8)9)6-2-3/h3-4,6-7H,1-2H2,(H,8,9)/t3-,4+/m1/s1
INCHIAUX=N/A
PUBMED=N/A
SUBMITUSER=mwang87
TAGS=
LIBRARYQUALITY=3
SPECTRUMID=CCMSLIB00000426331
SCANS=1303
86.049 100.0 
131.917 99.51 
END IONS

BEGIN IONS
PEPMASS=289.18
CHARGE=1+
MSLEVEL=2
SOURCE_INSTRUMENT=Positive-Quattro_QQQ:25eV
FILENAME=hmdb_intermediate.mgf
SEQ=*..*
IONMODE=Positive
ORGANISM=HMDB
NAME=HMDB:HMDB00347-559 16b-Hydroxyestradiol M+H
PI=HMDB
DATACOLLECTOR=HMDB
SMILES=[H][C@@]12C[C@H](O)[C@H](O)[C@@]1(C)CC[C@]1([H])C3=C(CC[C@@]21[H])C=C(O)C=C3
INCHI=InChI=1S/C18H24O3/c1-18-7-6-13-12-5-3-11(19)8-10(12)2-4-14(13)15(18)9-16(20)17(18)21/h3,5,8,13-17,19-21H,2,4,6-7,9H2,1H3/t13-,14-,15+,16+,17+,18+/m1/s1
INCHIAUX=N/A
PUBMED=N/A
SUBMITUSER=mwang87
TAGS=
LIBRARYQUALITY=3
SPECTRUMID=CCMSLIB00000426332
SCANS=1304
107.2 100.0 
END IONS

BEGIN IONS
PEPMASS=427.096
CHARGE=1+
MSLEVEL=2
SOURCE_INSTRUMENT=Positive-Quattro_QQQ:40eV
FILENAME=hmdb_intermediate.mgf
SEQ=*..*
IONMODE=Positive
ORGANISM=HMDB
NAME=HMDB:HMDB00656-896 Cysteineglutathione disulfide M+H
PI=HMDB
DATACOLLECTOR=HMDB
SMILES=N[C@@H](CCC(=O)N[C@@H](CSSCC(N)C(O)=O)C(=O)NCC(O)=O)C(O)=O
INCHI=InChI=1S/C13H22N4O8S2/c14-6(12(22)23)1-2-9(18)17-8(11(21)16-3-10(19)20)5-27-26-4-7(15)13(24)25/h6-8H,1-5,14-15H2,(H,16,21)(H,17,18)(H,19,20)(H,22,23)(H,24,25)/t6-,7?,8-/m0/s1
INCHIAUX=N/A
PUBMED=N/A
SUBMITUSER=mwang87
TAGS=
LIBRARYQUALITY=3
SPECTRUMID=CCMSLIB00000426333
SCANS=1305
123.081 100.0 
234.05 77.447 
END IONS

BEGIN IONS
PEPMASS=160.097
CHARGE=1+
MSLEVEL=2
SOURCE_INSTRUMENT=Positive-Quattro_QQQ:25eV
FILENAME=hmdb_intermediate.mgf
SEQ=*..*
IONMODE=Positive
ORGANISM=HMDB
NAME=HMDB:HMDB00678-940 Isovalerylglycine M+H
PI=HMDB
DATACOLLECTOR=HMDB
SMILES=CC(C)CC(=O)NCC(O)=O
INCHI=InChI=1S/C7H13NO3/c1-5(2)3-6(9)8-4-7(10)11/h5H,3-4H2,1-2H3,(H,8,9)(H,10,11)
INCHIAUX=N/A
PUBMED=N/A
SUBMITUSER=mwang87
TAGS=
LIBRARYQUALITY=3
SPECTRUMID=CCMSLIB00000426334
SCANS=1306
57.505 100.0 
END IONS

BEGIN IONS
PEPMASS=303.05
CHARGE=1+
MSLEVEL=2
SOURCE_INSTRUMENT=Positive-Quattro_QQQ:40eV
FILENAME=hmdb_intermediate.mgf
SEQ=*..*
IONMODE=Positive
ORGANISM=HMDB
NAME=HMDB:HMDB05794-2447 Quercetin M+H
PI=HMDB
DATACOLLECTOR=HMDB
SMILES=OC1=CC(O)=C2C(OC(=C(O)C2=O)C2=CC(O)=C(O)C=C2)=C1
INCHI=InChI=1S/C15H10O7/c16-7-4-10(19)12-11(5-7)22-15(14(21)13(12)20)6-1-2-8(17)9(18)3-6/h1-5,16-19,21H
INCHIAUX=N/A
PUBMED=N/A
SUBMITUSER=mwang87
TAGS=
LIBRARYQUALITY=3
SPECTRUMID=CCMSLIB00000426335
SCANS=1307
68.0 100.0 
136.0 56.732 
152.0 67.508 
153.0 50.649 
END IONS

BEGIN IONS
PEPMASS=153.128
CHARGE=1+
MSLEVEL=2
SOURCE_INSTRUMENT=Positive-Quattro_QQQ:25eV
FILENAME=hmdb_intermediate.mgf
SEQ=*..*
IONMODE=Positive
ORGANISM=HMDB
NAME=HMDB:HMDB03634-2335 Perillyl alcohol M+H
PI=HMDB
DATACOLLECTOR=HMDB
SMILES=CC(=C)C1CCC(CO)=CC1
INCHI=InChI=1S/C10H16O/c1-8(2)10-5-3-9(7-11)4-6-10/h3,10-11H,1,4-7H2,2H3
INCHIAUX=N/A
PUBMED=N/A
SUBMITUSER=mwang87
TAGS=
LIBRARYQUALITY=3
SPECTRUMID=CCMSLIB00000426336
SCANS=1308
59.0 80.56 
73.0 68.874 
75.0 92.655 
89.0 100.0 
93.0 54.956 
END IONS

BEGIN IONS
PEPMASS=103.076
CHARGE=1+
MSLEVEL=2
SOURCE_INSTRUMENT=Positive-Quattro_QQQ:10eV
FILENAME=hmdb_intermediate.mgf
SEQ=*..*
IONMODE=Positive
ORGANISM=HMDB
NAME=HMDB:HMDB00718-1005 Isovaleric acid M+H
PI=HMDB
DATACOLLECTOR=HMDB
SMILES=CC(C)CC(O)=O
INCHI=InChI=1S/C5H10O2/c1-4(2)3-5(6)7/h4H,3H2,1-2H3,(H,6,7)
INCHIAUX=N/A
PUBMED=N/A
SUBMITUSER=mwang87
TAGS=
LIBRARYQUALITY=3
SPECTRUMID=CCMSLIB00000426337
SCANS=1309
43.0 100.0 
102.0 56.888 
END IONS

BEGIN IONS
PEPMASS=34.0293
CHARGE=1+
MSLEVEL=2
SOURCE_INSTRUMENT=Positive-Quattro_QQQ:10eV
FILENAME=hmdb_intermediate.mgf
SEQ=*..*
IONMODE=Positive
ORGANISM=HMDB
NAME=HMDB:HMDB03338-2251 Hydroxylamine M+H
PI=HMDB
DATACOLLECTOR=HMDB
SMILES=NO
INCHI=InChI=1S/H3NO/c1-2/h2H,1H2
INCHIAUX=N/A
PUBMED=N/A
SUBMITUSER=mwang87
TAGS=
LIBRARYQUALITY=3
SPECTRUMID=CCMSLIB00000426338
SCANS=1310
34.0 100.0 
END IONS

BEGIN IONS
PEPMASS=154.05
CHARGE=1+
MSLEVEL=2
SOURCE_INSTRUMENT=Positive-Quattro_QQQ:10eV
FILENAME=hmdb_intermediate.mgf
SEQ=*..*
IONMODE=Positive
ORGANISM=HMDB
NAME=HMDB:HMDB01476-1595 3-Hydroxyanthranilic acid M+H
PI=HMDB
DATACOLLECTOR=HMDB
SMILES=NC1=C(O)C=CC=C1C(O)=O
INCHI=InChI=1S/C7H7NO3/c8-6-4(7(10)11)2-1-3-5(6)9/h1-3,9H,8H2,(H,10,11)
INCHIAUX=N/A
PUBMED=N/A
SUBMITUSER=mwang87
TAGS=
LIBRARYQUALITY=3
SPECTRUMID=CCMSLIB00000426339
SCANS=1311
136.0 100.0 
END IONS

BEGIN IONS
PEPMASS=153.076
CHARGE=1+
MSLEVEL=2
SOURCE_INSTRUMENT=Positive-Quattro_QQQ:10eV
FILENAME=hmdb_intermediate.mgf
SEQ=*..*
IONMODE=Positive
ORGANISM=HMDB
NAME=HMDB:HMDB00568-794 D-Arabitol M+H
PI=HMDB
DATACOLLECTOR=HMDB
SMILES=OCC(O)C(O)C(O)CO
INCHI=InChI=1S/C5H12O5/c6-1-3(8)5(10)4(9)2-7/h3-10H,1-2H2
INCHIAUX=N/A
PUBMED=N/A
SUBMITUSER=mwang87
TAGS=
LIBRARYQUALITY=3
SPECTRUMID=CCMSLIB00000426340
SCANS=1312
69.0 100.0 
71.0 50.304 
99.0 94.536 
117.0 69.713 
135.0 54.283 
END IONS

BEGIN IONS
PEPMASS=173.06
CHARGE=1+
MSLEVEL=2
SOURCE_INSTRUMENT=Positive-Quattro_QQQ:10eV
FILENAME=hmdb_intermediate.mgf
SEQ=*..*
IONMODE=Positive
ORGANISM=HMDB
NAME=HMDB:HMDB01892-1801 Menadione M+H
PI=HMDB
DATACOLLECTOR=HMDB
SMILES=CC1=CC(=O)C2=CC=CC=C2C1=O
INCHI=InChI=1S/C11H8O2/c1-7-6-10(12)8-4-2-3-5-9(8)11(7)13/h2-6H,1H3
INCHIAUX=N/A
PUBMED=N/A
SUBMITUSER=mwang87
TAGS=
LIBRARYQUALITY=3
SPECTRUMID=CCMSLIB00000426341
SCANS=1313
97.67 51.672 
173.34 100.0 
END IONS

BEGIN IONS
PEPMASS=149.009
CHARGE=1+
MSLEVEL=2
SOURCE_INSTRUMENT=Negative-Quattro_QQQ:25eV
FILENAME=hmdb_intermediate.mgf
SEQ=*..*
IONMODE=Negative
ORGANISM=HMDB
NAME=HMDB:HMDB00956-1355 Tartaric acid M-H
PI=HMDB
DATACOLLECTOR=HMDB
SMILES=O[C@H]([C@@H](O)C(O)=O)C(O)=O
INCHI=InChI=1S/C4H6O6/c5-1(3(7)8)2(6)4(9)10/h1-2,5-6H,(H,7,8)(H,9,10)/t1-,2-/m1/s1
INCHIAUX=N/A
PUBMED=N/A
SUBMITUSER=mwang87
TAGS=
LIBRARYQUALITY=3
SPECTRUMID=CCMSLIB00000426342
SCANS=1314
43.629 94.805 
73.346 100.0 
END IONS

BEGIN IONS
PEPMASS=287.201
CHARGE=1+
MSLEVEL=2
SOURCE_INSTRUMENT=Positive-Quattro_QQQ:40eV
FILENAME=hmdb_intermediate.mgf
SEQ=*..*
IONMODE=Positive
ORGANISM=HMDB
NAME=HMDB:HMDB00053-86 Androstenedione M+H
PI=HMDB
DATACOLLECTOR=HMDB
SMILES=[H][C@@]12CCC(=O)[C@@]1(C)CC[C@@]1([H])[C@@]2([H])CCC2=CC(=O)CC[C@]12C
INCHI=InChI=1S/C19H26O2/c1-18-9-7-13(20)11-12(18)3-4-14-15-5-6-17(21)19(15,2)10-8-16(14)18/h11,14-16H,3-10H2,1-2H3/t14-,15-,16-,18-,19-/m0/s1
INCHIAUX=N/A
PUBMED=N/A
SUBMITUSER=mwang87
TAGS=
LIBRARYQUALITY=3
SPECTRUMID=CCMSLIB00000426343
SCANS=1315
96.0 100.0 
108.0 71.915 
END IONS

BEGIN IONS
PEPMASS=151.061
CHARGE=1+
MSLEVEL=2
SOURCE_INSTRUMENT=Positive-Quattro_QQQ:10eV
FILENAME=hmdb_intermediate.mgf
SEQ=*..*
IONMODE=Positive
ORGANISM=HMDB
NAME=HMDB:HMDB01644-1666 D-Xylulose M+H
PI=HMDB
DATACOLLECTOR=HMDB
SMILES=OC[C@@H](O)[C@H](O)C(=O)CO
INCHI=InChI=1S/C5H10O5/c6-1-3(8)5(10)4(9)2-7/h3,5-8,10H,1-2H2/t3-,5+/m1/s1
INCHIAUX=N/A
PUBMED=N/A
SUBMITUSER=mwang87
TAGS=
LIBRARYQUALITY=3
SPECTRUMID=CCMSLIB00000426344
SCANS=1316
89.0 93.703 
119.0 100.0 
END IONS

BEGIN IONS
PEPMASS=153.128
CHARGE=1+
MSLEVEL=2
SOURCE_INSTRUMENT=Positive-Quattro_QQQ:10eV
FILENAME=hmdb_intermediate.mgf
SEQ=*..*
IONMODE=Positive
ORGANISM=HMDB
NAME=HMDB:HMDB03634-2334 Perillyl alcohol M+H
PI=HMDB
DATACOLLECTOR=HMDB
SMILES=CC(=C)C1CCC(CO)=CC1
INCHI=InChI=1S/C10H16O/c1-8(2)10-5-3-9(7-11)4-6-10/h3,10-11H,1,4-7H2,2H3
INCHIAUX=N/A
PUBMED=N/A
SUBMITUSER=mwang87
TAGS=
LIBRARYQUALITY=3
SPECTRUMID=CCMSLIB00000426345
SCANS=1317
121.0 100.0 
135.0 64.236 
END IONS

BEGIN IONS
PEPMASS=373.191
CHARGE=1+
MSLEVEL=2
SOURCE_INSTRUMENT=Positive-Quattro_QQQ:10eV
FILENAME=hmdb_intermediate.mgf
SEQ=*..*
IONMODE=Positive
ORGANISM=HMDB
NAME=HMDB:HMDB03134-2200 Biocytin M+H
PI=HMDB
DATACOLLECTOR=HMDB
SMILES=[H][C@]12CS[C@@H](CCCCC(=O)NCCCC[C@H](N)C(O)=O)[C@@]1([H])NC(=O)N2
INCHI=InChI=1S/C16H28N4O4S/c17-10(15(22)23)5-3-4-8-18-13(21)7-2-1-6-12-14-11(9-25-12)19-16(24)20-14/h10-12,14H,1-9,17H2,(H,18,21)(H,22,23)(H2,19,20,24)/t10-,11-,12-,14-/m0/s1
INCHIAUX=N/A
PUBMED=N/A
SUBMITUSER=mwang87
TAGS=
LIBRARYQUALITY=3
SPECTRUMID=CCMSLIB00000426346
SCANS=1318
372.0 100.0 
373.0 62.762 
END IONS

BEGIN IONS
PEPMASS=260.044
CHARGE=1+
MSLEVEL=2
SOURCE_INSTRUMENT=Positive-Quattro_QQQ:10eV
FILENAME=hmdb_intermediate.mgf
SEQ=*..*
IONMODE=Positive
ORGANISM=HMDB
NAME=HMDB:HMDB00592-816 Glucosamine 6-sulfate M+H
PI=HMDB
DATACOLLECTOR=HMDB
SMILES=N[C@H]1[C@H](O)O[C@H](COS(O)(=O)=O)[C@@H](O)[C@@H]1O
INCHI=InChI=1S/C6H13NO8S/c7-3-5(9)4(8)2(15-6(3)10)1-14-16(11,12)13/h2-6,8-10H,1,7H2,(H,11,12,13)/t2-,3-,4-,5-,6-/m1/s1
INCHIAUX=N/A
PUBMED=N/A
SUBMITUSER=mwang87
TAGS=
LIBRARYQUALITY=3
SPECTRUMID=CCMSLIB00000426347
SCANS=1319
241.737 83.425 
260.359 100.0 
END IONS

BEGIN IONS
PEPMASS=181.071
CHARGE=1+
MSLEVEL=2
SOURCE_INSTRUMENT=Positive-Quattro_QQQ:25eV
FILENAME=hmdb_intermediate.mgf
SEQ=*..*
IONMODE=Positive
ORGANISM=HMDB
NAME=HMDB:HMDB00660-901 D-Fructose M+H
PI=HMDB
DATACOLLECTOR=HMDB
SMILES=OC[C@H]1O[C@](O)(CO)[C@@H](O)[C@@H]1O
INCHI=InChI=1S/C6H12O6/c7-1-3-4(9)5(10)6(11,2-8)12-3/h3-5,7-11H,1-2H2/t3-,4-,5+,6-/m1/s1
INCHIAUX=N/A
PUBMED=N/A
SUBMITUSER=mwang87
TAGS=
LIBRARYQUALITY=3
SPECTRUMID=CCMSLIB00000426348
SCANS=1320
73.0 55.642 
85.0 100.0 
117.0 96.854 
END IONS

BEGIN IONS
PEPMASS=181.073
CHARGE=1+
MSLEVEL=2
SOURCE_INSTRUMENT=Positive-Quattro_QQQ:25eV
FILENAME=hmdb_intermediate.mgf
SEQ=*..*
IONMODE=Positive
ORGANISM=HMDB
NAME=HMDB:HMDB02825-2144 Theobromine M+H
PI=HMDB
DATACOLLECTOR=HMDB
SMILES=CN1C=NC2=C1C(=O)NC(=O)N2C
INCHI=InChI=1S/C7H8N4O2/c1-10-3-8-5-4(10)6(12)9-7(13)11(5)2/h3H,1-2H3,(H,9,12,13)
INCHIAUX=N/A
PUBMED=N/A
SUBMITUSER=mwang87
TAGS=
LIBRARYQUALITY=3
SPECTRUMID=CCMSLIB00000426349
SCANS=1321
67.0 100.0 
END IONS

BEGIN IONS
PEPMASS=89.0603
CHARGE=1+
MSLEVEL=2
SOURCE_INSTRUMENT=Positive-Quattro_QQQ:25eV
FILENAME=hmdb_intermediate.mgf
SEQ=*..*
IONMODE=Positive
ORGANISM=HMDB
NAME=HMDB:HMDB03243-2219 Acetoin M+H
PI=HMDB
DATACOLLECTOR=HMDB
SMILES=CC(O)C(C)=O
INCHI=InChI=1S/C4H8O2/c1-3(5)4(2)6/h3,5H,1-2H3
INCHIAUX=N/A
PUBMED=N/A
SUBMITUSER=mwang87
TAGS=
LIBRARYQUALITY=3
SPECTRUMID=CCMSLIB00000426350
SCANS=1322
43.0 100.0 
END IONS

BEGIN IONS
PEPMASS=111.045
CHARGE=1+
MSLEVEL=2
SOURCE_INSTRUMENT=Positive-Quattro_QQQ:40eV
FILENAME=hmdb_intermediate.mgf
SEQ=*..*
IONMODE=Positive
ORGANISM=HMDB
NAME=HMDB:HMDB02434-2109 Hydroquinone M+H
PI=HMDB
DATACOLLECTOR=HMDB
SMILES=OC1=CC=C(O)C=C1
INCHI=InChI=1S/C6H6O2/c7-5-1-2-6(8)4-3-5/h1-4,7-8H
INCHIAUX=N/A
PUBMED=N/A
SUBMITUSER=mwang87
TAGS=
LIBRARYQUALITY=3
SPECTRUMID=CCMSLIB00000426351
SCANS=1323
38.0 79.912 
39.0 100.0 
END IONS

BEGIN IONS
PEPMASS=118.066
CHARGE=1+
MSLEVEL=2
SOURCE_INSTRUMENT=Positive-Quattro_QQQ:40eV
FILENAME=hmdb_intermediate.mgf
SEQ=*..*
IONMODE=Positive
ORGANISM=HMDB
NAME=HMDB:HMDB00738-1049 Indole M+H
PI=HMDB
DATACOLLECTOR=HMDB
SMILES=N1C=CC2=C1C=CC=C2
INCHI=InChI=1S/C8H7N/c1-2-4-8-7(3-1)5-6-9-8/h1-6,9H
INCHIAUX=N/A
PUBMED=N/A
SUBMITUSER=mwang87
TAGS=
LIBRARYQUALITY=3
SPECTRUMID=CCMSLIB00000426352
SCANS=1324
65.136 100.0 
90.963 66.379 
END IONS

BEGIN IONS
PEPMASS=138.055
CHARGE=1+
MSLEVEL=2
SOURCE_INSTRUMENT=Positive-Quattro_QQQ:10eV
FILENAME=hmdb_intermediate.mgf
SEQ=*..*
IONMODE=Positive
ORGANISM=HMDB
NAME=HMDB:HMDB01891-1798 m-Aminobenzoic acid M+H
PI=HMDB
DATACOLLECTOR=HMDB
SMILES=NC1=CC=CC(=C1)C(O)=O
INCHI=InChI=1S/C7H7NO2/c8-6-3-1-2-5(4-6)7(9)10/h1-4H,8H2,(H,9,10)
INCHIAUX=N/A
PUBMED=N/A
SUBMITUSER=mwang87
TAGS=
LIBRARYQUALITY=3
SPECTRUMID=CCMSLIB00000426353
SCANS=1325
137.94 100.0 
END IONS

BEGIN IONS
PEPMASS=274.108
CHARGE=1+
MSLEVEL=2
SOURCE_INSTRUMENT=Positive-Quattro_QQQ:40eV
FILENAME=hmdb_intermediate.mgf
SEQ=*..*
IONMODE=Positive
ORGANISM=HMDB
NAME=HMDB:HMDB00667-914 L-Thyronine M+H
PI=HMDB
DATACOLLECTOR=HMDB
SMILES=N[C@@H](CC1=CC=C(OC2=CC=C(O)C=C2)C=C1)C(O)=O
INCHI=InChI=1S/C15H15NO4/c16-14(15(18)19)9-10-1-5-12(6-2-10)20-13-7-3-11(17)4-8-13/h1-8,14,17H,9,16H2,(H,18,19)/t14-/m0/s1
INCHIAUX=N/A
PUBMED=N/A
SUBMITUSER=mwang87
TAGS=
LIBRARYQUALITY=3
SPECTRUMID=CCMSLIB00000426354
SCANS=1326
94.0 74.526 
118.0 100.0 
END IONS

BEGIN IONS
PEPMASS=177.103
CHARGE=1+
MSLEVEL=2
SOURCE_INSTRUMENT=Positive-Quattro_QQQ:25eV
FILENAME=hmdb_intermediate.mgf
SEQ=*..*
IONMODE=Positive
ORGANISM=HMDB
NAME=HMDB:HMDB00259-452 Serotonin M+H
PI=HMDB
DATACOLLECTOR=HMDB
SMILES=NCCC1=CNC2=CC=C(O)C=C12
INCHI=InChI=1S/C10H12N2O/c11-4-3-7-6-12-10-2-1-8(13)5-9(7)10/h1-2,5-6,12-13H,3-4,11H2
INCHIAUX=N/A
PUBMED=N/A
SUBMITUSER=mwang87
TAGS=
LIBRARYQUALITY=3
SPECTRUMID=CCMSLIB00000426355
SCANS=1327
115.033 75.299 
159.734 100.0 
END IONS

BEGIN IONS
PEPMASS=428.037
CHARGE=1+
MSLEVEL=2
SOURCE_INSTRUMENT=Positive-Quattro_QQQ:40eV
FILENAME=hmdb_intermediate.mgf
SEQ=*..*
IONMODE=Positive
ORGANISM=HMDB
NAME=HMDB:HMDB01341-1524 ADP M+H
PI=HMDB
DATACOLLECTOR=HMDB
SMILES=NC1=NC=NC2=C1N=CN2[C@@H]1O[C@H](COP(O)(=O)OP(O)(O)=O)[C@@H](O)[C@H]1O
INCHI=InChI=1S/C10H15N5O10P2/c11-8-5-9(13-2-12-8)15(3-14-5)10-7(17)6(16)4(24-10)1-23-27(21,22)25-26(18,19)20/h2-4,6-7,10,16-17H,1H2,(H,21,22)(H2,11,12,13)(H2,18,19,20)/t4-,6-,7-,10-/m1/s1
INCHIAUX=N/A
PUBMED=N/A
SUBMITUSER=mwang87
TAGS=
LIBRARYQUALITY=3
SPECTRUMID=CCMSLIB00000426356
SCANS=1328
135.0 100.0 
136.0 69.838 
END IONS

BEGIN IONS
PEPMASS=377.146
CHARGE=1+
MSLEVEL=2
SOURCE_INSTRUMENT=Positive-Quattro_QQQ:40eV
FILENAME=hmdb_intermediate.mgf
SEQ=*..*
IONMODE=Positive
ORGANISM=HMDB
NAME=HMDB:HMDB00244-414 Riboflavin M+H
PI=HMDB
DATACOLLECTOR=HMDB
SMILES=CC1=C(C)C=C2N(C[C@H](O)[C@H](O)[C@H](O)CO)C3=NC(=O)NC(=O)C3=NC2=C1
INCHI=InChI=1S/C17H20N4O6/c1-7-3-9-10(4-8(7)2)21(5-11(23)14(25)12(24)6-22)15-13(18-9)16(26)20-17(27)19-15/h3-4,11-12,14,22-25H,5-6H2,1-2H3,(H,20,26,27)/t11-,12+,14-/m0/s1
INCHIAUX=N/A
PUBMED=N/A
SUBMITUSER=mwang87
TAGS=
LIBRARYQUALITY=3
SPECTRUMID=CCMSLIB00000426357
SCANS=1329
171.0 100.0 
172.0 62.584 
197.0 97.172 
198.0 54.814 
END IONS

BEGIN IONS
PEPMASS=131.071
CHARGE=1+
MSLEVEL=2
SOURCE_INSTRUMENT=Negative-Quattro_QQQ:25eV
FILENAME=hmdb_intermediate.mgf
SEQ=*..*
IONMODE=Negative
ORGANISM=HMDB
NAME=HMDB:HMDB00746-1063 Hydroxyisocaproic acid M-H
PI=HMDB
DATACOLLECTOR=HMDB
SMILES=CC(C)C[C@H](O)C(O)=O
INCHI=InChI=1S/C6H12O3/c1-4(2)3-5(7)6(8)9/h4-5,7H,3H2,1-2H3,(H,8,9)/t5-/m0/s1
INCHIAUX=N/A
PUBMED=N/A
SUBMITUSER=mwang87
TAGS=
LIBRARYQUALITY=3
SPECTRUMID=CCMSLIB00000426358
SCANS=1330
45.576 57.672 
69.417 100.0 
85.363 64.55 
END IONS

BEGIN IONS
PEPMASS=287.237
CHARGE=1+
MSLEVEL=2
SOURCE_INSTRUMENT=Positive-Quattro_QQQ:40eV
FILENAME=hmdb_intermediate.mgf
SEQ=*..*
IONMODE=Positive
ORGANISM=HMDB
NAME=HMDB:HMDB00305-521 Vitamin A M+H
PI=HMDB
DATACOLLECTOR=HMDB
SMILES=C\C(=C/CO)\C=C\C=C(/C)\C=C\C1=C(C)CCCC1(C)C
INCHI=InChI=1S/C20H30O/c1-16(8-6-9-17(2)13-15-21)11-12-19-18(3)10-7-14-20(19,4)5/h6,8-9,11-13,21H,7,10,14-15H2,1-5H3/b9-6+,12-11+,16-8+,17-13+
INCHIAUX=N/A
PUBMED=N/A
SUBMITUSER=mwang87
TAGS=
LIBRARYQUALITY=3
SPECTRUMID=CCMSLIB00000426359
SCANS=1331
43.311 73.026 
67.19 55.921 
69.142 63.158 
79.189 64.474 
81.063 51.316 
91.079 83.553 
93.124 61.842 
105.077 100.0 
121.042 50.0 
END IONS

BEGIN IONS
PEPMASS=99.081
CHARGE=1+
MSLEVEL=2
SOURCE_INSTRUMENT=Positive-Quattro_QQQ:25eV
FILENAME=hmdb_intermediate.mgf
SEQ=*..*
IONMODE=Positive
ORGANISM=HMDB
NAME=HMDB:HMDB03315-2240 Cyclohexanone M+H
PI=HMDB
DATACOLLECTOR=HMDB
SMILES=O=C1CCCCC1
INCHI=InChI=1S/C6H10O/c7-6-4-2-1-3-5-6/h1-5H2
INCHIAUX=N/A
PUBMED=N/A
SUBMITUSER=mwang87
TAGS=
LIBRARYQUALITY=3
SPECTRUMID=CCMSLIB00000426360
SCANS=1332
41.17 100.0 
78.94 61.559 
END IONS

BEGIN IONS
PEPMASS=123.066
CHARGE=1+
MSLEVEL=2
SOURCE_INSTRUMENT=Positive-Quattro_QQQ:10eV
FILENAME=hmdb_intermediate.mgf
SEQ=*..*
IONMODE=Positive
ORGANISM=HMDB
NAME=HMDB:HMDB02994-2179 Erythritol M+H
PI=HMDB
DATACOLLECTOR=HMDB
SMILES=OC[C@H](O)[C@H](O)CO
INCHI=InChI=1S/C4H10O4/c5-1-3(7)4(8)2-6/h3-8H,1-2H2/t3-,4+
INCHIAUX=N/A
PUBMED=N/A
SUBMITUSER=mwang87
TAGS=
LIBRARYQUALITY=3
SPECTRUMID=CCMSLIB00000426361
SCANS=1333
69.0 64.629 
87.0 100.0 
105.0 52.107 
123.0 60.716 
END IONS

BEGIN IONS
PEPMASS=155.144
CHARGE=1+
MSLEVEL=2
SOURCE_INSTRUMENT=Positive-Quattro_QQQ:10eV
FILENAME=hmdb_intermediate.mgf
SEQ=*..*
IONMODE=Positive
ORGANISM=HMDB
NAME=HMDB:HMDB05812-2457 Geraniol M+H
PI=HMDB
DATACOLLECTOR=HMDB
SMILES=CC(C)=CCC\C(C)=C/CO
INCHI=InChI=1S/C10H18O/c1-9(2)5-4-6-10(3)7-8-11/h5,7,11H,4,6,8H2,1-3H3/b10-7-
INCHIAUX=N/A
PUBMED=N/A
SUBMITUSER=mwang87
TAGS=
LIBRARYQUALITY=3
SPECTRUMID=CCMSLIB00000426362
SCANS=1334
81.06 100.0 
137.16 53.5598726125 
END IONS

BEGIN IONS
PEPMASS=90.0555
CHARGE=1+
MSLEVEL=2
SOURCE_INSTRUMENT=Positive-Quattro_QQQ:40eV
FILENAME=hmdb_intermediate.mgf
SEQ=*..*
IONMODE=Positive
ORGANISM=HMDB
NAME=HMDB:HMDB00161-253 L-Alanine M+H
PI=HMDB
DATACOLLECTOR=HMDB
SMILES=C[C@H](N)C(O)=O
INCHI=InChI=1S/C3H7NO2/c1-2(4)3(5)6/h2H,4H2,1H3,(H,5,6)/t2-/m0/s1
INCHIAUX=N/A
PUBMED=N/A
SUBMITUSER=mwang87
TAGS=
LIBRARYQUALITY=3
SPECTRUMID=CCMSLIB00000426363
SCANS=1335
44.169 100.0 
END IONS

BEGIN IONS
PEPMASS=127.062
CHARGE=1+
MSLEVEL=2
SOURCE_INSTRUMENT=Positive-Quattro_QQQ:10eV
FILENAME=hmdb_intermediate.mgf
SEQ=*..*
IONMODE=Positive
ORGANISM=HMDB
NAME=HMDB:HMDB02128-2013 2,4-Diamino-6-hydroxypyrimidine M+H
PI=HMDB
DATACOLLECTOR=HMDB
SMILES=NC1=CC(=O)N=C(N)N1
INCHI=InChI=1S/C4H6N4O/c5-2-1-3(9)8-4(6)7-2/h1H,(H5,5,6,7,8,9)
INCHIAUX=N/A
PUBMED=N/A
SUBMITUSER=mwang87
TAGS=
LIBRARYQUALITY=3
SPECTRUMID=CCMSLIB00000426364
SCANS=1336
127.0 100.0 
END IONS

BEGIN IONS
PEPMASS=260.165
CHARGE=1+
MSLEVEL=2
SOURCE_INSTRUMENT=Positive-Quattro_QQQ:40eV
FILENAME=hmdb_intermediate.mgf
SEQ=*..*
IONMODE=Positive
ORGANISM=HMDB
NAME=HMDB:HMDB01849-1710 Propranolol M+H
PI=HMDB
DATACOLLECTOR=HMDB
SMILES=CC(C)NCC(O)COC1=CC=CC2=CC=CC=C12
INCHI=InChI=1S/C16H21NO2/c1-12(2)17-10-14(18)11-19-16-9-5-7-13-6-3-4-8-15(13)16/h3-9,12,14,17-18H,10-11H2,1-2H3
INCHIAUX=N/A
PUBMED=N/A
SUBMITUSER=mwang87
TAGS=
LIBRARYQUALITY=3
SPECTRUMID=CCMSLIB00000426365
SCANS=1337
103.67 100.0 
END IONS

BEGIN IONS
PEPMASS=153.076
CHARGE=1+
MSLEVEL=2
SOURCE_INSTRUMENT=Positive-Quattro_QQQ:40eV
FILENAME=hmdb_intermediate.mgf
SEQ=*..*
IONMODE=Positive
ORGANISM=HMDB
NAME=HMDB:HMDB02917-2162 D-Xylitol M+H
PI=HMDB
DATACOLLECTOR=HMDB
SMILES=OC[C@H](O)C(O)[C@H](O)CO
INCHI=InChI=1S/C5H12O5/c6-1-3(8)5(10)4(9)2-7/h3-10H,1-2H2/t3-,4+,5?
INCHIAUX=N/A
PUBMED=N/A
SUBMITUSER=mwang87
TAGS=
LIBRARYQUALITY=3
SPECTRUMID=CCMSLIB00000426366
SCANS=1338
61.0 86.5857533202 
69.0 100.0 
END IONS

BEGIN IONS
PEPMASS=275.017
CHARGE=1+
MSLEVEL=2
SOURCE_INSTRUMENT=Negative-Quattro_QQQ:40eV
FILENAME=hmdb_intermediate.mgf
SEQ=*..*
IONMODE=Negative
ORGANISM=HMDB
NAME=HMDB:HMDB01316-1518 6-Phosphogluconic acid M-H
PI=HMDB
DATACOLLECTOR=HMDB
SMILES=O[C@H](COP(O)(O)=O)[C@@H](O)[C@H](O)[C@@H](O)C(O)=O
INCHI=InChI=1S/C6H13O10P/c7-2(1-16-17(13,14)15)3(8)4(9)5(10)6(11)12/h2-5,7-10H,1H2,(H,11,12)(H2,13,14,15)/t2-,3-,4+,5-/m1/s1
INCHIAUX=N/A
PUBMED=N/A
SUBMITUSER=mwang87
TAGS=
LIBRARYQUALITY=3
SPECTRUMID=CCMSLIB00000426367
SCANS=1339
78.0 100.0 
END IONS

BEGIN IONS
PEPMASS=126.022
CHARGE=1+
MSLEVEL=2
SOURCE_INSTRUMENT=Positive-Quattro_QQQ:25eV
FILENAME=hmdb_intermediate.mgf
SEQ=*..*
IONMODE=Positive
ORGANISM=HMDB
NAME=HMDB:HMDB00251-431 Taurine M+H
PI=HMDB
DATACOLLECTOR=HMDB
SMILES=NCCS(O)(=O)=O
INCHI=InChI=1S/C2H7NO3S/c3-1-2-7(4,5)6/h1-3H2,(H,4,5,6)
INCHIAUX=N/A
PUBMED=N/A
SUBMITUSER=mwang87
TAGS=
LIBRARYQUALITY=3
SPECTRUMID=CCMSLIB00000426368
SCANS=1340
44.313 100.0 
END IONS

BEGIN IONS
PEPMASS=361.202
CHARGE=1+
MSLEVEL=2
SOURCE_INSTRUMENT=Positive-Quattro_QQQ:25eV
FILENAME=hmdb_intermediate.mgf
SEQ=*..*
IONMODE=Positive
ORGANISM=HMDB
NAME=HMDB:HMDB02802-2135 Cortisone M+H
PI=HMDB
DATACOLLECTOR=HMDB
SMILES=[H][C@@]12CC[C@](O)(C(=O)CO)[C@@]1(C)CC(=O)[C@@]1([H])[C@@]2([H])CCC2=CC(=O)CC[C@]12C
INCHI=InChI=1S/C21H28O5/c1-19-7-5-13(23)9-12(19)3-4-14-15-6-8-21(26,17(25)11-22)20(15,2)10-16(24)18(14)19/h9,14-15,18,22,26H,3-8,10-11H2,1-2H3/t14-,15-,18+,19-,20-,21-/m0/s1
INCHIAUX=N/A
PUBMED=N/A
SUBMITUSER=mwang87
TAGS=
LIBRARYQUALITY=3
SPECTRUMID=CCMSLIB00000426369
SCANS=1341
162.96 100.0 
END IONS

BEGIN IONS
PEPMASS=121.05
CHARGE=1+
MSLEVEL=2
SOURCE_INSTRUMENT=Positive-Quattro_QQQ:40eV
FILENAME=hmdb_intermediate.mgf
SEQ=*..*
IONMODE=Positive
ORGANISM=HMDB
NAME=HMDB:HMDB02649-2121 Erythrose M+H
PI=HMDB
DATACOLLECTOR=HMDB
SMILES=O[C@@H]1COC(O)[C@@H]1O
INCHI=InChI=1S/C4H8O4/c5-2-1-8-4(7)3(2)6/h2-7H,1H2/t2-,3-,4?/m1/s1
INCHIAUX=N/A
PUBMED=N/A
SUBMITUSER=mwang87
TAGS=
LIBRARYQUALITY=3
SPECTRUMID=CCMSLIB00000426370
SCANS=1342
50.0 100.0 
76.0 99.476 
END IONS

BEGIN IONS
PEPMASS=285.207
CHARGE=1+
MSLEVEL=2
SOURCE_INSTRUMENT=Negative-Quattro_QQQ:10eV
FILENAME=hmdb_intermediate.mgf
SEQ=*..*
IONMODE=Negative
ORGANISM=HMDB
NAME=HMDB:HMDB00672-927 Hexadecanedioic acid M-H
PI=HMDB
DATACOLLECTOR=HMDB
SMILES=OC(=O)CCCCCCCCCCCCCCC(O)=O
INCHI=InChI=1S/C16H30O4/c17-15(18)13-11-9-7-5-3-1-2-4-6-8-10-12-14-16(19)20/h1-14H2,(H,17,18)(H,19,20)
INCHIAUX=N/A
PUBMED=N/A
SUBMITUSER=mwang87
TAGS=
LIBRARYQUALITY=3
SPECTRUMID=CCMSLIB00000426371
SCANS=1343
285.273 100.0 
END IONS

BEGIN IONS
PEPMASS=206.045
CHARGE=1+
MSLEVEL=2
SOURCE_INSTRUMENT=Positive-Quattro_QQQ:40eV
FILENAME=hmdb_intermediate.mgf
SEQ=*..*
IONMODE=Positive
ORGANISM=HMDB
NAME=HMDB:HMDB00881-1243 Xanthurenic acid M+H
PI=HMDB
DATACOLLECTOR=HMDB
SMILES=OC(=O)C1=NC2=C(O)C=CC=C2C(O)=C1
INCHI=InChI=1S/C10H7NO4/c12-7-3-1-2-5-8(13)4-6(10(14)15)11-9(5)7/h1-4,12H,(H,11,13)(H,14,15)
INCHIAUX=N/A
PUBMED=N/A
SUBMITUSER=mwang87
TAGS=
LIBRARYQUALITY=3
SPECTRUMID=CCMSLIB00000426372
SCANS=1344
77.147 95.294 
131.994 100.0 
END IONS

BEGIN IONS
PEPMASS=147.045
CHARGE=1+
MSLEVEL=2
SOURCE_INSTRUMENT=Positive-Quattro_QQQ:25eV
FILENAME=hmdb_intermediate.mgf
SEQ=*..*
IONMODE=Positive
ORGANISM=HMDB
NAME=HMDB:HMDB02359-2080 Phenylpropiolic acid M+H
PI=HMDB
DATACOLLECTOR=HMDB
SMILES=OC(=O)C#CC1=CC=CC=C1
INCHI=InChI=1S/C9H6O2/c10-9(11)7-6-8-4-2-1-3-5-8/h1-5H,(H,10,11)
INCHIAUX=N/A
PUBMED=N/A
SUBMITUSER=mwang87
TAGS=
LIBRARYQUALITY=3
SPECTRUMID=CCMSLIB00000426373
SCANS=1345
77.0 99.613 
129.0 100.0 
END IONS

BEGIN IONS
PEPMASS=198.077
CHARGE=1+
MSLEVEL=2
SOURCE_INSTRUMENT=Positive-Quattro_QQQ:25eV
FILENAME=hmdb_intermediate.mgf
SEQ=*..*
IONMODE=Positive
ORGANISM=HMDB
NAME=HMDB:HMDB00181-287 L-Dopa M+H
PI=HMDB
DATACOLLECTOR=HMDB
SMILES=N[C@@H](CC1=CC(O)=C(O)C=C1)C(O)=O
INCHI=InChI=1S/C9H11NO4/c10-6(9(13)14)3-5-1-2-7(11)8(12)4-5/h1-2,4,6,11-12H,3,10H2,(H,13,14)/t6-/m0/s1
INCHIAUX=N/A
PUBMED=N/A
SUBMITUSER=mwang87
TAGS=
LIBRARYQUALITY=3
SPECTRUMID=CCMSLIB00000426374
SCANS=1346
106.877 100.0 
134.711 63.81 
END IONS

BEGIN IONS
PEPMASS=186.017
CHARGE=1+
MSLEVEL=2
SOURCE_INSTRUMENT=Positive-Quattro_QQQ:25eV
FILENAME=hmdb_intermediate.mgf
SEQ=*..*
IONMODE=Positive
ORGANISM=HMDB
NAME=HMDB:HMDB01721-1679 DL-O-Phosphoserine M+H
PI=HMDB
DATACOLLECTOR=HMDB
SMILES=NC(COP(O)(O)=O)C(O)=O
INCHI=InChI=1S/C3H8NO6P/c4-2(3(5)6)1-10-11(7,8)9/h2H,1,4H2,(H,5,6)(H2,7,8,9)
INCHIAUX=N/A
PUBMED=N/A
SUBMITUSER=mwang87
TAGS=
LIBRARYQUALITY=3
SPECTRUMID=CCMSLIB00000426375
SCANS=1347
70.37 100.0 
88.282 64.423 
END IONS

BEGIN IONS
PEPMASS=173.081
CHARGE=1+
MSLEVEL=2
SOURCE_INSTRUMENT=Negative-Quattro_QQQ:10eV
FILENAME=hmdb_intermediate.mgf
SEQ=*..*
IONMODE=Negative
ORGANISM=HMDB
NAME=HMDB:HMDB00893-1256 Suberic acid M-H
PI=HMDB
DATACOLLECTOR=HMDB
SMILES=OC(=O)CCCCCCC(O)=O
INCHI=InChI=1S/C8H14O4/c9-7(10)5-3-1-2-4-6-8(11)12/h1-6H2,(H,9,10)(H,11,12)
INCHIAUX=N/A
PUBMED=N/A
SUBMITUSER=mwang87
TAGS=
LIBRARYQUALITY=3
SPECTRUMID=CCMSLIB00000426376
SCANS=1348
172.955 100.0 
END IONS

BEGIN IONS
PEPMASS=189.124
CHARGE=1+
MSLEVEL=2
SOURCE_INSTRUMENT=Positive-Quattro_QQQ:10eV
FILENAME=hmdb_intermediate.mgf
SEQ=*..*
IONMODE=Positive
ORGANISM=HMDB
NAME=HMDB:HMDB00759-1089 Glycyl-L-leucine M+H
PI=HMDB
DATACOLLECTOR=HMDB
SMILES=CC(C)C[C@H](NC(=O)CN)C(O)=O
INCHI=InChI=1S/C8H16N2O3/c1-5(2)3-6(8(12)13)10-7(11)4-9/h5-6H,3-4,9H2,1-2H3,(H,10,11)(H,12,13)/t6-/m0/s1
INCHIAUX=N/A
PUBMED=N/A
SUBMITUSER=mwang87
TAGS=
LIBRARYQUALITY=3
SPECTRUMID=CCMSLIB00000426377
SCANS=1349
86.143 51.111 
132.036 89.444 
143.03 100.0 
END IONS

BEGIN IONS
PEPMASS=151.061
CHARGE=1+
MSLEVEL=2
SOURCE_INSTRUMENT=Positive-Quattro_QQQ:25eV
FILENAME=hmdb_intermediate.mgf
SEQ=*..*
IONMODE=Positive
ORGANISM=HMDB
NAME=HMDB:HMDB00098-154 D-Xylose M+H
PI=HMDB
DATACOLLECTOR=HMDB
SMILES=O[C@@H]1COC(O)[C@H](O)[C@H]1O
INCHI=InChI=1S/C5H10O5/c6-2-1-10-5(9)4(8)3(2)7/h2-9H,1H2/t2-,3+,4-,5?/m1/s1
INCHIAUX=N/A
PUBMED=N/A
SUBMITUSER=mwang87
TAGS=
LIBRARYQUALITY=3
SPECTRUMID=CCMSLIB00000426378
SCANS=1350
69.0 86.582 
87.0 100.0 
89.0 68.643 
101.0 59.622 
END IONS

BEGIN IONS
PEPMASS=141.092
CHARGE=1+
MSLEVEL=2
SOURCE_INSTRUMENT=Negative-Quattro_QQQ:40eV
FILENAME=hmdb_intermediate.mgf
SEQ=*..*
IONMODE=Negative
ORGANISM=HMDB
NAME=HMDB:HMDB01568-1656 trans-2-Octenoic acid M-H
PI=HMDB
DATACOLLECTOR=HMDB
SMILES=CCCCC\C=C\C(O)=O
INCHI=InChI=1S/C8H14O2/c1-2-3-4-5-6-7-8(9)10/h6-7H,2-5H2,1H3,(H,9,10)/b7-6+
INCHIAUX=N/A
PUBMED=N/A
SUBMITUSER=mwang87
TAGS=
LIBRARYQUALITY=3
SPECTRUMID=CCMSLIB00000426379
SCANS=1351
140.971 100.0 
END IONS

BEGIN IONS
PEPMASS=131.034
CHARGE=1+
MSLEVEL=2
SOURCE_INSTRUMENT=Negative-Quattro_QQQ:10eV
FILENAME=hmdb_intermediate.mgf
SEQ=*..*
IONMODE=Negative
ORGANISM=HMDB
NAME=HMDB:HMDB00576-806 Monoethyl malonic acid M-H
PI=HMDB
DATACOLLECTOR=HMDB
SMILES=CCOC(=O)CC(O)=O
INCHI=InChI=1S/C5H8O4/c1-2-9-5(8)3-4(6)7/h2-3H2,1H3,(H,6,7)
INCHIAUX=N/A
PUBMED=N/A
SUBMITUSER=mwang87
TAGS=
LIBRARYQUALITY=3
SPECTRUMID=CCMSLIB00000426380
SCANS=1352
41.673 100.0 
87.374 100.0 
END IONS

BEGIN IONS
PEPMASS=167.071
CHARGE=1+
MSLEVEL=2
SOURCE_INSTRUMENT=Positive-Quattro_QQQ:25eV
FILENAME=hmdb_intermediate.mgf
SEQ=*..*
IONMODE=Positive
ORGANISM=HMDB
NAME=HMDB:HMDB00748-1066 L-3-Phenyllactic acid M+H
PI=HMDB
DATACOLLECTOR=HMDB
SMILES=O[C@H](CC1=CC=CC=C1)C(O)=O
INCHI=InChI=1S/C9H10O3/c10-8(9(11)12)6-7-4-2-1-3-5-7/h1-5,8,10H,6H2,(H,11,12)/t8-/m1/s1
INCHIAUX=N/A
PUBMED=N/A
SUBMITUSER=mwang87
TAGS=
LIBRARYQUALITY=3
SPECTRUMID=CCMSLIB00000426381
SCANS=1353
79.432 86.564 
83.096 80.98 
84.485 72.628 
84.864 53.498 
103.181 100.0 
103.56 86.948 
END IONS

BEGIN IONS
PEPMASS=122.097
CHARGE=1+
MSLEVEL=2
SOURCE_INSTRUMENT=Positive-Quattro_QQQ:10eV
FILENAME=hmdb_intermediate.mgf
SEQ=*..*
IONMODE=Positive
ORGANISM=HMDB
NAME=HMDB:HMDB01020-1390 N,N-Dimethylaniline M+H
PI=HMDB
DATACOLLECTOR=HMDB
SMILES=CN(C)C1=CC=CC=C1
INCHI=InChI=1S/C8H11N/c1-9(2)8-6-4-3-5-7-8/h3-7H,1-2H3
INCHIAUX=N/A
PUBMED=N/A
SUBMITUSER=mwang87
TAGS=
LIBRARYQUALITY=3
SPECTRUMID=CCMSLIB00000426382
SCANS=1354
122.0 100.0 
END IONS

BEGIN IONS
PEPMASS=313.238
CHARGE=1+
MSLEVEL=2
SOURCE_INSTRUMENT=Negative-Quattro_QQQ:25eV
FILENAME=hmdb_intermediate.mgf
SEQ=*..*
IONMODE=Negative
ORGANISM=HMDB
NAME=HMDB:HMDB00782-1114 Octadecanedioic acid M-H
PI=HMDB
DATACOLLECTOR=HMDB
SMILES=OC(=O)CCCCCCCCCCCCCCCCC(O)=O
INCHI=InChI=1S/C18H34O4/c19-17(20)15-13-11-9-7-5-3-1-2-4-6-8-10-12-14-16-18(21)22/h1-16H2,(H,19,20)(H,21,22)
INCHIAUX=N/A
PUBMED=N/A
SUBMITUSER=mwang87
TAGS=
LIBRARYQUALITY=3
SPECTRUMID=CCMSLIB00000426383
SCANS=1355
251.0 100.0 
END IONS

BEGIN IONS
PEPMASS=162.04
CHARGE=1+
MSLEVEL=2
SOURCE_INSTRUMENT=Positive-Quattro_QQQ:10eV
FILENAME=hmdb_intermediate.mgf
SEQ=*..*
IONMODE=Positive
ORGANISM=HMDB
NAME=HMDB:HMDB02467-2110 A-Ketoglutaric acid oxime M+H
PI=HMDB
DATACOLLECTOR=HMDB
SMILES=O\N=C(/CCC(O)=O)C(O)=O
INCHI=InChI=1S/C5H7NO5/c7-4(8)2-1-3(6-11)5(9)10/h11H,1-2H2,(H,7,8)(H,9,10)/b6-3+
INCHIAUX=N/A
PUBMED=N/A
SUBMITUSER=mwang87
TAGS=
LIBRARYQUALITY=3
SPECTRUMID=CCMSLIB00000426384
SCANS=1356
161.44 84.591 
161.55 100.0 
END IONS

BEGIN IONS
PEPMASS=123.066
CHARGE=1+
MSLEVEL=2
SOURCE_INSTRUMENT=Positive-Quattro_QQQ:40eV
FILENAME=hmdb_intermediate.mgf
SEQ=*..*
IONMODE=Positive
ORGANISM=HMDB
NAME=HMDB:HMDB02994-2181 Erythritol M+H
PI=HMDB
DATACOLLECTOR=HMDB
SMILES=OC[C@H](O)[C@H](O)CO
INCHI=InChI=1S/C4H10O4/c5-1-3(7)4(8)2-6/h3-8H,1-2H2/t3-,4+
INCHIAUX=N/A
PUBMED=N/A
SUBMITUSER=mwang87
TAGS=
LIBRARYQUALITY=3
SPECTRUMID=CCMSLIB00000426385
SCANS=1357
31.0 61.865 
39.0 57.189 
41.0 89.735 
43.0 100.0 
44.0 57.844 
57.0 56.298 
77.0 76.354 
END IONS

BEGIN IONS
PEPMASS=152.108
CHARGE=1+
MSLEVEL=2
SOURCE_INSTRUMENT=Positive-Quattro_QQQ:25eV
FILENAME=hmdb_intermediate.mgf
SEQ=*..*
IONMODE=Positive
ORGANISM=HMDB
NAME=HMDB:HMDB01942-1900 Phenylpropanolamine M+H
PI=HMDB
DATACOLLECTOR=HMDB
SMILES=C[C@@H](N)[C@@H](O)C1=CC=CC=C1
INCHI=InChI=1S/C9H13NO/c1-7(10)9(11)8-5-3-2-4-6-8/h2-7,9,11H,10H2,1H3/t7-,9-/m1/s1
INCHIAUX=N/A
PUBMED=N/A
SUBMITUSER=mwang87
TAGS=
LIBRARYQUALITY=3
SPECTRUMID=CCMSLIB00000426386
SCANS=1358
92.875 100.0 
119.396 61.111 
129.051 94.444 
159.095 51.389 
END IONS

BEGIN IONS
PEPMASS=195.066
CHARGE=1+
MSLEVEL=2
SOURCE_INSTRUMENT=Negative-Quattro_QQQ:25eV
FILENAME=hmdb_intermediate.mgf
SEQ=*..*
IONMODE=Negative
ORGANISM=HMDB
NAME=HMDB:HMDB00434-636 Homoveratric acid M-H
PI=HMDB
DATACOLLECTOR=HMDB
SMILES=COC1=CC=C(CC(O)=O)C=C1OC
INCHI=InChI=1S/C10H12O4/c1-13-8-4-3-7(6-10(11)12)5-9(8)14-2/h3-5H,6H2,1-2H3,(H,11,12)
INCHIAUX=N/A
PUBMED=N/A
SUBMITUSER=mwang87
TAGS=
LIBRARYQUALITY=3
SPECTRUMID=CCMSLIB00000426387
SCANS=1359
121.213 100.0 
END IONS

BEGIN IONS
PEPMASS=411.399
CHARGE=1+
MSLEVEL=2
SOURCE_INSTRUMENT=Positive-Quattro_QQQ:10eV
FILENAME=hmdb_intermediate.mgf
SEQ=*..*
IONMODE=Positive
ORGANISM=HMDB
NAME=HMDB:HMDB00256-442 Squalene M+H
PI=HMDB
DATACOLLECTOR=HMDB
SMILES=CC(C)=CCC\C(C)=C/CC\C(C)=C\CC\C=C(/C)CC\C=C(/C)CCC=C(C)C
INCHI=InChI=1S/C30H50/c1-25(2)15-11-19-29(7)23-13-21-27(5)17-9-10-18-28(6)22-14-24-30(8)20-12-16-26(3)4/h15-18,23-24H,9-14,19-22H2,1-8H3/b27-17+,28-18+,29-23-,30-24+
INCHIAUX=N/A
PUBMED=N/A
SUBMITUSER=mwang87
TAGS=
LIBRARYQUALITY=3
SPECTRUMID=CCMSLIB00000426388
SCANS=1360
123.817 68.824 
139.651 56.471 
176.475 73.529 
382.254 61.176 
411.236 100.0 
END IONS

BEGIN IONS
PEPMASS=397.405
CHARGE=1+
MSLEVEL=2
SOURCE_INSTRUMENT=Positive-Quattro_QQQ:25eV
FILENAME=hmdb_intermediate.mgf
SEQ=*..*
IONMODE=Positive
ORGANISM=HMDB
NAME=HMDB:HMDB02356-2077 Hexacosanoic acid M+H
PI=HMDB
DATACOLLECTOR=HMDB
SMILES=CCCCCCCCCCCCCCCCCCCCCCCCCC(O)=O
INCHI=InChI=1S/C26H52O2/c1-2-3-4-5-6-7-8-9-10-11-12-13-14-15-16-17-18-19-20-21-22-23-24-25-26(27)28/h2-25H2,1H3,(H,27,28)
INCHIAUX=N/A
PUBMED=N/A
SUBMITUSER=mwang87
TAGS=
LIBRARYQUALITY=3
SPECTRUMID=CCMSLIB00000426389
SCANS=1361
73.48 94.77 
103.03 67.222 
209.62 68.558 
227.77 69.726 
252.45 85.708 
294.19 92.585 
298.87 78.641 
307.25 67.235 
309.42 100.0 
END IONS

BEGIN IONS
PEPMASS=149.081
CHARGE=1+
MSLEVEL=2
SOURCE_INSTRUMENT=Positive-Quattro_QQQ:25eV
FILENAME=hmdb_intermediate.mgf
SEQ=*..*
IONMODE=Positive
ORGANISM=HMDB
NAME=HMDB:HMDB00227-377 Mevalonic acid M+H
PI=HMDB
DATACOLLECTOR=HMDB
SMILES=CC(O)(CCO)CC(O)=O
INCHI=InChI=1S/C6H12O4/c1-6(10,2-3-7)4-5(8)9/h7,10H,2-4H2,1H3,(H,8,9)
INCHIAUX=N/A
PUBMED=N/A
SUBMITUSER=mwang87
TAGS=
LIBRARYQUALITY=3
SPECTRUMID=CCMSLIB00000426390
SCANS=1362
66.968 100.0 
67.577 58.73 
END IONS

BEGIN IONS
PEPMASS=122.061
CHARGE=1+
MSLEVEL=2
SOURCE_INSTRUMENT=Positive-Quattro_QQQ:40eV
FILENAME=hmdb_intermediate.mgf
SEQ=*..*
IONMODE=Positive
ORGANISM=HMDB
NAME=HMDB:HMDB04461-2390 Benzamide M+H
PI=HMDB
DATACOLLECTOR=HMDB
SMILES=NC(=O)C1=CC=CC=C1
INCHI=InChI=1S/C7H7NO/c8-7(9)6-4-2-1-3-5-6/h1-5H,(H2,8,9)
INCHIAUX=N/A
PUBMED=N/A
SUBMITUSER=mwang87
TAGS=
LIBRARYQUALITY=3
SPECTRUMID=CCMSLIB00000426391
SCANS=1363
51.064 95.033 
76.925 100.0 
END IONS

BEGIN IONS
PEPMASS=330.06
CHARGE=1+
MSLEVEL=2
SOURCE_INSTRUMENT=Positive-Quattro_QQQ:40eV
FILENAME=hmdb_intermediate.mgf
SEQ=*..*
IONMODE=Positive
ORGANISM=HMDB
NAME=HMDB:HMDB00058-95 Cyclic AMP M+H
PI=HMDB
DATACOLLECTOR=HMDB
SMILES=NC1=NC=NC2=C1N=CN2[C@@H]1O[C@@H]2COP(O)(=O)O[C@H]2[C@H]1O
INCHI=InChI=1S/C10H12N5O6P/c11-8-5-9(13-2-12-8)15(3-14-5)10-6(16)7-4(20-10)1-19-22(17,18)21-7/h2-4,6-7,10,16H,1H2,(H,17,18)(H2,11,12,13)/t4-,6-,7-,10-/m1/s1
INCHIAUX=N/A
PUBMED=N/A
SUBMITUSER=mwang87
TAGS=
LIBRARYQUALITY=3
SPECTRUMID=CCMSLIB00000426392
SCANS=1364
329.84 100.0 
END IONS

BEGIN IONS
PEPMASS=74.0718
CHARGE=1+
MSLEVEL=2
SOURCE_INSTRUMENT=Positive-Quattro_QQQ:10eV
FILENAME=hmdb_intermediate.mgf
SEQ=*..*
IONMODE=Positive
ORGANISM=HMDB
NAME=HMDB:HMDB01522-1622 Methylguanidine M+H
PI=HMDB
DATACOLLECTOR=HMDB
SMILES=CNC(N)=N
INCHI=InChI=1S/C2H7N3/c1-5-2(3)4/h1H3,(H4,3,4,5)
INCHIAUX=N/A
PUBMED=N/A
SUBMITUSER=mwang87
TAGS=
LIBRARYQUALITY=3
SPECTRUMID=CCMSLIB00000426393
SCANS=1365
57.2 58.333 
74.12 100.0 
END IONS

BEGIN IONS
PEPMASS=56.9673
CHARGE=1+
MSLEVEL=2
SOURCE_INSTRUMENT=Negative-Quattro_QQQ:40eV
FILENAME=hmdb_intermediate.mgf
SEQ=*..*
IONMODE=Negative
ORGANISM=HMDB
NAME=HMDB:HMDB01453-1585 Thiocyanate M-H
PI=HMDB
DATACOLLECTOR=HMDB
SMILES=[S-]C#N
INCHI=InChI=1S/CHNS/c2-1-3/h3H/p-1
INCHIAUX=N/A
PUBMED=N/A
SUBMITUSER=mwang87
TAGS=
LIBRARYQUALITY=3
SPECTRUMID=CCMSLIB00000426394
SCANS=1366
57.0 100.0 
58.0 66.895 
END IONS

BEGIN IONS
PEPMASS=103.003
CHARGE=1+
MSLEVEL=2
SOURCE_INSTRUMENT=Negative-Quattro_QQQ:25eV
FILENAME=hmdb_intermediate.mgf
SEQ=*..*
IONMODE=Negative
ORGANISM=HMDB
NAME=HMDB:HMDB00691-959 Malonic acid M-H
PI=HMDB
DATACOLLECTOR=HMDB
SMILES=OC(=O)CC(O)=O
INCHI=InChI=1S/C3H4O4/c4-2(5)1-3(6)7/h1H2,(H,4,5)(H,6,7)
INCHIAUX=N/A
PUBMED=N/A
SUBMITUSER=mwang87
TAGS=
LIBRARYQUALITY=3
SPECTRUMID=CCMSLIB00000426395
SCANS=1367
41.617 80.723 
59.402 100.0 
END IONS

BEGIN IONS
PEPMASS=147.045
CHARGE=1+
MSLEVEL=2
SOURCE_INSTRUMENT=Positive-Quattro_QQQ:40eV
FILENAME=hmdb_intermediate.mgf
SEQ=*..*
IONMODE=Positive
ORGANISM=HMDB
NAME=HMDB:HMDB02359-2081 Phenylpropiolic acid M+H
PI=HMDB
DATACOLLECTOR=HMDB
SMILES=OC(=O)C#CC1=CC=CC=C1
INCHI=InChI=1S/C9H6O2/c10-9(11)7-6-8-4-2-1-3-5-8/h1-5H,(H,10,11)
INCHIAUX=N/A
PUBMED=N/A
SUBMITUSER=mwang87
TAGS=
LIBRARYQUALITY=3
SPECTRUMID=CCMSLIB00000426396
SCANS=1368
51.0 56.861 
75.0 82.858 
77.0 100.0 
END IONS

BEGIN IONS
PEPMASS=32.05
CHARGE=1+
MSLEVEL=2
SOURCE_INSTRUMENT=Positive-Quattro_QQQ:10eV
FILENAME=hmdb_intermediate.mgf
SEQ=*..*
IONMODE=Positive
ORGANISM=HMDB
NAME=HMDB:HMDB60291-260 Methylammonium M+H
PI=HMDB
DATACOLLECTOR=HMDB
SMILES=CN
INCHI=InChI=1S/CH5N/c1-2/h2H2,1H3
INCHIAUX=N/A
PUBMED=N/A
SUBMITUSER=mwang87
TAGS=
LIBRARYQUALITY=3
SPECTRUMID=CCMSLIB00000426397
SCANS=1369
32.0 100.0 
END IONS

BEGIN IONS
PEPMASS=149.081
CHARGE=1+
MSLEVEL=2
SOURCE_INSTRUMENT=Positive-Quattro_QQQ:10eV
FILENAME=hmdb_intermediate.mgf
SEQ=*..*
IONMODE=Positive
ORGANISM=HMDB
NAME=HMDB:HMDB00227-376 Mevalonic acid M+H
PI=HMDB
DATACOLLECTOR=HMDB
SMILES=CC(O)(CCO)CC(O)=O
INCHI=InChI=1S/C6H12O4/c1-6(10,2-3-7)4-5(8)9/h7,10H,2-4H2,1H3,(H,8,9)
INCHIAUX=N/A
PUBMED=N/A
SUBMITUSER=mwang87
TAGS=
LIBRARYQUALITY=3
SPECTRUMID=CCMSLIB00000426398
SCANS=1370
148.91 100.0 
END IONS

BEGIN IONS
PEPMASS=162.092
CHARGE=1+
MSLEVEL=2
SOURCE_INSTRUMENT=Positive-Quattro_QQQ:40eV
FILENAME=hmdb_intermediate.mgf
SEQ=*..*
IONMODE=Positive
ORGANISM=HMDB
NAME=HMDB:HMDB03447-2315 Tryptophanol M+H
PI=HMDB
DATACOLLECTOR=HMDB
SMILES=OCCC1=CNC2=CC=CC=C12
INCHI=InChI=1S/C10H11NO/c12-6-5-8-7-11-10-4-2-1-3-9(8)10/h1-4,7,11-12H,5-6H2
INCHIAUX=N/A
PUBMED=N/A
SUBMITUSER=mwang87
TAGS=
LIBRARYQUALITY=3
SPECTRUMID=CCMSLIB00000426399
SCANS=1371
77.0 65.047 
90.0 61.587 
91.0 69.88 
115.0 100.0 
117.0 65.221 
130.0 87.394 
END IONS

BEGIN IONS
PEPMASS=263.023
CHARGE=1+
MSLEVEL=2
SOURCE_INSTRUMENT=Negative-Quattro_QQQ:40eV
FILENAME=hmdb_intermediate.mgf
SEQ=*..*
IONMODE=Negative
ORGANISM=HMDB
NAME=HMDB:HMDB03332-2250 3-Methoxy-4-Hydroxyphenylglycol sulfate M-H
PI=HMDB
DATACOLLECTOR=HMDB
SMILES=COC1=C(O)C=CC(=C1)C(CO)OS(O)(=O)=O
INCHI=InChI=1S/C9H12O7S/c1-15-8-4-6(2-3-7(8)11)9(5-10)16-17(12,13)14/h2-4,9-11H,5H2,1H3,(H,12,13,14)
INCHIAUX=N/A
PUBMED=N/A
SUBMITUSER=mwang87
TAGS=
LIBRARYQUALITY=3
SPECTRUMID=CCMSLIB00000426400
SCANS=1372
120.0 100.0 
END IONS

BEGIN IONS
PEPMASS=162.972
CHARGE=1+
MSLEVEL=2
SOURCE_INSTRUMENT=Positive-Quattro_QQQ:10eV
FILENAME=hmdb_intermediate.mgf
SEQ=*..*
IONMODE=Positive
ORGANISM=HMDB
NAME=HMDB:HMDB04811-2400 2,4-Dichlorophenol M+H
PI=HMDB
DATACOLLECTOR=HMDB
SMILES=OC1=CC=C(Cl)C=C1Cl
INCHI=InChI=1S/C6H4Cl2O/c7-4-1-2-6(9)5(8)3-4/h1-3,9H
INCHIAUX=N/A
PUBMED=N/A
SUBMITUSER=mwang87
TAGS=
LIBRARYQUALITY=3
SPECTRUMID=CCMSLIB00000426401
SCANS=1373
105.0 54.123 
163.0 100.0 
164.0 51.041 
END IONS

BEGIN IONS
PEPMASS=385.347
CHARGE=1+
MSLEVEL=2
SOURCE_INSTRUMENT=Positive-Quattro_QQQ:10eV
FILENAME=hmdb_intermediate.mgf
SEQ=*..*
IONMODE=Positive
ORGANISM=HMDB
NAME=HMDB:HMDB00032-51 7-Dehydrocholesterol M+H
PI=HMDB
DATACOLLECTOR=HMDB
SMILES=[H][C@@]12CC[C@H]([C@H](C)CCCC(C)C)[C@@]1(C)CC[C@@]1([H])C2=CC=C2C[C@@H](O)CC[C@]12C
INCHI=InChI=1S/C27H44O/c1-18(2)7-6-8-19(3)23-11-12-24-22-10-9-20-17-21(28)13-15-26(20,4)25(22)14-16-27(23,24)5/h9-10,18-19,21,23-25,28H,6-8,11-17H2,1-5H3/t19-,21+,23-,24+,25+,26+,27-/m1/s1
INCHIAUX=N/A
PUBMED=N/A
SUBMITUSER=mwang87
TAGS=
LIBRARYQUALITY=3
SPECTRUMID=CCMSLIB00000426402
SCANS=1374
385.31 100.0 
END IONS

BEGIN IONS
PEPMASS=1347.58
CHARGE=1+
MSLEVEL=2
SOURCE_INSTRUMENT=Positive-Quattro_QQQ:10eV
FILENAME=hmdb_intermediate.mgf
SEQ=*..*
IONMODE=Positive
ORGANISM=HMDB
NAME=HMDB:HMDB02308-2052 Hydroxycobalamin M+H
PI=HMDB
DATACOLLECTOR=HMDB
SMILES=[Co++].O.OC[C@H]1O[C@@]([H])([C@H](O)[C@]1([H])OP(=O)([O-])O[C@H](C)CNC(=O)CC[C@]1(C)[C@@H](CC(=O)N)[C@@]2([H])[N-]\C1=C(C)/C1=N/C(=C\C3=N\C(=C(C)/C4=N[C@]2(C)[C@@](C)(CC(=O)N)[C@@H]4CCC(=O)N)\[C@@](C)(CC(=O)N)[C@@H]3CCC(=O)N)/C(C)(C)[C@@H]1CCC(=O)N)N1C=NC2=C1C=C(C)C(C)=C2
INCHI=InChI=1S/C62H90N13O14P.Co.H2O/c1-29-20-39-40(21-30(29)2)75(28-70-39)57-52(84)53(41(27-76)87-57)89-90(85,86)88-31(3)26-69-49(83)18-19-59(8)37(22-46(66)80)56-62(11)61(10,25-48(68)82)36(14-17-45(65)79)51(74-62)33(5)55-60(9,24-47(67)81)34(12-15-43(63)77)38(71-55)23-42-58(6,7)35(13-16-44(64)78)50(72-42)32(4)54(59)73-56;;/h20-21,23,28,31,34-37,41,52-53,56-57,76,84H,12-19,22,24-27H2,1-11H3,(H15,63,64,65,66,67,68,69,71,72,73,74,77,78,79,80,81,82,83,85,86);;1H2/q;+2;/p-2/t31-,34-,35-,36-,37+,41-,52-,53-,56-,57+,59-,60+,61+,62+;;/m1../s1
INCHIAUX=N/A
PUBMED=N/A
SUBMITUSER=mwang87
TAGS=
LIBRARYQUALITY=3
SPECTRUMID=CCMSLIB00000426403
SCANS=1375
988.0 59.464 
989.0 100.0 
1202.0 64.519 
END IONS

BEGIN IONS
PEPMASS=343.124
CHARGE=1+
MSLEVEL=2
SOURCE_INSTRUMENT=Positive-Quattro_QQQ:40eV
FILENAME=hmdb_intermediate.mgf
SEQ=*..*
IONMODE=Positive
ORGANISM=HMDB
NAME=HMDB:HMDB00258-450 Sucrose M+H
PI=HMDB
DATACOLLECTOR=HMDB
SMILES=OC[C@H]1O[C@@](CO)(O[C@H]2O[C@H](CO)[C@@H](O)[C@H](O)[C@H]2O)[C@@H](O)[C@@H]1O
INCHI=InChI=1S/C12H22O11/c13-1-4-6(16)8(18)9(19)11(21-4)23-12(3-15)10(20)7(17)5(2-14)22-12/h4-11,13-20H,1-3H2/t4-,5-,6-,7-,8+,9-,10+,11-,12+/m1/s1
INCHIAUX=N/A
PUBMED=N/A
SUBMITUSER=mwang87
TAGS=
LIBRARYQUALITY=3
SPECTRUMID=CCMSLIB00000426404
SCANS=1376
85.075 100.0 
END IONS

BEGIN IONS
PEPMASS=138.055
CHARGE=1+
MSLEVEL=2
SOURCE_INSTRUMENT=Positive-Quattro_QQQ:10eV
FILENAME=hmdb_intermediate.mgf
SEQ=*..*
IONMODE=Positive
ORGANISM=HMDB
NAME=HMDB:HMDB01538-1634 3-Pyridylacetic acid M+H
PI=HMDB
DATACOLLECTOR=HMDB
SMILES=OC(=O)CC1=CN=CC=C1
INCHI=InChI=1S/C7H7NO2/c9-7(10)4-6-2-1-3-8-5-6/h1-3,5H,4H2,(H,9,10)
INCHIAUX=N/A
PUBMED=N/A
SUBMITUSER=mwang87
TAGS=
LIBRARYQUALITY=3
SPECTRUMID=CCMSLIB00000426405
SCANS=1377
138.0 100.0 
END IONS

BEGIN IONS
PEPMASS=197.045
CHARGE=1+
MSLEVEL=2
SOURCE_INSTRUMENT=Negative-Quattro_QQQ:10eV
FILENAME=hmdb_intermediate.mgf
SEQ=*..*
IONMODE=Negative
ORGANISM=HMDB
NAME=HMDB:HMDB00291-492 Vanillylmandelic acid M-H
PI=HMDB
DATACOLLECTOR=HMDB
SMILES=COC1=C(O)C=CC(=C1)[C@H](O)C(O)=O
INCHI=InChI=1S/C9H10O5/c1-14-7-4-5(2-3-6(7)10)8(11)9(12)13/h2-4,8,10-11H,1H3,(H,12,13)/t8-/m0/s1
INCHIAUX=N/A
PUBMED=N/A
SUBMITUSER=mwang87
TAGS=
LIBRARYQUALITY=3
SPECTRUMID=CCMSLIB00000426406
SCANS=1378
137.927 78.808 
197.078 100.0 
END IONS

BEGIN IONS
PEPMASS=183.087
CHARGE=1+
MSLEVEL=2
SOURCE_INSTRUMENT=Positive-Quattro_QQQ:40eV
FILENAME=hmdb_intermediate.mgf
SEQ=*..*
IONMODE=Positive
ORGANISM=HMDB
NAME=HMDB:HMDB00765-1103 Mannitol M+H
PI=HMDB
DATACOLLECTOR=HMDB
SMILES=OC[C@@H](O)[C@@H](O)[C@H](O)[C@H](O)CO
INCHI=InChI=1S/C6H14O6/c7-1-3(9)5(11)6(12)4(10)2-8/h3-12H,1-2H2/t3-,4-,5-,6-/m1/s1
INCHIAUX=N/A
PUBMED=N/A
SUBMITUSER=mwang87
TAGS=
LIBRARYQUALITY=3
SPECTRUMID=CCMSLIB00000426407
SCANS=1379
41.379 50.743 
43.33 100.0 
57.227 53.218 
61.193 54.455 
69.148 77.228 
END IONS

BEGIN IONS
PEPMASS=210.077
CHARGE=1+
MSLEVEL=2
SOURCE_INSTRUMENT=Positive-Quattro_QQQ:40eV
FILENAME=hmdb_intermediate.mgf
SEQ=*..*
IONMODE=Positive
ORGANISM=HMDB
NAME=HMDB:HMDB00735-1043 Hydroxyphenylacetylglycine M+H
PI=HMDB
DATACOLLECTOR=HMDB
SMILES=OC(=O)CNC(=O)CC1=CC=C(O)C=C1
INCHI=InChI=1S/C10H11NO4/c12-8-3-1-7(2-4-8)5-9(13)11-6-10(14)15/h1-4,12H,5-6H2,(H,11,13)(H,14,15)
INCHIAUX=N/A
PUBMED=N/A
SUBMITUSER=mwang87
TAGS=
LIBRARYQUALITY=3
SPECTRUMID=CCMSLIB00000426408
SCANS=1380
76.0 61.458 
106.0 100.0 
END IONS

BEGIN IONS
PEPMASS=525.901
CHARGE=1+
MSLEVEL=2
SOURCE_INSTRUMENT=Positive-Quattro_QQQ:10eV
FILENAME=hmdb_intermediate.mgf
SEQ=*..*
IONMODE=Positive
ORGANISM=HMDB
NAME=HMDB:HMDB00582-810 3,5-Diiodothyronine M+H
PI=HMDB
DATACOLLECTOR=HMDB
SMILES=NC(CC1=CC(I)=C(OC2=CC=C(O)C=C2)C(I)=C1)C(O)=O
INCHI=InChI=1S/C15H13I2NO4/c16-11-5-8(7-13(18)15(20)21)6-12(17)14(11)22-10-3-1-9(19)2-4-10/h1-6,13,19H,7,18H2,(H,20,21)
INCHIAUX=N/A
PUBMED=N/A
SUBMITUSER=mwang87
TAGS=
LIBRARYQUALITY=3
SPECTRUMID=CCMSLIB00000426409
SCANS=1381
525.96 100.0 
END IONS

BEGIN IONS
PEPMASS=147.113
CHARGE=1+
MSLEVEL=2
SOURCE_INSTRUMENT=Positive-Quattro_QQQ:25eV
FILENAME=hmdb_intermediate.mgf
SEQ=*..*
IONMODE=Positive
ORGANISM=HMDB
NAME=HMDB:HMDB00182-290 L-Lysine M+H
PI=HMDB
DATACOLLECTOR=HMDB
SMILES=NCCCC[C@H](N)C(O)=O
INCHI=InChI=1S/C6H14N2O2/c7-4-2-1-3-5(8)6(9)10/h5H,1-4,7-8H2,(H,9,10)/t5-/m0/s1
INCHIAUX=N/A
PUBMED=N/A
SUBMITUSER=mwang87
TAGS=
LIBRARYQUALITY=3
SPECTRUMID=CCMSLIB00000426410
SCANS=1382
84.101 100.0 
END IONS

BEGIN IONS
PEPMASS=89.0239
CHARGE=1+
MSLEVEL=2
SOURCE_INSTRUMENT=Negative-Quattro_QQQ:10eV
FILENAME=hmdb_intermediate.mgf
SEQ=*..*
IONMODE=Negative
ORGANISM=HMDB
NAME=HMDB:HMDB01311-1513 D-Lactic acid M-H
PI=HMDB
DATACOLLECTOR=HMDB
SMILES=C[C@@H](O)C(O)=O
INCHI=InChI=1S/C3H6O3/c1-2(4)3(5)6/h2,4H,1H3,(H,5,6)/t2-/m1/s1
INCHIAUX=N/A
PUBMED=N/A
SUBMITUSER=mwang87
TAGS=
LIBRARYQUALITY=3
SPECTRUMID=CCMSLIB00000426411
SCANS=1383
89.0 100.0 
END IONS

BEGIN IONS
PEPMASS=165.076
CHARGE=1+
MSLEVEL=2
SOURCE_INSTRUMENT=Positive-Quattro_QQQ:40eV
FILENAME=hmdb_intermediate.mgf
SEQ=*..*
IONMODE=Positive
ORGANISM=HMDB
NAME=HMDB:HMDB02712-2127 1,5-Anhydrosorbitol M+H
PI=HMDB
DATACOLLECTOR=HMDB
SMILES=OC[C@H]1OC[C@H](O)[C@@H](O)[C@@H]1O
INCHI=InChI=1S/C6H12O5/c7-1-4-6(10)5(9)3(8)2-11-4/h3-10H,1-2H2/t3-,4+,5+,6+/m0/s1
INCHIAUX=N/A
PUBMED=N/A
SUBMITUSER=mwang87
TAGS=
LIBRARYQUALITY=3
SPECTRUMID=CCMSLIB00000426412
SCANS=1384
69.0 100.0 
END IONS

BEGIN IONS
PEPMASS=464.301
CHARGE=1+
MSLEVEL=2
SOURCE_INSTRUMENT=Negative-Quattro_QQQ:10eV
FILENAME=hmdb_intermediate.mgf
SEQ=*..*
IONMODE=Negative
ORGANISM=HMDB
NAME=HMDB:HMDB00138-209 Glycocholic acid M-H
PI=HMDB
DATACOLLECTOR=HMDB
SMILES=[H][C@@]12CC[C@H]([C@H](C)CCC(=O)NCC(O)=O)[C@@]1(C)[C@@H](O)C[C@@]1([H])[C@@]2([H])[C@H](O)CC2C[C@H](O)CC[C@]12C
INCHI=InChI=1S/C26H43NO6/c1-14(4-7-22(31)27-13-23(32)33)17-5-6-18-24-19(12-21(30)26(17,18)3)25(2)9-8-16(28)10-15(25)11-20(24)29/h14-21,24,28-30H,4-13H2,1-3H3,(H,27,31)(H,32,33)/t14-,15?,16-,17-,18+,19+,20-,21+,24+,25+,26-/m1/s1
INCHIAUX=N/A
PUBMED=N/A
SUBMITUSER=mwang87
TAGS=
LIBRARYQUALITY=3
SPECTRUMID=CCMSLIB00000426413
SCANS=1385
464.352 100.0 
END IONS

BEGIN IONS
PEPMASS=133.061
CHARGE=1+
MSLEVEL=2
SOURCE_INSTRUMENT=Positive-Quattro_QQQ:25eV
FILENAME=hmdb_intermediate.mgf
SEQ=*..*
IONMODE=Positive
ORGANISM=HMDB
NAME=HMDB:HMDB00026-46 Ureidopropionic acid M+H
PI=HMDB
DATACOLLECTOR=HMDB
SMILES=NC(=O)NCCC(O)=O
INCHI=InChI=1S/C4H8N2O3/c5-4(9)6-2-1-3(7)8/h1-2H2,(H,7,8)(H3,5,6,9)
INCHIAUX=N/A
PUBMED=N/A
SUBMITUSER=mwang87
TAGS=
LIBRARYQUALITY=3
SPECTRUMID=CCMSLIB00000426414
SCANS=1386
55.226 66.667 
72.176 100.0 
73.23 83.333 
END IONS

BEGIN IONS
PEPMASS=198.077
CHARGE=1+
MSLEVEL=2
SOURCE_INSTRUMENT=Positive-Quattro_QQQ:10eV
FILENAME=hmdb_intermediate.mgf
SEQ=*..*
IONMODE=Positive
ORGANISM=HMDB
NAME=HMDB:HMDB00609-825 DL-Dopa M+H
PI=HMDB
DATACOLLECTOR=HMDB
SMILES=NC(CC1=CC=C(O)C(O)=C1)C(O)=O
INCHI=InChI=1S/C9H11NO4/c10-6(9(13)14)3-5-1-2-7(11)8(12)4-5/h1-2,4,6,11-12H,3,10H2,(H,13,14)
INCHIAUX=N/A
PUBMED=N/A
SUBMITUSER=mwang87
TAGS=
LIBRARYQUALITY=3
SPECTRUMID=CCMSLIB00000426415
SCANS=1387
151.951 100.0 
180.904 70.866 
END IONS

BEGIN IONS
PEPMASS=106.087
CHARGE=1+
MSLEVEL=2
SOURCE_INSTRUMENT=Positive-Quattro_QQQ:40eV
FILENAME=hmdb_intermediate.mgf
SEQ=*..*
IONMODE=Positive
ORGANISM=HMDB
NAME=HMDB:HMDB04437-2387 Diethanolamine M+H
PI=HMDB
DATACOLLECTOR=HMDB
SMILES=OCCNCCO
INCHI=InChI=1S/C4H11NO2/c6-3-1-5-2-4-7/h5-7H,1-4H2
INCHIAUX=N/A
PUBMED=N/A
SUBMITUSER=mwang87
TAGS=
LIBRARYQUALITY=3
SPECTRUMID=CCMSLIB00000426416
SCANS=1388
45.0 100.0 
END IONS

BEGIN IONS
PEPMASS=175.061
CHARGE=1+
MSLEVEL=2
SOURCE_INSTRUMENT=Positive-Quattro_QQQ:10eV
FILENAME=hmdb_intermediate.mgf
SEQ=*..*
IONMODE=Positive
ORGANISM=HMDB
NAME=HMDB:HMDB03070-2188 Shikimic acid M+H
PI=HMDB
DATACOLLECTOR=HMDB
SMILES=O[C@@H]1CC(=C[C@@H](O)[C@H]1O)C(O)=O
INCHI=InChI=1S/C7H10O5/c8-4-1-3(7(11)12)2-5(9)6(4)10/h1,4-6,8-10H,2H2,(H,11,12)/t4-,5-,6-/m1/s1
INCHIAUX=N/A
PUBMED=N/A
SUBMITUSER=mwang87
TAGS=
LIBRARYQUALITY=3
SPECTRUMID=CCMSLIB00000426417
SCANS=1389
129.0 100.0 
157.0 62.045 
175.0 56.588 
END IONS

BEGIN IONS
PEPMASS=151.04
CHARGE=1+
MSLEVEL=2
SOURCE_INSTRUMENT=Negative-Quattro_QQQ:40eV
FILENAME=hmdb_intermediate.mgf
SEQ=*..*
IONMODE=Negative
ORGANISM=HMDB
NAME=HMDB:HMDB00440-643 3-Hydroxyphenylacetic acid M-H
PI=HMDB
DATACOLLECTOR=HMDB
SMILES=OC(=O)CC1=CC=CC(O)=C1
INCHI=InChI=1S/C8H8O3/c9-7-3-1-2-6(4-7)5-8(10)11/h1-4,9H,5H2,(H,10,11)
INCHIAUX=N/A
PUBMED=N/A
SUBMITUSER=mwang87
TAGS=
LIBRARYQUALITY=3
SPECTRUMID=CCMSLIB00000426418
SCANS=1390
65.403 100.0 
107.004 59.091 
END IONS

BEGIN IONS
PEPMASS=153.041
CHARGE=1+
MSLEVEL=2
SOURCE_INSTRUMENT=Positive-Quattro_QQQ:10eV
FILENAME=hmdb_intermediate.mgf
SEQ=*..*
IONMODE=Positive
ORGANISM=HMDB
NAME=HMDB:HMDB00292-495 Xanthine M+H
PI=HMDB
DATACOLLECTOR=HMDB
SMILES=O=C1NC2=C(NC=N2)C(=O)N1
INCHI=InChI=1S/C5H4N4O2/c10-4-2-3(7-1-6-2)8-5(11)9-4/h1H,(H3,6,7,8,9,10,11)
INCHIAUX=N/A
PUBMED=N/A
SUBMITUSER=mwang87
TAGS=
LIBRARYQUALITY=3
SPECTRUMID=CCMSLIB00000426419
SCANS=1391
152.921 100.0 
END IONS

BEGIN IONS
PEPMASS=246.171
CHARGE=1+
MSLEVEL=2
SOURCE_INSTRUMENT=Positive-Quattro_QQQ:40eV
FILENAME=hmdb_intermediate.mgf
SEQ=*..*
IONMODE=Positive
ORGANISM=HMDB
NAME=HMDB:HMDB00378-593 2-Methylbutyroylcarnitine M+H
PI=HMDB
DATACOLLECTOR=HMDB
SMILES=CCC(C)C(=O)OC(CC([O-])=O)C[N+](C)(C)C
INCHI=InChI=1S/C12H23NO4/c1-6-9(2)12(16)17-10(7-11(14)15)8-13(3,4)5/h9-10H,6-8H2,1-5H3
INCHIAUX=N/A
PUBMED=N/A
SUBMITUSER=mwang87
TAGS=
LIBRARYQUALITY=3
SPECTRUMID=CCMSLIB00000426420
SCANS=1392
85.257 100.0 
END IONS

BEGIN IONS
PEPMASS=75.0082
CHARGE=1+
MSLEVEL=2
SOURCE_INSTRUMENT=Negative-Quattro_QQQ:25eV
FILENAME=hmdb_intermediate.mgf
SEQ=*..*
IONMODE=Negative
ORGANISM=HMDB
NAME=HMDB:HMDB00115-166 Glycolic acid M-H
PI=HMDB
DATACOLLECTOR=HMDB
SMILES=OCC(O)=O
INCHI=InChI=1S/C2H4O3/c3-1-2(4)5/h3H,1H2,(H,4,5)
INCHIAUX=N/A
PUBMED=N/A
SUBMITUSER=mwang87
TAGS=
LIBRARYQUALITY=3
SPECTRUMID=CCMSLIB00000426421
SCANS=1393
74.809 100.0 
END IONS

BEGIN IONS
PEPMASS=181.071
CHARGE=1+
MSLEVEL=2
SOURCE_INSTRUMENT=Positive-Quattro_QQQ:25eV
FILENAME=hmdb_intermediate.mgf
SEQ=*..*
IONMODE=Positive
ORGANISM=HMDB
NAME=HMDB:HMDB00143-216 D-Galactose M+H
PI=HMDB
DATACOLLECTOR=HMDB
SMILES=OC[C@H]1O[C@H](O)[C@H](O)[C@@H](O)[C@H]1O
INCHI=InChI=1S/C6H12O6/c7-1-2-3(8)4(9)5(10)6(11)12-2/h2-11H,1H2/t2-,3+,4+,5-,6+/m1/s1
INCHIAUX=N/A
PUBMED=N/A
SUBMITUSER=mwang87
TAGS=
LIBRARYQUALITY=3
SPECTRUMID=CCMSLIB00000426422
SCANS=1394
73.0 61.875 
85.0 100.0 
117.0 90.508 
END IONS

BEGIN IONS
PEPMASS=361.202
CHARGE=1+
MSLEVEL=2
SOURCE_INSTRUMENT=Positive-Quattro_QQQ:40eV
FILENAME=hmdb_intermediate.mgf
SEQ=*..*
IONMODE=Positive
ORGANISM=HMDB
NAME=HMDB:HMDB02802-2136 Cortisone M+H
PI=HMDB
DATACOLLECTOR=HMDB
SMILES=[H][C@@]12CC[C@](O)(C(=O)CO)[C@@]1(C)CC(=O)[C@@]1([H])[C@@]2([H])CCC2=CC(=O)CC[C@]12C
INCHI=InChI=1S/C21H28O5/c1-19-7-5-13(23)9-12(19)3-4-14-15-6-8-21(26,17(25)11-22)20(15,2)10-16(24)18(14)19/h9,14-15,18,22,26H,3-8,10-11H2,1-2H3/t14-,15-,18+,19-,20-,21-/m0/s1
INCHIAUX=N/A
PUBMED=N/A
SUBMITUSER=mwang87
TAGS=
LIBRARYQUALITY=3
SPECTRUMID=CCMSLIB00000426423
SCANS=1395
93.01 57.335 
104.98 100.0 
120.95 90.62 
162.95 68.325 
END IONS

BEGIN IONS
PEPMASS=195.088
CHARGE=1+
MSLEVEL=2
SOURCE_INSTRUMENT=Positive-Quattro_QQQ:25eV
FILENAME=hmdb_intermediate.mgf
SEQ=*..*
IONMODE=Positive
ORGANISM=HMDB
NAME=HMDB:HMDB01847-1703 Caffeine M+H
PI=HMDB
DATACOLLECTOR=HMDB
SMILES=CN1C=NC2=C1C(=O)N(C)C(=O)N2C
INCHI=InChI=1S/C8H10N4O2/c1-10-4-9-6-5(10)7(13)12(3)8(14)11(6)2/h4H,1-3H3
INCHIAUX=N/A
PUBMED=N/A
SUBMITUSER=mwang87
TAGS=
LIBRARYQUALITY=3
SPECTRUMID=CCMSLIB00000426424
SCANS=1396
137.475 55.968 
138.23 100.0 
138.608 67.044 
END IONS

BEGIN IONS
PEPMASS=170.093
CHARGE=1+
MSLEVEL=2
SOURCE_INSTRUMENT=Positive-Quattro_QQQ:10eV
FILENAME=hmdb_intermediate.mgf
SEQ=*..*
IONMODE=Positive
ORGANISM=HMDB
NAME=HMDB:HMDB00479-695 3-Methylhistidine M+H
PI=HMDB
DATACOLLECTOR=HMDB
SMILES=CN1C=NC=C1C[C@H](N)C(O)=O
INCHI=InChI=1S/C7H11N3O2/c1-10-4-9-3-5(10)2-6(8)7(11)12/h3-4,6H,2,8H2,1H3,(H,11,12)/t6-/m0/s1
INCHIAUX=N/A
PUBMED=N/A
SUBMITUSER=mwang87
TAGS=
LIBRARYQUALITY=3
SPECTRUMID=CCMSLIB00000426425
SCANS=1397
169.933 100.0 
END IONS

BEGIN IONS
PEPMASS=179.071
CHARGE=1+
MSLEVEL=2
SOURCE_INSTRUMENT=Positive-Quattro_QQQ:10eV
FILENAME=hmdb_intermediate.mgf
SEQ=*..*
IONMODE=Positive
ORGANISM=HMDB
NAME=HMDB:HMDB02040-1962 4-Methoxycinnamic acid M+H
PI=HMDB
DATACOLLECTOR=HMDB
SMILES=COC1=CC=C(\C=C\C(O)=O)C=C1
INCHI=InChI=1S/C10H10O3/c1-13-9-5-2-8(3-6-9)4-7-10(11)12/h2-7H,1H3,(H,11,12)/b7-4+
INCHIAUX=N/A
PUBMED=N/A
SUBMITUSER=mwang87
TAGS=
LIBRARYQUALITY=3
SPECTRUMID=CCMSLIB00000426426
SCANS=1398
161.0 100.0 
END IONS

BEGIN IONS
PEPMASS=159.066
CHARGE=1+
MSLEVEL=2
SOURCE_INSTRUMENT=Positive-Quattro_QQQ:10eV
FILENAME=hmdb_intermediate.mgf
SEQ=*..*
IONMODE=Positive
ORGANISM=HMDB
NAME=HMDB:HMDB00635-867 Succinylacetone M+H
PI=HMDB
DATACOLLECTOR=HMDB
SMILES=CC(=O)CC(=O)CCC(O)=O
INCHI=InChI=1S/C7H10O4/c1-5(8)4-6(9)2-3-7(10)11/h2-4H2,1H3,(H,10,11)
INCHIAUX=N/A
PUBMED=N/A
SUBMITUSER=mwang87
TAGS=
LIBRARYQUALITY=3
SPECTRUMID=CCMSLIB00000426427
SCANS=1399
158.84 100.0 
END IONS

BEGIN IONS
PEPMASS=170.082
CHARGE=1+
MSLEVEL=2
SOURCE_INSTRUMENT=Positive-Quattro_QQQ:40eV
FILENAME=hmdb_intermediate.mgf
SEQ=*..*
IONMODE=Positive
ORGANISM=HMDB
NAME=HMDB:HMDB00239-405 Pyridoxine M+H
PI=HMDB
DATACOLLECTOR=HMDB
SMILES=CC1=NC=C(CO)C(CO)=C1O
INCHI=InChI=1S/C8H11NO3/c1-5-8(12)7(4-11)6(3-10)2-9-5/h2,10-12H,3-4H2,1H3
INCHIAUX=N/A
PUBMED=N/A
SUBMITUSER=mwang87
TAGS=
LIBRARYQUALITY=3
SPECTRUMID=CCMSLIB00000426428
SCANS=1400
77.129 100.0 
END IONS

BEGIN IONS
PEPMASS=191.019
CHARGE=1+
MSLEVEL=2
SOURCE_INSTRUMENT=Negative-Quattro_QQQ:25eV
FILENAME=hmdb_intermediate.mgf
SEQ=*..*
IONMODE=Negative
ORGANISM=HMDB
NAME=HMDB:HMDB01874-1766 D-threo-Isocitric acid M-H
PI=HMDB
DATACOLLECTOR=HMDB
SMILES=O[C@H]([C@H](CC(O)=O)C(O)=O)C(O)=O
INCHI=InChI=1S/C6H8O7/c7-3(8)1-2(5(10)11)4(9)6(12)13/h2,4,9H,1H2,(H,7,8)(H,10,11)(H,12,13)/t2-,4+/m0/s1
INCHIAUX=N/A
PUBMED=N/A
SUBMITUSER=mwang87
TAGS=
LIBRARYQUALITY=3
SPECTRUMID=CCMSLIB00000426429
SCANS=1401
110.048 92.468 
110.671 58.747 
151.301 100.0 
152.049 91.067 
152.672 88.088 
END IONS

BEGIN IONS
PEPMASS=61.0653
CHARGE=1+
MSLEVEL=2
SOURCE_INSTRUMENT=Positive-Quattro_QQQ:10eV
FILENAME=hmdb_intermediate.mgf
SEQ=*..*
IONMODE=Positive
ORGANISM=HMDB
NAME=HMDB:HMDB00820-1167 Propyl alcohol M+H
PI=HMDB
DATACOLLECTOR=HMDB
SMILES=CCCO
INCHI=InChI=1S/C3H8O/c1-2-3-4/h4H,2-3H2,1H3
INCHIAUX=N/A
PUBMED=N/A
SUBMITUSER=mwang87
TAGS=
LIBRARYQUALITY=3
SPECTRUMID=CCMSLIB00000426430
SCANS=1402
60.0 100.0 
END IONS

BEGIN IONS
PEPMASS=275.017
CHARGE=1+
MSLEVEL=2
SOURCE_INSTRUMENT=Negative-Quattro_QQQ:25eV
FILENAME=hmdb_intermediate.mgf
SEQ=*..*
IONMODE=Negative
ORGANISM=HMDB
NAME=HMDB:HMDB01316-1517 6-Phosphogluconic acid M-H
PI=HMDB
DATACOLLECTOR=HMDB
SMILES=O[C@H](COP(O)(O)=O)[C@@H](O)[C@H](O)[C@@H](O)C(O)=O
INCHI=InChI=1S/C6H13O10P/c7-2(1-16-17(13,14)15)3(8)4(9)5(10)6(11)12/h2-5,7-10H,1H2,(H,11,12)(H2,13,14,15)/t2-,3-,4+,5-/m1/s1
INCHIAUX=N/A
PUBMED=N/A
SUBMITUSER=mwang87
TAGS=
LIBRARYQUALITY=3
SPECTRUMID=CCMSLIB00000426431
SCANS=1403
78.0 81.426 
96.0 100.0 
END IONS

BEGIN IONS
PEPMASS=268.105
CHARGE=1+
MSLEVEL=2
SOURCE_INSTRUMENT=Positive-Quattro_QQQ:40eV
FILENAME=hmdb_intermediate.mgf
SEQ=*..*
IONMODE=Positive
ORGANISM=HMDB
NAME=HMDB:HMDB00050-83 Adenosine M+H
PI=HMDB
DATACOLLECTOR=HMDB
SMILES=NC1=NC=NC2=C1N=CN2[C@@H]1O[C@H](CO)[C@@H](O)[C@H]1O
INCHI=InChI=1S/C10H13N5O4/c11-8-5-9(13-2-12-8)15(3-14-5)10-7(18)6(17)4(1-16)19-10/h2-4,6-7,10,16-18H,1H2,(H2,11,12,13)/t4-,6-,7-,10-/m1/s1
INCHIAUX=N/A
PUBMED=N/A
SUBMITUSER=mwang87
TAGS=
LIBRARYQUALITY=3
SPECTRUMID=CCMSLIB00000426432
SCANS=1404
135.911 100.0 
END IONS

BEGIN IONS
PEPMASS=167.071
CHARGE=1+
MSLEVEL=2
SOURCE_INSTRUMENT=Positive-Quattro_QQQ:40eV
FILENAME=hmdb_intermediate.mgf
SEQ=*..*
IONMODE=Positive
ORGANISM=HMDB
NAME=HMDB:HMDB00779-1109 Phenyllactic acid M+H
PI=HMDB
DATACOLLECTOR=HMDB
SMILES=OC(CC1=CC=CC=C1)C(O)=O
INCHI=InChI=1S/C9H10O3/c10-8(9(11)12)6-7-4-2-1-3-5-7/h1-5,8,10H,6H2,(H,11,12)
INCHIAUX=N/A
PUBMED=N/A
SUBMITUSER=mwang87
TAGS=
LIBRARYQUALITY=3
SPECTRUMID=CCMSLIB00000426433
SCANS=1405
56.053 63.449 
65.009 78.733 
68.163 58.574 
70.433 59.243 
76.11 53.04 
82.165 100.0 
84.058 76.076 
125.058 59.243 
END IONS

BEGIN IONS
PEPMASS=134.061
CHARGE=1+
MSLEVEL=2
SOURCE_INSTRUMENT=Positive-Quattro_QQQ:25eV
FILENAME=hmdb_intermediate.mgf
SEQ=*..*
IONMODE=Positive
ORGANISM=HMDB
NAME=HMDB:HMDB04094-2359 Indoxyl M+H
PI=HMDB
DATACOLLECTOR=HMDB
SMILES=OC1=CNC2=CC=CC=C12
INCHI=InChI=1S/C8H7NO/c10-8-5-9-7-4-2-1-3-6(7)8/h1-5,9-10H
INCHIAUX=N/A
PUBMED=N/A
SUBMITUSER=mwang87
TAGS=
LIBRARYQUALITY=3
SPECTRUMID=CCMSLIB00000426434
SCANS=1406
77.0 100.0 
79.0 90.081 
105.0 68.254 
END IONS

BEGIN IONS
PEPMASS=204.102
CHARGE=1+
MSLEVEL=2
SOURCE_INSTRUMENT=Positive-Quattro_QQQ:40eV
FILENAME=hmdb_intermediate.mgf
SEQ=*..*
IONMODE=Positive
ORGANISM=HMDB
NAME=HMDB:HMDB02096-2001 3-Indolebutyric acid M+H
PI=HMDB
DATACOLLECTOR=HMDB
SMILES=OC(=O)CCCC1=CNC2=CC=CC=C12
INCHI=InChI=1S/C12H13NO2/c14-12(15)7-3-4-9-8-13-11-6-2-1-5-10(9)11/h1-2,5-6,8,13H,3-4,7H2,(H,14,15)
INCHIAUX=N/A
PUBMED=N/A
SUBMITUSER=mwang87
TAGS=
LIBRARYQUALITY=3
SPECTRUMID=CCMSLIB00000426435
SCANS=1407
117.0 57.619 
130.0 100.0 
END IONS

BEGIN IONS
PEPMASS=332.076
CHARGE=1+
MSLEVEL=2
SOURCE_INSTRUMENT=Positive-Quattro_QQQ:40eV
FILENAME=hmdb_intermediate.mgf
SEQ=*..*
IONMODE=Positive
ORGANISM=HMDB
NAME=HMDB:HMDB00905-1291 Deoxyadenosine monophosphate M+H
PI=HMDB
DATACOLLECTOR=HMDB
SMILES=NC1=NC=NC2=C1N=CN2[C@H]1C[C@H](O)[C@@H](COP(O)(O)=O)O1
INCHI=InChI=1S/C10H14N5O6P/c11-9-8-10(13-3-12-9)15(4-14-8)7-1-5(16)6(21-7)2-20-22(17,18)19/h3-7,16H,1-2H2,(H2,11,12,13)(H2,17,18,19)/t5-,6+,7+/m0/s1
INCHIAUX=N/A
PUBMED=N/A
SUBMITUSER=mwang87
TAGS=
LIBRARYQUALITY=3
SPECTRUMID=CCMSLIB00000426436
SCANS=1408
81.0 100.0 
END IONS

BEGIN IONS
PEPMASS=212.002
CHARGE=1+
MSLEVEL=2
SOURCE_INSTRUMENT=Negative-Quattro_QQQ:40eV
FILENAME=hmdb_intermediate.mgf
SEQ=*..*
IONMODE=Negative
ORGANISM=HMDB
NAME=HMDB:HMDB00682-947 Indoxyl sulfate M-H
PI=HMDB
DATACOLLECTOR=HMDB
SMILES=OS(=O)(=O)OC1=CNC2=CC=CC=C12
INCHI=InChI=1S/C8H7NO4S/c10-14(11,12)13-8-5-9-7-4-2-1-3-6(7)8/h1-5,9H,(H,10,11,12)
INCHIAUX=N/A
PUBMED=N/A
SUBMITUSER=mwang87
TAGS=
LIBRARYQUALITY=3
SPECTRUMID=CCMSLIB00000426437
SCANS=1409
80.313 100.0 
END IONS

BEGIN IONS
PEPMASS=291.232
CHARGE=1+
MSLEVEL=2
SOURCE_INSTRUMENT=Positive-Quattro_QQQ:25eV
FILENAME=hmdb_intermediate.mgf
SEQ=*..*
IONMODE=Positive
ORGANISM=HMDB
NAME=HMDB:HMDB00546-768 Epietiocholanolone M+H
PI=HMDB
DATACOLLECTOR=HMDB
SMILES=[H][C@@]12CCC(=O)[C@@]1(C)CC[C@@]1([H])[C@@]2([H])CC[C@]2([H])C[C@@H](O)CC[C@]12C
INCHI=InChI=1S/C19H30O2/c1-18-9-7-13(20)11-12(18)3-4-14-15-5-6-17(21)19(15,2)10-8-16(14)18/h12-16,20H,3-11H2,1-2H3/t12-,13+,14+,15+,16+,18+,19+/m1/s1
INCHIAUX=N/A
PUBMED=N/A
SUBMITUSER=mwang87
TAGS=
LIBRARYQUALITY=3
SPECTRUMID=CCMSLIB00000426438
SCANS=1410
92.451 70.753 
106.443 56.908 
134.673 88.365 
146.825 51.523 
159.713 60.14 
175.671 59.441 
199.241 100.0 
215.077 65.206 
END IONS

BEGIN IONS
PEPMASS=190.119
CHARGE=1+
MSLEVEL=2
SOURCE_INSTRUMENT=Positive-Quattro_QQQ:40eV
FILENAME=hmdb_intermediate.mgf
SEQ=*..*
IONMODE=Positive
ORGANISM=HMDB
NAME=HMDB:HMDB00679-944 Homocitrulline M+H
PI=HMDB
DATACOLLECTOR=HMDB
SMILES=N[C@@H](CCCCNC(N)=O)C(O)=O
INCHI=InChI=1S/C7H15N3O3/c8-5(6(11)12)3-1-2-4-10-7(9)13/h5H,1-4,8H2,(H,11,12)(H3,9,10,13)/t5-/m0/s1
INCHIAUX=N/A
PUBMED=N/A
SUBMITUSER=mwang87
TAGS=
LIBRARYQUALITY=3
SPECTRUMID=CCMSLIB00000426439
SCANS=1411
56.116 100.0 
84.128 98.529 
END IONS

BEGIN IONS
PEPMASS=168.03
CHARGE=1+
MSLEVEL=2
SOURCE_INSTRUMENT=Positive-Quattro_QQQ:25eV
FILENAME=hmdb_intermediate.mgf
SEQ=*..*
IONMODE=Positive
ORGANISM=HMDB
NAME=HMDB:HMDB00232-389 Quinolinic acid M+H
PI=HMDB
DATACOLLECTOR=HMDB
SMILES=OC(=O)C1=CC=CN=C1C(O)=O
INCHI=InChI=1S/C7H5NO4/c9-6(10)4-2-1-3-8-5(4)7(11)12/h1-3H,(H,9,10)(H,11,12)
INCHIAUX=N/A
PUBMED=N/A
SUBMITUSER=mwang87
TAGS=
LIBRARYQUALITY=3
SPECTRUMID=CCMSLIB00000426440
SCANS=1412
78.105 100.0 
END IONS

BEGIN IONS
PEPMASS=138.092
CHARGE=1+
MSLEVEL=2
SOURCE_INSTRUMENT=Positive-Quattro_QQQ:40eV
FILENAME=hmdb_intermediate.mgf
SEQ=*..*
IONMODE=Positive
ORGANISM=HMDB
NAME=HMDB:HMDB00306-524 Tyramine M+H
PI=HMDB
DATACOLLECTOR=HMDB
SMILES=NCCC1=CC=C(O)C=C1
INCHI=InChI=1S/C8H11NO/c9-6-5-7-1-3-8(10)4-2-7/h1-4,10H,5-6,9H2
INCHIAUX=N/A
PUBMED=N/A
SUBMITUSER=mwang87
TAGS=
LIBRARYQUALITY=3
SPECTRUMID=CCMSLIB00000426441
SCANS=1413
77.08 100.0 
END IONS

BEGIN IONS
PEPMASS=241.13
CHARGE=1+
MSLEVEL=2
SOURCE_INSTRUMENT=Positive-Quattro_QQQ:25eV
FILENAME=hmdb_intermediate.mgf
SEQ=*..*
IONMODE=Positive
ORGANISM=HMDB
NAME=HMDB:HMDB00194-314 Anserine M+H
PI=HMDB
DATACOLLECTOR=HMDB
SMILES=CN1C=NC=C1C[C@H](NC(=O)CCN)C(O)=O
INCHI=InChI=1S/C10H16N4O3/c1-14-6-12-5-7(14)4-8(10(16)17)13-9(15)2-3-11/h5-6,8H,2-4,11H2,1H3,(H,13,15)(H,16,17)/t8-/m0/s1
INCHIAUX=N/A
PUBMED=N/A
SUBMITUSER=mwang87
TAGS=
LIBRARYQUALITY=3
SPECTRUMID=CCMSLIB00000426442
SCANS=1414
109.015 100.0 
109.516 87.228 
169.915 59.04 
END IONS

BEGIN IONS
PEPMASS=163.124
CHARGE=1+
MSLEVEL=2
SOURCE_INSTRUMENT=Positive-Quattro_QQQ:40eV
FILENAME=hmdb_intermediate.mgf
SEQ=*..*
IONMODE=Positive
ORGANISM=HMDB
NAME=HMDB:HMDB01934-1880 L(-)-Nicotine pestanal M+H
PI=HMDB
DATACOLLECTOR=HMDB
SMILES=CN1CCC[C@H]1C1=CN=CC=C1
INCHI=InChI=1S/C10H14N2/c1-12-7-3-5-10(12)9-4-2-6-11-8-9/h2,4,6,8,10H,3,5,7H2,1H3/t10-/m0/s1
INCHIAUX=N/A
PUBMED=N/A
SUBMITUSER=mwang87
TAGS=
LIBRARYQUALITY=3
SPECTRUMID=CCMSLIB00000426443
SCANS=1415
117.0 100.0 
130.0 54.976 
END IONS

BEGIN IONS
PEPMASS=73.0653
CHARGE=1+
MSLEVEL=2
SOURCE_INSTRUMENT=Positive-Quattro_QQQ:40eV
FILENAME=hmdb_intermediate.mgf
SEQ=*..*
IONMODE=Positive
ORGANISM=HMDB
NAME=HMDB:HMDB03543-2324 Butanal M+H
PI=HMDB
DATACOLLECTOR=HMDB
SMILES=CCCC=O
INCHI=InChI=1S/C4H8O/c1-2-3-4-5/h4H,2-3H2,1H3
INCHIAUX=N/A
PUBMED=N/A
SUBMITUSER=mwang87
TAGS=
LIBRARYQUALITY=3
SPECTRUMID=CCMSLIB00000426444
SCANS=1416
31.0 54.466 
43.0 100.0 
END IONS

BEGIN IONS
PEPMASS=525.901
CHARGE=1+
MSLEVEL=2
SOURCE_INSTRUMENT=Positive-Quattro_QQQ:40eV
FILENAME=hmdb_intermediate.mgf
SEQ=*..*
IONMODE=Positive
ORGANISM=HMDB
NAME=HMDB:HMDB00582-812 3,5-Diiodothyronine M+H
PI=HMDB
DATACOLLECTOR=HMDB
SMILES=NC(CC1=CC(I)=C(OC2=CC=C(O)C=C2)C(I)=C1)C(O)=O
INCHI=InChI=1S/C15H13I2NO4/c16-11-5-8(7-13(18)15(20)21)6-12(17)14(11)22-10-3-1-9(19)2-4-10/h1-6,13,19H,7,18H2,(H,20,21)
INCHIAUX=N/A
PUBMED=N/A
SUBMITUSER=mwang87
TAGS=
LIBRARYQUALITY=3
SPECTRUMID=CCMSLIB00000426445
SCANS=1417
353.16 68.2116744918 
479.94 100.0 
END IONS

BEGIN IONS
PEPMASS=94.0657
CHARGE=1+
MSLEVEL=2
SOURCE_INSTRUMENT=Positive-Quattro_QQQ:10eV
FILENAME=hmdb_intermediate.mgf
SEQ=*..*
IONMODE=Positive
ORGANISM=HMDB
NAME=HMDB:HMDB03012-2182 Aniline M+H
PI=HMDB
DATACOLLECTOR=HMDB
SMILES=NC1=CC=CC=C1
INCHI=InChI=1S/C6H7N/c7-6-4-2-1-3-5-6/h1-5H,7H2
INCHIAUX=N/A
PUBMED=N/A
SUBMITUSER=mwang87
TAGS=
LIBRARYQUALITY=3
SPECTRUMID=CCMSLIB00000426446
SCANS=1418
94.0 100.0 
END IONS

BEGIN IONS
PEPMASS=142.027
CHARGE=1+
MSLEVEL=2
SOURCE_INSTRUMENT=Positive-Quattro_QQQ:10eV
FILENAME=hmdb_intermediate.mgf
SEQ=*..*
IONMODE=Positive
ORGANISM=HMDB
NAME=HMDB:HMDB00224-370 O-Phosphoethanolamine M+H
PI=HMDB
DATACOLLECTOR=HMDB
SMILES=NCCOP(O)(O)=O
INCHI=InChI=1S/C2H8NO4P/c3-1-2-7-8(4,5)6/h1-3H2,(H2,4,5,6)
INCHIAUX=N/A
PUBMED=N/A
SUBMITUSER=mwang87
TAGS=
LIBRARYQUALITY=3
SPECTRUMID=CCMSLIB00000426447
SCANS=1419
44.628 100.0 
END IONS

BEGIN IONS
PEPMASS=117.019
CHARGE=1+
MSLEVEL=2
SOURCE_INSTRUMENT=Negative-Quattro_QQQ:40eV
FILENAME=hmdb_intermediate.mgf
SEQ=*..*
IONMODE=Negative
ORGANISM=HMDB
NAME=HMDB:HMDB00254-441 Succinic acid M-H
PI=HMDB
DATACOLLECTOR=HMDB
SMILES=OC(=O)CCC(O)=O
INCHI=InChI=1S/C4H6O4/c5-3(6)1-2-4(7)8/h1-2H2,(H,5,6)(H,7,8)
INCHIAUX=N/A
PUBMED=N/A
SUBMITUSER=mwang87
TAGS=
LIBRARYQUALITY=3
SPECTRUMID=CCMSLIB00000426448
SCANS=1420
72.958 100.0 
116.902 94.203 
END IONS

BEGIN IONS
PEPMASS=174.088
CHARGE=1+
MSLEVEL=2
SOURCE_INSTRUMENT=Positive-Quattro_QQQ:40eV
FILENAME=hmdb_intermediate.mgf
SEQ=*..*
IONMODE=Positive
ORGANISM=HMDB
NAME=HMDB:HMDB04225-2375 2-Oxoarginine M+H
PI=HMDB
DATACOLLECTOR=HMDB
SMILES=NC(N)=NCCCC(=O)C(O)=O
INCHI=InChI=1S/C6H11N3O3/c7-6(8)9-3-1-2-4(10)5(11)12/h1-3H2,(H,11,12)(H4,7,8,9)
INCHIAUX=N/A
PUBMED=N/A
SUBMITUSER=mwang87
TAGS=
LIBRARYQUALITY=3
SPECTRUMID=CCMSLIB00000426449
SCANS=1421
77.15 100.0 
78.07 92.458 
END IONS

BEGIN IONS
PEPMASS=166.073
CHARGE=1+
MSLEVEL=2
SOURCE_INSTRUMENT=Positive-Quattro_QQQ:10eV
FILENAME=hmdb_intermediate.mgf
SEQ=*..*
IONMODE=Positive
ORGANISM=HMDB
NAME=HMDB:HMDB00897-1268 7-Methylguanine M+H
PI=HMDB
DATACOLLECTOR=HMDB
SMILES=CN1C=NC2=C1C(=O)N=C(N)N2
INCHI=InChI=1S/C6H7N5O/c1-11-2-8-4-3(11)5(12)10-6(7)9-4/h2H,1H3,(H3,7,9,10,12)
INCHIAUX=N/A
PUBMED=N/A
SUBMITUSER=mwang87
TAGS=
LIBRARYQUALITY=3
SPECTRUMID=CCMSLIB00000426450
SCANS=1422
165.84 100.0 
END IONS

BEGIN IONS
PEPMASS=99.081
CHARGE=1+
MSLEVEL=2
SOURCE_INSTRUMENT=Positive-Quattro_QQQ:10eV
FILENAME=hmdb_intermediate.mgf
SEQ=*..*
IONMODE=Positive
ORGANISM=HMDB
NAME=HMDB:HMDB03315-2239 Cyclohexanone M+H
PI=HMDB
DATACOLLECTOR=HMDB
SMILES=O=C1CCCCC1
INCHI=InChI=1S/C6H10O/c7-6-4-2-1-3-5-6/h1-5H2
INCHIAUX=N/A
PUBMED=N/A
SUBMITUSER=mwang87
TAGS=
LIBRARYQUALITY=3
SPECTRUMID=CCMSLIB00000426451
SCANS=1423
80.94 100.0 
END IONS

BEGIN IONS
PEPMASS=181.073
CHARGE=1+
MSLEVEL=2
SOURCE_INSTRUMENT=Positive-Quattro_QQQ:40eV
FILENAME=hmdb_intermediate.mgf
SEQ=*..*
IONMODE=Positive
ORGANISM=HMDB
NAME=HMDB:HMDB01860-1737 Paraxanthine M+H
PI=HMDB
DATACOLLECTOR=HMDB
SMILES=CN1C=NC2=C1C(=O)N(C)C(=O)N2
INCHI=InChI=1S/C7H8N4O2/c1-10-3-8-5-4(10)6(12)11(2)7(13)9-5/h3H,1-2H3,(H,9,13)
INCHIAUX=N/A
PUBMED=N/A
SUBMITUSER=mwang87
TAGS=
LIBRARYQUALITY=3
SPECTRUMID=CCMSLIB00000426452
SCANS=1424
42.379 100.0 
42.628 78.909 
69.421 81.537 
69.546 74.584 
END IONS

BEGIN IONS
PEPMASS=221.093
CHARGE=1+
MSLEVEL=2
SOURCE_INSTRUMENT=Positive-Quattro_QQQ:25eV
FILENAME=hmdb_intermediate.mgf
SEQ=*..*
IONMODE=Positive
ORGANISM=HMDB
NAME=HMDB:HMDB00472-687 5-Hydroxy-L-tryptophan M+H
PI=HMDB
DATACOLLECTOR=HMDB
SMILES=NC(CC1=CNC2=C1C=C(O)C=C2)C(O)=O
INCHI=InChI=1S/C11H12N2O3/c12-9(11(15)16)3-6-5-13-10-2-1-7(14)4-8(6)10/h1-2,4-5,9,13-14H,3,12H2,(H,15,16)
INCHIAUX=N/A
PUBMED=N/A
SUBMITUSER=mwang87
TAGS=
LIBRARYQUALITY=3
SPECTRUMID=CCMSLIB00000426453
SCANS=1425
133.0 100.0 
END IONS

BEGIN IONS
PEPMASS=299.295
CHARGE=1+
MSLEVEL=2
SOURCE_INSTRUMENT=Positive-Quattro_QQQ:10eV
FILENAME=hmdb_intermediate.mgf
SEQ=*..*
IONMODE=Positive
ORGANISM=HMDB
NAME=HMDB:HMDB00795-1132 Pristanic acid M+H
PI=HMDB
DATACOLLECTOR=HMDB
SMILES=CC(C)CCCC(C)CCCC(C)CCCC(C)C(O)=O
INCHI=InChI=1S/C19H38O2/c1-15(2)9-6-10-16(3)11-7-12-17(4)13-8-14-18(5)19(20)21/h15-18H,6-14H2,1-5H3,(H,20,21)
INCHIAUX=N/A
PUBMED=N/A
SUBMITUSER=mwang87
TAGS=
LIBRARYQUALITY=3
SPECTRUMID=CCMSLIB00000426454
SCANS=1426
80.914 60.556 
95.274 50.479 
111.72 100.0 
END IONS

BEGIN IONS
PEPMASS=91.0395
CHARGE=1+
MSLEVEL=2
SOURCE_INSTRUMENT=Positive-Quattro_QQQ:40eV
FILENAME=hmdb_intermediate.mgf
SEQ=*..*
IONMODE=Positive
ORGANISM=HMDB
NAME=HMDB:HMDB00700-977 Hydroxypropionic acid M+H
PI=HMDB
DATACOLLECTOR=HMDB
SMILES=OCCC(O)=O
INCHI=InChI=1S/C3H6O3/c4-2-1-3(5)6/h4H,1-2H2,(H,5,6)
INCHIAUX=N/A
PUBMED=N/A
SUBMITUSER=mwang87
TAGS=
LIBRARYQUALITY=3
SPECTRUMID=CCMSLIB00000426455
SCANS=1427
64.857 100.0 
END IONS

BEGIN IONS
PEPMASS=255.232
CHARGE=1+
MSLEVEL=2
SOURCE_INSTRUMENT=Negative-Quattro_QQQ:25eV
FILENAME=hmdb_intermediate.mgf
SEQ=*..*
IONMODE=Negative
ORGANISM=HMDB
NAME=HMDB:HMDB00220-359 Palmitic acid M-H
PI=HMDB
DATACOLLECTOR=HMDB
SMILES=CCCCCCCCCCCCCCCC(O)=O
INCHI=InChI=1S/C16H32O2/c1-2-3-4-5-6-7-8-9-10-11-12-13-14-15-16(17)18/h2-15H2,1H3,(H,17,18)
INCHIAUX=N/A
PUBMED=N/A
SUBMITUSER=mwang87
TAGS=
LIBRARYQUALITY=3
SPECTRUMID=CCMSLIB00000426456
SCANS=1428
255.112 100.0 
END IONS

BEGIN IONS
PEPMASS=131.13
CHARGE=1+
MSLEVEL=2
SOURCE_INSTRUMENT=Positive-Quattro_QQQ:40eV
FILENAME=hmdb_intermediate.mgf
SEQ=*..*
IONMODE=Positive
ORGANISM=HMDB
NAME=HMDB:HMDB60259-1579 Agmatine M+H
PI=HMDB
DATACOLLECTOR=HMDB
SMILES=NCCCCNC(N)=N
INCHI=InChI=1S/C5H14N4/c6-3-1-2-4-9-5(7)8/h1-4,6H2,(H4,7,8,9)
INCHIAUX=N/A
PUBMED=N/A
SUBMITUSER=mwang87
TAGS=
LIBRARYQUALITY=3
SPECTRUMID=CCMSLIB00000426457
SCANS=1429
72.0 100.0 
END IONS

BEGIN IONS
PEPMASS=428.374
CHARGE=1+
MSLEVEL=2
SOURCE_INSTRUMENT=Positive-Quattro_QQQ:40eV
FILENAME=hmdb_intermediate.mgf
SEQ=*..*
IONMODE=Positive
ORGANISM=HMDB
NAME=HMDB:HMDB00848-1198 Stearoylcarnitine M+H
PI=HMDB
DATACOLLECTOR=HMDB
SMILES=CCCCCCCCCCCCCCCCCC(=O)OC(CC([O-])=O)C[N+](C)(C)C
INCHI=InChI=1S/C25H49NO4/c1-5-6-7-8-9-10-11-12-13-14-15-16-17-18-19-20-25(29)30-23(21-24(27)28)22-26(2,3)4/h23H,5-22H2,1-4H3
INCHIAUX=N/A
PUBMED=N/A
SUBMITUSER=mwang87
TAGS=
LIBRARYQUALITY=3
SPECTRUMID=CCMSLIB00000426458
SCANS=1430
85.0 100.0 
END IONS

BEGIN IONS
PEPMASS=132.102
CHARGE=1+
MSLEVEL=2
SOURCE_INSTRUMENT=Positive-Quattro_QQQ:25eV
FILENAME=hmdb_intermediate.mgf
SEQ=*..*
IONMODE=Positive
ORGANISM=HMDB
NAME=HMDB:HMDB00687-952 L-Leucine M+H
PI=HMDB
DATACOLLECTOR=HMDB
SMILES=CC(C)C[C@H](N)C(O)=O
INCHI=InChI=1S/C6H13NO2/c1-4(2)3-5(7)6(8)9/h4-5H,3,7H2,1-2H3,(H,8,9)/t5-/m0/s1
INCHIAUX=N/A
PUBMED=N/A
SUBMITUSER=mwang87
TAGS=
LIBRARYQUALITY=3
SPECTRUMID=CCMSLIB00000426459
SCANS=1431
43.35 100.0 
44.395 65.409 
END IONS

BEGIN IONS
PEPMASS=177.062
CHARGE=1+
MSLEVEL=2
SOURCE_INSTRUMENT=Positive-Quattro_QQQ:10eV
FILENAME=hmdb_intermediate.mgf
SEQ=*..*
IONMODE=Positive
ORGANISM=HMDB
NAME=HMDB:HMDB01209-1466 Allantoic acid M+H
PI=HMDB
DATACOLLECTOR=HMDB
SMILES=NC(=O)NC(NC(N)=O)C(O)=O
INCHI=InChI=1S/C4H8N4O4/c5-3(11)7-1(2(9)10)8-4(6)12/h1H,(H,9,10)(H3,5,7,11)(H3,6,8,12)
INCHIAUX=N/A
PUBMED=N/A
SUBMITUSER=mwang87
TAGS=
LIBRARYQUALITY=3
SPECTRUMID=CCMSLIB00000426460
SCANS=1432
61.0 100.0 
END IONS

BEGIN IONS
PEPMASS=164.038
CHARGE=1+
MSLEVEL=2
SOURCE_INSTRUMENT=Positive-Quattro_QQQ:40eV
FILENAME=hmdb_intermediate.mgf
SEQ=*..*
IONMODE=Positive
ORGANISM=HMDB
NAME=HMDB:HMDB01890-1797 Acetylcysteine M+H
PI=HMDB
DATACOLLECTOR=HMDB
SMILES=CC(=O)N[C@@H](CS)C(O)=O
INCHI=InChI=1S/C5H9NO3S/c1-3(7)6-4(2-10)5(8)9/h4,10H,2H2,1H3,(H,6,7)(H,8,9)/t4-/m0/s1
INCHIAUX=N/A
PUBMED=N/A
SUBMITUSER=mwang87
TAGS=
LIBRARYQUALITY=3
SPECTRUMID=CCMSLIB00000426461
SCANS=1433
43.262 92.308 
59.157 100.0 
END IONS

BEGIN IONS
PEPMASS=151.076
CHARGE=1+
MSLEVEL=2
SOURCE_INSTRUMENT=Positive-Quattro_QQQ:25eV
FILENAME=hmdb_intermediate.mgf
SEQ=*..*
IONMODE=Positive
ORGANISM=HMDB
NAME=HMDB:HMDB02097-2002 4-Ethylbenzoic acid M+H
PI=HMDB
DATACOLLECTOR=HMDB
SMILES=CCC1=CC=C(C=C1)C(O)=O
INCHI=InChI=1S/C9H10O2/c1-2-7-3-5-8(6-4-7)9(10)11/h3-6H,2H2,1H3,(H,10,11)
INCHIAUX=N/A
PUBMED=N/A
SUBMITUSER=mwang87
TAGS=
LIBRARYQUALITY=3
SPECTRUMID=CCMSLIB00000426462
SCANS=1434
78.0 100.0 
END IONS

BEGIN IONS
PEPMASS=345.14
CHARGE=1+
MSLEVEL=2
SOURCE_INSTRUMENT=Positive-Quattro_QQQ:10eV
FILENAME=hmdb_intermediate.mgf
SEQ=*..*
IONMODE=Positive
ORGANISM=HMDB
NAME=HMDB:HMDB02928-2170 Maltitol M+H
PI=HMDB
DATACOLLECTOR=HMDB
SMILES=[H][C@@](O[C@H]1O[C@H](CO)[C@@H](O)[C@H](O)[C@H]1O)([C@H](O)CO)[C@H](O)[C@@H](O)CO
INCHI=InChI=1S/C12H24O11/c13-1-4(16)7(18)11(5(17)2-14)23-12-10(21)9(20)8(19)6(3-15)22-12/h4-21H,1-3H2/t4-,5+,6+,7+,8+,9-,10+,11+,12+/m0/s1
INCHIAUX=N/A
PUBMED=N/A
SUBMITUSER=mwang87
TAGS=
LIBRARYQUALITY=3
SPECTRUMID=CCMSLIB00000426463
SCANS=1435
183.0 100.0 
END IONS

BEGIN IONS
PEPMASS=106.05
CHARGE=1+
MSLEVEL=2
SOURCE_INSTRUMENT=Positive-Quattro_QQQ:40eV
FILENAME=hmdb_intermediate.mgf
SEQ=*..*
IONMODE=Positive
ORGANISM=HMDB
NAME=HMDB:HMDB00187-297 L-Serine M+H
PI=HMDB
DATACOLLECTOR=HMDB
SMILES=N[C@@H](CO)C(O)=O
INCHI=InChI=1S/C3H7NO3/c4-2(1-5)3(6)7/h2,5H,1,4H2,(H,6,7)/t2-/m0/s1
INCHIAUX=N/A
PUBMED=N/A
SUBMITUSER=mwang87
TAGS=
LIBRARYQUALITY=3
SPECTRUMID=CCMSLIB00000426464
SCANS=1436
42.246 100.0 
60.006 76.744 
END IONS

BEGIN IONS
PEPMASS=195.088
CHARGE=1+
MSLEVEL=2
SOURCE_INSTRUMENT=Positive-Quattro_QQQ:10eV
FILENAME=hmdb_intermediate.mgf
SEQ=*..*
IONMODE=Positive
ORGANISM=HMDB
NAME=HMDB:HMDB01847-1702 Caffeine M+H
PI=HMDB
DATACOLLECTOR=HMDB
SMILES=CN1C=NC2=C1C(=O)N(C)C(=O)N2C
INCHI=InChI=1S/C8H10N4O2/c1-10-4-9-6-5(10)7(13)12(3)8(14)11(6)2/h4H,1-3H3
INCHIAUX=N/A
PUBMED=N/A
SUBMITUSER=mwang87
TAGS=
LIBRARYQUALITY=3
SPECTRUMID=CCMSLIB00000426465
SCANS=1437
194.729 100.0 
END IONS

BEGIN IONS
PEPMASS=133.061
CHARGE=1+
MSLEVEL=2
SOURCE_INSTRUMENT=Positive-Quattro_QQQ:10eV
FILENAME=hmdb_intermediate.mgf
SEQ=*..*
IONMODE=Positive
ORGANISM=HMDB
NAME=HMDB:HMDB00026-45 Ureidopropionic acid M+H
PI=HMDB
DATACOLLECTOR=HMDB
SMILES=NC(=O)NCCC(O)=O
INCHI=InChI=1S/C4H8N2O3/c5-4(9)6-2-1-3(7)8/h1-2H2,(H,7,8)(H3,5,6,9)
INCHIAUX=N/A
PUBMED=N/A
SUBMITUSER=mwang87
TAGS=
LIBRARYQUALITY=3
SPECTRUMID=CCMSLIB00000426466
SCANS=1438
72.199 57.727 
90.11 100.0 
115.048 71.818 
END IONS

BEGIN IONS
PEPMASS=313.217
CHARGE=1+
MSLEVEL=2
SOURCE_INSTRUMENT=Positive-Quattro_QQQ:25eV
FILENAME=hmdb_intermediate.mgf
SEQ=*..*
IONMODE=Positive
ORGANISM=HMDB
NAME=HMDB:HMDB00995-1385 16-Dehydroprogesterone M+H
PI=HMDB
DATACOLLECTOR=HMDB
SMILES=[H][C@@]12CC=C(C(C)=O)[C@@]1(C)CC[C@@]1([H])[C@@]2([H])CCC2=CC(=O)CC[C@]12C
INCHI=InChI=1S/C21H28O2/c1-13(22)17-6-7-18-16-5-4-14-12-15(23)8-10-20(14,2)19(16)9-11-21(17,18)3/h6,12,16,18-19H,4-5,7-11H2,1-3H3/t16-,18-,19-,20-,21+/m0/s1
INCHIAUX=N/A
PUBMED=N/A
SUBMITUSER=mwang87
TAGS=
LIBRARYQUALITY=3
SPECTRUMID=CCMSLIB00000426467
SCANS=1439
97.062 92.5 
109.046 100.0 
END IONS

BEGIN IONS
PEPMASS=133.086
CHARGE=1+
MSLEVEL=2
SOURCE_INSTRUMENT=Positive-Quattro_QQQ:10eV
FILENAME=hmdb_intermediate.mgf
SEQ=*..*
IONMODE=Positive
ORGANISM=HMDB
NAME=HMDB:HMDB00665-909 Leucinic acid M+H
PI=HMDB
DATACOLLECTOR=HMDB
SMILES=CC(C)CC(O)C(O)=O
INCHI=InChI=1S/C6H12O3/c1-4(2)3-5(7)6(8)9/h4-5,7H,3H2,1-2H3,(H,8,9)
INCHIAUX=N/A
PUBMED=N/A
SUBMITUSER=mwang87
TAGS=
LIBRARYQUALITY=3
SPECTRUMID=CCMSLIB00000426468
SCANS=1440
69.318 100.0 
69.569 76.802 
87.363 67.685 
END IONS

BEGIN IONS
PEPMASS=345.14
CHARGE=1+
MSLEVEL=2
SOURCE_INSTRUMENT=Positive-Quattro_QQQ:40eV
FILENAME=hmdb_intermediate.mgf
SEQ=*..*
IONMODE=Positive
ORGANISM=HMDB
NAME=HMDB:HMDB02928-2172 Maltitol M+H
PI=HMDB
DATACOLLECTOR=HMDB
SMILES=[H][C@@](O[C@H]1O[C@H](CO)[C@@H](O)[C@H](O)[C@H]1O)([C@H](O)CO)[C@H](O)[C@@H](O)CO
INCHI=InChI=1S/C12H24O11/c13-1-4(16)7(18)11(5(17)2-14)23-12-10(21)9(20)8(19)6(3-15)22-12/h4-21H,1-3H2/t4-,5+,6+,7+,8+,9-,10+,11+,12+/m0/s1
INCHIAUX=N/A
PUBMED=N/A
SUBMITUSER=mwang87
TAGS=
LIBRARYQUALITY=3
SPECTRUMID=CCMSLIB00000426469
SCANS=1441
69.0 100.0 
85.0 54.995 
END IONS

BEGIN IONS
PEPMASS=132.066
CHARGE=1+
MSLEVEL=2
SOURCE_INSTRUMENT=Positive-Quattro_QQQ:25eV
FILENAME=hmdb_intermediate.mgf
SEQ=*..*
IONMODE=Positive
ORGANISM=HMDB
NAME=HMDB:HMDB01149-1434 5-Aminolevulinic acid M+H
PI=HMDB
DATACOLLECTOR=HMDB
SMILES=NCC(=O)CCC(O)=O
INCHI=InChI=1S/C5H9NO3/c6-3-4(7)1-2-5(8)9/h1-3,6H2,(H,8,9)
INCHIAUX=N/A
PUBMED=N/A
SUBMITUSER=mwang87
TAGS=
LIBRARYQUALITY=3
SPECTRUMID=CCMSLIB00000426470
SCANS=1442
86.019 100.0 
86.517 87.097 
END IONS

BEGIN IONS
PEPMASS=181.05
CHARGE=1+
MSLEVEL=2
SOURCE_INSTRUMENT=Positive-Quattro_QQQ:10eV
FILENAME=hmdb_intermediate.mgf
SEQ=*..*
IONMODE=Positive
ORGANISM=HMDB
NAME=HMDB:HMDB01879-1777 Aspirin M+H
PI=HMDB
DATACOLLECTOR=HMDB
SMILES=CC(=O)OC1=CC=CC=C1C(O)=O
INCHI=InChI=1S/C9H8O4/c1-6(10)13-8-5-3-2-4-7(8)9(11)12/h2-5H,1H3,(H,11,12)
INCHIAUX=N/A
PUBMED=N/A
SUBMITUSER=mwang87
TAGS=
LIBRARYQUALITY=3
SPECTRUMID=CCMSLIB00000426471
SCANS=1443
85.0 100.0 
117.0 84.538 
END IONS

BEGIN IONS
PEPMASS=145.05
CHARGE=1+
MSLEVEL=2
SOURCE_INSTRUMENT=Positive-Quattro_QQQ:10eV
FILENAME=hmdb_intermediate.mgf
SEQ=*..*
IONMODE=Positive
ORGANISM=HMDB
NAME=HMDB:HMDB00393-600 3-Hexenedioic acid M+H
PI=HMDB
DATACOLLECTOR=HMDB
SMILES=OC(=O)C\C=C\CC(O)=O
INCHI=InChI=1S/C6H8O4/c7-5(8)3-1-2-4-6(9)10/h1-2H,3-4H2,(H,7,8)(H,9,10)/b2-1+
INCHIAUX=N/A
PUBMED=N/A
SUBMITUSER=mwang87
TAGS=
LIBRARYQUALITY=3
SPECTRUMID=CCMSLIB00000426472
SCANS=1444
99.1 100.0 
127.1 76.5769752124 
145.1 51.0286279596 
END IONS

BEGIN IONS
PEPMASS=343.124
CHARGE=1+
MSLEVEL=2
SOURCE_INSTRUMENT=Positive-Quattro_QQQ:25eV
FILENAME=hmdb_intermediate.mgf
SEQ=*..*
IONMODE=Positive
ORGANISM=HMDB
NAME=HMDB:HMDB00975-1373 Trehalose M+H
PI=HMDB
DATACOLLECTOR=HMDB
SMILES=OC[C@H]1O[C@H](O[C@H]2O[C@H](CO)[C@@H](O)[C@H](O)[C@H]2O)[C@H](O)[C@@H](O)[C@@H]1O
INCHI=InChI=1S/C12H22O11/c13-1-3-5(15)7(17)9(19)11(21-3)23-12-10(20)8(18)6(16)4(2-14)22-12/h3-20H,1-2H2/t3-,4-,5-,6-,7+,8+,9-,10-,11-,12-/m1/s1
INCHIAUX=N/A
PUBMED=N/A
SUBMITUSER=mwang87
TAGS=
LIBRARYQUALITY=3
SPECTRUMID=CCMSLIB00000426473
SCANS=1445
85.0 100.0 
END IONS

BEGIN IONS
PEPMASS=206.045
CHARGE=1+
MSLEVEL=2
SOURCE_INSTRUMENT=Positive-Quattro_QQQ:10eV
FILENAME=hmdb_intermediate.mgf
SEQ=*..*
IONMODE=Positive
ORGANISM=HMDB
NAME=HMDB:HMDB00881-1241 Xanthurenic acid M+H
PI=HMDB
DATACOLLECTOR=HMDB
SMILES=OC(=O)C1=NC2=C(O)C=CC=C2C(O)=C1
INCHI=InChI=1S/C10H7NO4/c12-7-3-1-2-5-8(13)4-6(10(14)15)11-9(5)7/h1-4,12H,(H,11,13)(H,14,15)
INCHIAUX=N/A
PUBMED=N/A
SUBMITUSER=mwang87
TAGS=
LIBRARYQUALITY=3
SPECTRUMID=CCMSLIB00000426474
SCANS=1446
205.971 100.0 
END IONS

BEGIN IONS
PEPMASS=153.019
CHARGE=1+
MSLEVEL=2
SOURCE_INSTRUMENT=Negative-Quattro_QQQ:10eV
FILENAME=hmdb_intermediate.mgf
SEQ=*..*
IONMODE=Negative
ORGANISM=HMDB
NAME=HMDB:HMDB00397-603 2-Pyrocatechuic acid M-H
PI=HMDB
DATACOLLECTOR=HMDB
SMILES=OC(=O)C1=CC=CC(O)=C1O
INCHI=InChI=1S/C7H6O4/c8-5-3-1-2-4(6(5)9)7(10)11/h1-3,8-9H,(H,10,11)
INCHIAUX=N/A
PUBMED=N/A
SUBMITUSER=mwang87
TAGS=
LIBRARYQUALITY=3
SPECTRUMID=CCMSLIB00000426475
SCANS=1447
109.151 50.249 
153.061 100.0 
END IONS

BEGIN IONS
PEPMASS=334.905
CHARGE=1+
MSLEVEL=2
SOURCE_INSTRUMENT=Negative-Quattro_QQQ:25eV
FILENAME=hmdb_intermediate.mgf
SEQ=*..*
IONMODE=Negative
ORGANISM=HMDB
NAME=HMDB:HMDB04122-2368 Selenocystine M-H
PI=HMDB
DATACOLLECTOR=HMDB
SMILES=NC(C[Se][Se]CC(N)C(O)=O)C(O)=O
INCHI=InChI=1S/C6H12N2O4Se2/c7-3(5(9)10)1-13-14-2-4(8)6(11)12/h3-4H,1-2,7-8H2,(H,9,10)(H,11,12)
INCHIAUX=N/A
PUBMED=N/A
SUBMITUSER=mwang87
TAGS=
LIBRARYQUALITY=3
SPECTRUMID=CCMSLIB00000426476
SCANS=1448
160.0 100.0 
END IONS

BEGIN IONS
PEPMASS=162.04
CHARGE=1+
MSLEVEL=2
SOURCE_INSTRUMENT=Positive-Quattro_QQQ:40eV
FILENAME=hmdb_intermediate.mgf
SEQ=*..*
IONMODE=Positive
ORGANISM=HMDB
NAME=HMDB:HMDB02467-2112 A-Ketoglutaric acid oxime M+H
PI=HMDB
DATACOLLECTOR=HMDB
SMILES=O\N=C(/CCC(O)=O)C(O)=O
INCHI=InChI=1S/C5H7NO5/c7-4(8)2-1-3(6-11)5(9)10/h11H,1-2H2,(H,7,8)(H,9,10)/b6-3+
INCHIAUX=N/A
PUBMED=N/A
SUBMITUSER=mwang87
TAGS=
LIBRARYQUALITY=3
SPECTRUMID=CCMSLIB00000426477
SCANS=1449
76.91 74.09 
77.51 78.993 
79.94 100.0 
91.31 77.358 
162.13 70.821 
END IONS

BEGIN IONS
PEPMASS=298.097
CHARGE=1+
MSLEVEL=2
SOURCE_INSTRUMENT=Positive-Quattro_QQQ:25eV
FILENAME=hmdb_intermediate.mgf
SEQ=*..*
IONMODE=Positive
ORGANISM=HMDB
NAME=HMDB:HMDB01173-1449 5'-Methylthioadenosine M+H
PI=HMDB
DATACOLLECTOR=HMDB
SMILES=CSC[C@H]1O[C@H]([C@H](O)[C@@H]1O)N1C=NC2=C1N=CN=C2N
INCHI=InChI=1S/C11H15N5O3S/c1-20-2-5-7(17)8(18)11(19-5)16-4-15-6-9(12)13-3-14-10(6)16/h3-5,7-8,11,17-18H,2H2,1H3,(H2,12,13,14)/t5-,7-,8-,11-/m1/s1
INCHIAUX=N/A
PUBMED=N/A
SUBMITUSER=mwang87
TAGS=
LIBRARYQUALITY=3
SPECTRUMID=CCMSLIB00000426478
SCANS=1450
136.0 100.0 
END IONS

BEGIN IONS
PEPMASS=117.092
CHARGE=1+
MSLEVEL=2
SOURCE_INSTRUMENT=Positive-Quattro_QQQ:25eV
FILENAME=hmdb_intermediate.mgf
SEQ=*..*
IONMODE=Positive
ORGANISM=HMDB
NAME=HMDB:HMDB00689-956 Isocaproic acid M+H
PI=HMDB
DATACOLLECTOR=HMDB
SMILES=CC(C)CCC(O)=O
INCHI=InChI=1S/C6H12O2/c1-5(2)3-4-6(7)8/h5H,3-4H2,1-2H3,(H,7,8)
INCHIAUX=N/A
PUBMED=N/A
SUBMITUSER=mwang87
TAGS=
LIBRARYQUALITY=3
SPECTRUMID=CCMSLIB00000426479
SCANS=1451
71.84 80.813 
76.16 89.473 
81.15 100.0 
END IONS

BEGIN IONS
PEPMASS=153.019
CHARGE=1+
MSLEVEL=2
SOURCE_INSTRUMENT=Negative-Quattro_QQQ:40eV
FILENAME=hmdb_intermediate.mgf
SEQ=*..*
IONMODE=Negative
ORGANISM=HMDB
NAME=HMDB:HMDB00152-235 Gentisic acid M-H
PI=HMDB
DATACOLLECTOR=HMDB
SMILES=OC(=O)C1=CC(O)=CC=C1O
INCHI=InChI=1S/C7H6O4/c8-4-1-2-6(9)5(3-4)7(10)11/h1-3,8-9H,(H,10,11)
INCHIAUX=N/A
PUBMED=N/A
SUBMITUSER=mwang87
TAGS=
LIBRARYQUALITY=3
SPECTRUMID=CCMSLIB00000426480
SCANS=1452
107.948 100.0 
END IONS

BEGIN IONS
PEPMASS=161.108
CHARGE=1+
MSLEVEL=2
SOURCE_INSTRUMENT=Positive-Quattro_QQQ:25eV
FILENAME=hmdb_intermediate.mgf
SEQ=*..*
IONMODE=Positive
ORGANISM=HMDB
NAME=HMDB:HMDB00303-517 Tryptamine M+H
PI=HMDB
DATACOLLECTOR=HMDB
SMILES=NCCC1=CNC2=CC=CC=C12
INCHI=InChI=1S/C10H12N2/c11-6-5-8-7-12-10-4-2-1-3-9(8)10/h1-4,7,12H,5-6,11H2
INCHIAUX=N/A
PUBMED=N/A
SUBMITUSER=mwang87
TAGS=
LIBRARYQUALITY=3
SPECTRUMID=CCMSLIB00000426481
SCANS=1453
143.643 100.0 
END IONS

BEGIN IONS
PEPMASS=343.124
CHARGE=1+
MSLEVEL=2
SOURCE_INSTRUMENT=Positive-Quattro_QQQ:10eV
FILENAME=hmdb_intermediate.mgf
SEQ=*..*
IONMODE=Positive
ORGANISM=HMDB
NAME=HMDB:HMDB02923-2163 Isomaltose M+H
PI=HMDB
DATACOLLECTOR=HMDB
SMILES=OC[C@H]1O[C@H](OC[C@H]2OC(O)[C@H](O)[C@@H](O)[C@@H]2O)[C@H](O)[C@@H](O)[C@@H]1O
INCHI=InChI=1S/C12H22O11/c13-1-3-5(14)8(17)10(19)12(23-3)21-2-4-6(15)7(16)9(18)11(20)22-4/h3-20H,1-2H2/t3-,4-,5-,6-,7+,8+,9-,10-,11?,12+/m1/s1
INCHIAUX=N/A
PUBMED=N/A
SUBMITUSER=mwang87
TAGS=
LIBRARYQUALITY=3
SPECTRUMID=CCMSLIB00000426482
SCANS=1454
163.0 79.697 
343.0 100.0 
END IONS

BEGIN IONS
PEPMASS=103.076
CHARGE=1+
MSLEVEL=2
SOURCE_INSTRUMENT=Positive-Quattro_QQQ:40eV
FILENAME=hmdb_intermediate.mgf
SEQ=*..*
IONMODE=Positive
ORGANISM=HMDB
NAME=HMDB:HMDB00892-1255 Valeric acid M+H
PI=HMDB
DATACOLLECTOR=HMDB
SMILES=CCCCC(O)=O
INCHI=InChI=1S/C5H10O2/c1-2-3-4-5(6)7/h2-4H2,1H3,(H,6,7)
INCHIAUX=N/A
PUBMED=N/A
SUBMITUSER=mwang87
TAGS=
LIBRARYQUALITY=3
SPECTRUMID=CCMSLIB00000426483
SCANS=1455
40.0 66.007 
41.0 100.0 
42.0 87.304 
43.0 96.963 
44.0 70.449 
45.0 61.477 
END IONS

BEGIN IONS
PEPMASS=224.092
CHARGE=1+
MSLEVEL=2
SOURCE_INSTRUMENT=Positive-Quattro_QQQ:10eV
FILENAME=hmdb_intermediate.mgf
SEQ=*..*
IONMODE=Positive
ORGANISM=HMDB
NAME=HMDB:HMDB00866-1220 N-Acetyl-L-tyrosine M+H
PI=HMDB
DATACOLLECTOR=HMDB
SMILES=CC(=O)N[C@@H](CC1=CC=C(O)C=C1)C(O)=O
INCHI=InChI=1S/C11H13NO4/c1-7(13)12-10(11(15)16)6-8-2-4-9(14)5-3-8/h2-5,10,14H,6H2,1H3,(H,12,13)(H,15,16)/t10-/m0/s1
INCHIAUX=N/A
PUBMED=N/A
SUBMITUSER=mwang87
TAGS=
LIBRARYQUALITY=3
SPECTRUMID=CCMSLIB00000426484
SCANS=1456
178.004 100.0 
181.986 72.189 
END IONS

BEGIN IONS
PEPMASS=133.014
CHARGE=1+
MSLEVEL=2
SOURCE_INSTRUMENT=Negative-Quattro_QQQ:40eV
FILENAME=hmdb_intermediate.mgf
SEQ=*..*
IONMODE=Negative
ORGANISM=HMDB
NAME=HMDB:HMDB00744-1058 Malic acid M-H
PI=HMDB
DATACOLLECTOR=HMDB
SMILES=OC(CC(O)=O)C(O)=O
INCHI=InChI=1S/C4H6O5/c5-2(4(8)9)1-3(6)7/h2,5H,1H2,(H,6,7)(H,8,9)
INCHIAUX=N/A
PUBMED=N/A
SUBMITUSER=mwang87
TAGS=
LIBRARYQUALITY=3
SPECTRUMID=CCMSLIB00000426485
SCANS=1457
43.298 77.895 
71.05 100.0 
132.972 53.158 
END IONS

BEGIN IONS
PEPMASS=110.028
CHARGE=1+
MSLEVEL=2
SOURCE_INSTRUMENT=Positive-Quattro_QQQ:10eV
FILENAME=hmdb_intermediate.mgf
SEQ=*..*
IONMODE=Positive
ORGANISM=HMDB
NAME=HMDB:HMDB00965-1369 Hypotaurine M+H
PI=HMDB
DATACOLLECTOR=HMDB
SMILES=NCCS(O)=O
INCHI=InChI=1S/C2H7NO2S/c3-1-2-6(4)5/h1-3H2,(H,4,5)
INCHIAUX=N/A
PUBMED=N/A
SUBMITUSER=mwang87
TAGS=
LIBRARYQUALITY=3
SPECTRUMID=CCMSLIB00000426486
SCANS=1458
92.0 100.0 
110.0 91.907 
END IONS

BEGIN IONS
PEPMASS=131.071
CHARGE=1+
MSLEVEL=2
SOURCE_INSTRUMENT=Positive-Quattro_QQQ:25eV
FILENAME=hmdb_intermediate.mgf
SEQ=*..*
IONMODE=Positive
ORGANISM=HMDB
NAME=HMDB:HMDB00695-967 Ketoleucine M+H
PI=HMDB
DATACOLLECTOR=HMDB
SMILES=CC(C)CC(=O)C(O)=O
INCHI=InChI=1S/C6H10O3/c1-4(2)3-5(7)6(8)9/h4H,3H2,1-2H3,(H,8,9)
INCHIAUX=N/A
PUBMED=N/A
SUBMITUSER=mwang87
TAGS=
LIBRARYQUALITY=3
SPECTRUMID=CCMSLIB00000426487
SCANS=1459
69.63 100.0 
END IONS

BEGIN IONS
PEPMASS=283.264
CHARGE=1+
MSLEVEL=2
SOURCE_INSTRUMENT=Positive-Quattro_QQQ:10eV
FILENAME=hmdb_intermediate.mgf
SEQ=*..*
IONMODE=Positive
ORGANISM=HMDB
NAME=HMDB:HMDB03231-2215 Vaccenic acid M+H
PI=HMDB
DATACOLLECTOR=HMDB
SMILES=CCCCCC\C=C/CCCCCCCCCC(O)=O
INCHI=InChI=1S/C18H34O2/c1-2-3-4-5-6-7-8-9-10-11-12-13-14-15-16-17-18(19)20/h7-8H,2-6,9-17H2,1H3,(H,19,20)/b8-7-
INCHIAUX=N/A
PUBMED=N/A
SUBMITUSER=mwang87
TAGS=
LIBRARYQUALITY=3
SPECTRUMID=CCMSLIB00000426488
SCANS=1460
282.0 100.0 
283.0 72.29 
END IONS

BEGIN IONS
PEPMASS=192.066
CHARGE=1+
MSLEVEL=2
SOURCE_INSTRUMENT=Positive-Quattro_QQQ:25eV
FILENAME=hmdb_intermediate.mgf
SEQ=*..*
IONMODE=Positive
ORGANISM=HMDB
NAME=HMDB:HMDB00763-1096 5-Hydroxyindoleacetic acid M+H
PI=HMDB
DATACOLLECTOR=HMDB
SMILES=OC(=O)CC1=CNC2=CC=C(O)C=C12
INCHI=InChI=1S/C10H9NO3/c12-7-1-2-9-8(4-7)6(5-11-9)3-10(13)14/h1-2,4-5,11-12H,3H2,(H,13,14)
INCHIAUX=N/A
PUBMED=N/A
SUBMITUSER=mwang87
TAGS=
LIBRARYQUALITY=3
SPECTRUMID=CCMSLIB00000426489
SCANS=1461
145.965 100.0 
END IONS

BEGIN IONS
PEPMASS=159.139
CHARGE=1+
MSLEVEL=2
SOURCE_INSTRUMENT=Positive-Quattro_QQQ:25eV
FILENAME=hmdb_intermediate.mgf
SEQ=*..*
IONMODE=Positive
ORGANISM=HMDB
NAME=HMDB:HMDB00847-1194 Pelargonic acid M+H
PI=HMDB
DATACOLLECTOR=HMDB
SMILES=CCCCCCCCC(O)=O
INCHI=InChI=1S/C9H18O2/c1-2-3-4-5-6-7-8-9(10)11/h2-8H2,1H3,(H,10,11)
INCHIAUX=N/A
PUBMED=N/A
SUBMITUSER=mwang87
TAGS=
LIBRARYQUALITY=3
SPECTRUMID=CCMSLIB00000426490
SCANS=1462
43.0 100.0 
END IONS

BEGIN IONS
PEPMASS=255.232
CHARGE=1+
MSLEVEL=2
SOURCE_INSTRUMENT=Negative-Quattro_QQQ:10eV
FILENAME=hmdb_intermediate.mgf
SEQ=*..*
IONMODE=Negative
ORGANISM=HMDB
NAME=HMDB:HMDB60083-358 Palmitic acid M-H
PI=HMDB
DATACOLLECTOR=HMDB
SMILES=CCCCCCCCCCCCCCCC(O)=O
INCHI=InChI=1S/C16H32O2/c1-2-3-4-5-6-7-8-9-10-11-12-13-14-15-16(17)18/h2-15H2,1H3,(H,17,18)
INCHIAUX=N/A
PUBMED=N/A
SUBMITUSER=mwang87
TAGS=
LIBRARYQUALITY=3
SPECTRUMID=CCMSLIB00000426491
SCANS=1463
255.143 100.0 
END IONS

BEGIN IONS
PEPMASS=271.181
CHARGE=1+
MSLEVEL=2
SOURCE_INSTRUMENT=Positive-Quattro_QQQ:40eV
FILENAME=hmdb_intermediate.mgf
SEQ=*..*
IONMODE=Positive
ORGANISM=HMDB
NAME=HMDB:HMDB01936-1886 Doxylamine M+H
PI=HMDB
DATACOLLECTOR=HMDB
SMILES=CN(C)CCOC(C)(C1=CC=CC=C1)C1=NC=CC=C1
INCHI=InChI=1S/C17H22N2O/c1-17(20-14-13-19(2)3,15-9-5-4-6-10-15)16-11-7-8-12-18-16/h4-12H,13-14H2,1-3H3
INCHIAUX=N/A
PUBMED=N/A
SUBMITUSER=mwang87
TAGS=
LIBRARYQUALITY=3
SPECTRUMID=CCMSLIB00000426492
SCANS=1464
95.716 100.0 
215.115 53.953 
END IONS

BEGIN IONS
PEPMASS=137.133
CHARGE=1+
MSLEVEL=2
SOURCE_INSTRUMENT=Positive-Quattro_QQQ:25eV
FILENAME=hmdb_intermediate.mgf
SEQ=*..*
IONMODE=Positive
ORGANISM=HMDB
NAME=HMDB:HMDB03375-2275 D-Limonene M+H
PI=HMDB
DATACOLLECTOR=HMDB
SMILES=CC(=C)[C@H]1CCC(C)=CC1
INCHI=InChI=1S/C10H16/c1-8(2)10-6-4-9(3)5-7-10/h4,10H,1,5-7H2,2-3H3/t10-/m1/s1
INCHIAUX=N/A
PUBMED=N/A
SUBMITUSER=mwang87
TAGS=
LIBRARYQUALITY=3
SPECTRUMID=CCMSLIB00000426493
SCANS=1465
40.0 50.798 
41.0 75.163 
42.0 64.497 
54.0 53.959 
66.0 58.115 
67.0 64.438 
68.0 56.097 
76.0 71.362 
78.0 57.602 
79.0 62.27 
80.0 100.0 
93.0 60.344 
94.0 76.091 
END IONS

BEGIN IONS
PEPMASS=159.102
CHARGE=1+
MSLEVEL=2
SOURCE_INSTRUMENT=Negative-Quattro_QQQ:40eV
FILENAME=hmdb_intermediate.mgf
SEQ=*..*
IONMODE=Negative
ORGANISM=HMDB
NAME=HMDB:HMDB00711-995 Hydroxyoctanoic acid M-H
PI=HMDB
DATACOLLECTOR=HMDB
SMILES=CCCCCCC(O)C(O)=O
INCHI=InChI=1S/C8H16O3/c1-2-3-4-5-6-7(9)8(10)11/h7,9H,2-6H2,1H3,(H,10,11)
INCHIAUX=N/A
PUBMED=N/A
SUBMITUSER=mwang87
TAGS=
LIBRARYQUALITY=3
SPECTRUMID=CCMSLIB00000426494
SCANS=1466
45.525 100.0 
END IONS

BEGIN IONS
PEPMASS=151.112
CHARGE=1+
MSLEVEL=2
SOURCE_INSTRUMENT=Positive-Quattro_QQQ:25eV
FILENAME=hmdb_intermediate.mgf
SEQ=*..*
IONMODE=Positive
ORGANISM=HMDB
NAME=HMDB:HMDB01878-1775 Thymol M+H
PI=HMDB
DATACOLLECTOR=HMDB
SMILES=CC(C)C1=C(O)C=C(C)C=C1
INCHI=InChI=1S/C10H14O/c1-7(2)9-5-4-8(3)6-10(9)11/h4-7,11H,1-3H3
INCHIAUX=N/A
PUBMED=N/A
SUBMITUSER=mwang87
TAGS=
LIBRARYQUALITY=3
SPECTRUMID=CCMSLIB00000426495
SCANS=1467
69.131 100.0 
69.505 80.929 
END IONS

BEGIN IONS
PEPMASS=137.133
CHARGE=1+
MSLEVEL=2
SOURCE_INSTRUMENT=Positive-Quattro_QQQ:25eV
FILENAME=hmdb_intermediate.mgf
SEQ=*..*
IONMODE=Positive
ORGANISM=HMDB
NAME=HMDB:HMDB05806-2452 Gamma-terpinene M+H
PI=HMDB
DATACOLLECTOR=HMDB
SMILES=CC(C)C1=CCC(C)=CC1
INCHI=InChI=1S/C10H16/c1-8(2)10-6-4-9(3)5-7-10/h4,7-8H,5-6H2,1-3H3
INCHIAUX=N/A
PUBMED=N/A
SUBMITUSER=mwang87
TAGS=
LIBRARYQUALITY=3
SPECTRUMID=CCMSLIB00000426496
SCANS=1468
41.27 62.435 
66.9 100.0 
80.76 78.474 
END IONS

BEGIN IONS
PEPMASS=103.124
CHARGE=1+
MSLEVEL=2
SOURCE_INSTRUMENT=Positive-Quattro_QQQ:40eV
FILENAME=hmdb_intermediate.mgf
SEQ=*..*
IONMODE=Positive
ORGANISM=HMDB
NAME=HMDB:HMDB02322-2057 Cadaverine M+H
PI=HMDB
DATACOLLECTOR=HMDB
SMILES=NCCCCCN
INCHI=InChI=1S/C5H14N2/c6-4-2-1-3-5-7/h1-7H2
INCHIAUX=N/A
PUBMED=N/A
SUBMITUSER=mwang87
TAGS=
LIBRARYQUALITY=3
SPECTRUMID=CCMSLIB00000426497
SCANS=1469
41.0 100.0 
END IONS

BEGIN IONS
PEPMASS=101.024
CHARGE=1+
MSLEVEL=2
SOURCE_INSTRUMENT=Negative-Quattro_QQQ:25eV
FILENAME=hmdb_intermediate.mgf
SEQ=*..*
IONMODE=Negative
ORGANISM=HMDB
NAME=HMDB:HMDB00005-8 2-Ketobutyric acid M-H
PI=HMDB
DATACOLLECTOR=HMDB
SMILES=CCC(=O)C(O)=O
INCHI=InChI=1S/C4H6O3/c1-2-3(5)4(6)7/h2H2,1H3,(H,6,7)
INCHIAUX=N/A
PUBMED=N/A
SUBMITUSER=mwang87
TAGS=
LIBRARYQUALITY=3
SPECTRUMID=CCMSLIB00000426498
SCANS=1470
57.462 51.62 
101.097 100.0 
END IONS

BEGIN IONS
PEPMASS=115.112
CHARGE=1+
MSLEVEL=2
SOURCE_INSTRUMENT=Positive-Quattro_QQQ:25eV
FILENAME=hmdb_intermediate.mgf
SEQ=*..*
IONMODE=Positive
ORGANISM=HMDB
NAME=HMDB:HMDB04814-2407 4-Heptanone M+H
PI=HMDB
DATACOLLECTOR=HMDB
SMILES=CCCC(=O)CCC
INCHI=InChI=1S/C7H14O/c1-3-5-7(8)6-4-2/h3-6H2,1-2H3
INCHIAUX=N/A
PUBMED=N/A
SUBMITUSER=mwang87
TAGS=
LIBRARYQUALITY=3
SPECTRUMID=CCMSLIB00000426499
SCANS=1471
55.11 100.0 
END IONS

BEGIN IONS
PEPMASS=61.029
CHARGE=1+
MSLEVEL=2
SOURCE_INSTRUMENT=Positive-Quattro_QQQ:40eV
FILENAME=hmdb_intermediate.mgf
SEQ=*..*
IONMODE=Positive
ORGANISM=HMDB
NAME=HMDB:HMDB00042-71 Acetic acid M+H
PI=HMDB
DATACOLLECTOR=HMDB
SMILES=CC(O)=O
INCHI=InChI=1S/C2H4O2/c1-2(3)4/h1H3,(H,3,4)
INCHIAUX=N/A
PUBMED=N/A
SUBMITUSER=mwang87
TAGS=
LIBRARYQUALITY=3
SPECTRUMID=CCMSLIB00000426500
SCANS=1472
44.284 100.0 
44.658 55.854 
END IONS

BEGIN IONS
PEPMASS=131.071
CHARGE=1+
MSLEVEL=2
SOURCE_INSTRUMENT=Positive-Quattro_QQQ:40eV
FILENAME=hmdb_intermediate.mgf
SEQ=*..*
IONMODE=Positive
ORGANISM=HMDB
NAME=HMDB:HMDB00695-968 Ketoleucine M+H
PI=HMDB
DATACOLLECTOR=HMDB
SMILES=CC(C)CC(=O)C(O)=O
INCHI=InChI=1S/C6H10O3/c1-4(2)3-5(7)6(8)9/h4H,3H2,1-2H3,(H,8,9)
INCHIAUX=N/A
PUBMED=N/A
SUBMITUSER=mwang87
TAGS=
LIBRARYQUALITY=3
SPECTRUMID=CCMSLIB00000426501
SCANS=1473
69.74 87.495 
98.54 100.0 
END IONS

BEGIN IONS
PEPMASS=271.181
CHARGE=1+
MSLEVEL=2
SOURCE_INSTRUMENT=Positive-Quattro_QQQ:10eV
FILENAME=hmdb_intermediate.mgf
SEQ=*..*
IONMODE=Positive
ORGANISM=HMDB
NAME=HMDB:HMDB01936-1884 Doxylamine M+H
PI=HMDB
DATACOLLECTOR=HMDB
SMILES=CN(C)CCOC(C)(C1=CC=CC=C1)C1=NC=CC=C1
INCHI=InChI=1S/C17H22N2O/c1-17(20-14-13-19(2)3,15-9-5-4-6-10-15)16-11-7-8-12-18-16/h4-12H,13-14H2,1-3H3
INCHIAUX=N/A
PUBMED=N/A
SUBMITUSER=mwang87
TAGS=
LIBRARYQUALITY=3
SPECTRUMID=CCMSLIB00000426502
SCANS=1474
129.935 85.714 
184.916 100.0 
389.048 78.569 
END IONS

BEGIN IONS
PEPMASS=81.9725
CHARGE=1+
MSLEVEL=2
SOURCE_INSTRUMENT=Positive-Quattro_QQQ:10eV
FILENAME=hmdb_intermediate.mgf
SEQ=*..*
IONMODE=Positive
ORGANISM=HMDB
NAME=HMDB:HMDB01033-1393 Hydrogen sulfite M+H
PI=HMDB
DATACOLLECTOR=HMDB
SMILES=OS([O-])=O
INCHI=InChI=1S/H2O3S/c1-4(2)3/h(H2,1,2,3)/p-1
INCHIAUX=N/A
PUBMED=N/A
SUBMITUSER=mwang87
TAGS=
LIBRARYQUALITY=3
SPECTRUMID=CCMSLIB00000426503
SCANS=1475
81.0 100.0 
82.0 56.926 
END IONS

BEGIN IONS
PEPMASS=400.343
CHARGE=1+
MSLEVEL=2
SOURCE_INSTRUMENT=Positive-Quattro_QQQ:10eV
FILENAME=hmdb_intermediate.mgf
SEQ=*..*
IONMODE=Positive
ORGANISM=HMDB
NAME=HMDB:HMDB00222-364 L-Palmitoylcarnitine M+H
PI=HMDB
DATACOLLECTOR=HMDB
SMILES=CCCCCCCCCCCCCCCC(=O)O[C@H](CC([O-])=O)C[N+](C)(C)C
INCHI=InChI=1S/C23H45NO4/c1-5-6-7-8-9-10-11-12-13-14-15-16-17-18-23(27)28-21(19-22(25)26)20-24(2,3)4/h21H,5-20H2,1-4H3/t21-/m1/s1
INCHIAUX=N/A
PUBMED=N/A
SUBMITUSER=mwang87
TAGS=
LIBRARYQUALITY=3
SPECTRUMID=CCMSLIB00000426504
SCANS=1476
400.3 100.0 
END IONS

BEGIN IONS
PEPMASS=104.071
CHARGE=1+
MSLEVEL=2
SOURCE_INSTRUMENT=Positive-Quattro_QQQ:40eV
FILENAME=hmdb_intermediate.mgf
SEQ=*..*
IONMODE=Positive
ORGANISM=HMDB
NAME=HMDB:HMDB00650-887 D-Alpha-aminobutyric acid M+H
PI=HMDB
DATACOLLECTOR=HMDB
SMILES=CC[C@@H](N)C(O)=O
INCHI=InChI=1S/C4H9NO2/c1-2-3(5)4(6)7/h3H,2,5H2,1H3,(H,6,7)/t3-/m1/s1
INCHIAUX=N/A
PUBMED=N/A
SUBMITUSER=mwang87
TAGS=
LIBRARYQUALITY=3
SPECTRUMID=CCMSLIB00000426505
SCANS=1477
41.3 50.794 
43.159 100.0 
57.993 86.243 
END IONS

BEGIN IONS
PEPMASS=61.029
CHARGE=1+
MSLEVEL=2
SOURCE_INSTRUMENT=Positive-Quattro_QQQ:10eV
FILENAME=hmdb_intermediate.mgf
SEQ=*..*
IONMODE=Positive
ORGANISM=HMDB
NAME=HMDB:HMDB00042-69 Acetic acid M+H
PI=HMDB
DATACOLLECTOR=HMDB
SMILES=CC(O)=O
INCHI=InChI=1S/C2H4O2/c1-2(3)4/h1H3,(H,3,4)
INCHIAUX=N/A
PUBMED=N/A
SUBMITUSER=mwang87
TAGS=
LIBRARYQUALITY=3
SPECTRUMID=CCMSLIB00000426506
SCANS=1478
61.348 100.0 
END IONS

BEGIN IONS
PEPMASS=62.0606
CHARGE=1+
MSLEVEL=2
SOURCE_INSTRUMENT=Positive-Quattro_QQQ:40eV
FILENAME=hmdb_intermediate.mgf
SEQ=*..*
IONMODE=Positive
ORGANISM=HMDB
NAME=HMDB:HMDB00149-226 Ethanolamine M+H
PI=HMDB
DATACOLLECTOR=HMDB
SMILES=NCCO
INCHI=InChI=1S/C2H7NO/c3-1-2-4/h4H,1-3H2
INCHIAUX=N/A
PUBMED=N/A
SUBMITUSER=mwang87
TAGS=
LIBRARYQUALITY=3
SPECTRUMID=CCMSLIB00000426507
SCANS=1479
62.0 100.0 
END IONS

BEGIN IONS
PEPMASS=132.15
CHARGE=1+
MSLEVEL=2
SOURCE_INSTRUMENT=Positive-Quattro_QQQ:25eV
FILENAME=hmdb_intermediate.mgf
SEQ=*..*
IONMODE=Positive
ORGANISM=HMDB
NAME=HMDB:HMDB11634-2494 Norspermidine M+H
PI=HMDB
DATACOLLECTOR=HMDB
SMILES=NCCCNCCCN
INCHI=InChI=1S/C6H17N3/c7-3-1-5-9-6-2-4-8/h9H,1-8H2
INCHIAUX=N/A
PUBMED=N/A
SUBMITUSER=mwang87
TAGS=
LIBRARYQUALITY=3
SPECTRUMID=CCMSLIB00000426508
SCANS=1480
58.11 61.98 
131.75 100.0 
END IONS

BEGIN IONS
PEPMASS=118.066
CHARGE=1+
MSLEVEL=2
SOURCE_INSTRUMENT=Positive-Quattro_QQQ:25eV
FILENAME=hmdb_intermediate.mgf
SEQ=*..*
IONMODE=Positive
ORGANISM=HMDB
NAME=HMDB:HMDB00738-1048 Indole M+H
PI=HMDB
DATACOLLECTOR=HMDB
SMILES=N1C=CC2=C1C=CC=C2
INCHI=InChI=1S/C8H7N/c1-2-4-8-7(3-1)5-6-9-8/h1-6,9H
INCHIAUX=N/A
PUBMED=N/A
SUBMITUSER=mwang87
TAGS=
LIBRARYQUALITY=3
SPECTRUMID=CCMSLIB00000426509
SCANS=1481
91.018 100.0 
END IONS

BEGIN IONS
PEPMASS=343.124
CHARGE=1+
MSLEVEL=2
SOURCE_INSTRUMENT=Positive-Quattro_QQQ:10eV
FILENAME=hmdb_intermediate.mgf
SEQ=*..*
IONMODE=Positive
ORGANISM=HMDB
NAME=HMDB:HMDB00163-257 D-Maltose M+H
PI=HMDB
DATACOLLECTOR=HMDB
SMILES=OC[C@H]1O[C@H](O[C@H]2[C@H](O)[C@H](O)[C@@H](O)O[C@@H]2CO)[C@H](O)[C@@H](O)[C@@H]1O
INCHI=InChI=1S/C12H22O11/c13-1-3-5(15)6(16)9(19)12(22-3)23-10-4(2-14)21-11(20)8(18)7(10)17/h3-20H,1-2H2/t3-,4-,5-,6+,7-,8+,9-,10-,11+,12-/m1/s1
INCHIAUX=N/A
PUBMED=N/A
SUBMITUSER=mwang87
TAGS=
LIBRARYQUALITY=3
SPECTRUMID=CCMSLIB00000426510
SCANS=1482
342.48 100.0 
342.59 99.271 
END IONS

BEGIN IONS
PEPMASS=259.093
CHARGE=1+
MSLEVEL=2
SOURCE_INSTRUMENT=Positive-Quattro_QQQ:25eV
FILENAME=hmdb_intermediate.mgf
SEQ=*..*
IONMODE=Positive
ORGANISM=HMDB
NAME=HMDB:HMDB00884-1248 Ribothymidine M+H
PI=HMDB
DATACOLLECTOR=HMDB
SMILES=CC1=CN([C@@H]2O[C@H](CO)[C@@H](O)[C@H]2O)C(=O)NC1=O
INCHI=InChI=1S/C10H14N2O6/c1-4-2-12(10(17)11-8(4)16)9-7(15)6(14)5(3-13)18-9/h2,5-7,9,13-15H,3H2,1H3,(H,11,16,17)/t5-,6-,7-,9-/m1/s1
INCHIAUX=N/A
PUBMED=N/A
SUBMITUSER=mwang87
TAGS=
LIBRARYQUALITY=3
SPECTRUMID=CCMSLIB00000426511
SCANS=1483
126.995 100.0 
END IONS

BEGIN IONS
PEPMASS=138.055
CHARGE=1+
MSLEVEL=2
SOURCE_INSTRUMENT=Positive-Quattro_QQQ:25eV
FILENAME=hmdb_intermediate.mgf
SEQ=*..*
IONMODE=Positive
ORGANISM=HMDB
NAME=HMDB:HMDB01538-1635 3-Pyridylacetic acid M+H
PI=HMDB
DATACOLLECTOR=HMDB
SMILES=OC(=O)CC1=CN=CC=C1
INCHI=InChI=1S/C7H7NO2/c9-7(10)4-6-2-1-3-8-5-6/h1-3,5H,4H2,(H,9,10)
INCHIAUX=N/A
PUBMED=N/A
SUBMITUSER=mwang87
TAGS=
LIBRARYQUALITY=3
SPECTRUMID=CCMSLIB00000426512
SCANS=1484
93.0 100.0 
END IONS

BEGIN IONS
PEPMASS=241.253
CHARGE=1+
MSLEVEL=2
SOURCE_INSTRUMENT=Negative-Quattro_QQQ:25eV
FILENAME=hmdb_intermediate.mgf
SEQ=*..*
IONMODE=Negative
ORGANISM=HMDB
NAME=HMDB:HMDB03424-2305 1-Hexadecanol M-H
PI=HMDB
DATACOLLECTOR=HMDB
SMILES=CCCCCCCCCCCCCCCCO
INCHI=InChI=1S/C16H34O/c1-2-3-4-5-6-7-8-9-10-11-12-13-14-15-16-17/h17H,2-16H2,1H3
INCHIAUX=N/A
PUBMED=N/A
SUBMITUSER=mwang87
TAGS=
LIBRARYQUALITY=3
SPECTRUMID=CCMSLIB00000426513
SCANS=1485
154.0 100.0 
END IONS

BEGIN IONS
PEPMASS=300.29
CHARGE=1+
MSLEVEL=2
SOURCE_INSTRUMENT=Positive-Quattro_QQQ:10eV
FILENAME=hmdb_intermediate.mgf
SEQ=*..*
IONMODE=Positive
ORGANISM=HMDB
NAME=HMDB:HMDB00252-433 Sphingosine M+H
PI=HMDB
DATACOLLECTOR=HMDB
SMILES=CCCCCCCCCCCCC\C=C\C(O)C(N)CO
INCHI=InChI=1S/C18H37NO2/c1-2-3-4-5-6-7-8-9-10-11-12-13-14-15-18(21)17(19)16-20/h14-15,17-18,20-21H,2-13,16,19H2,1H3/b15-14+
INCHIAUX=N/A
PUBMED=N/A
SUBMITUSER=mwang87
TAGS=
LIBRARYQUALITY=3
SPECTRUMID=CCMSLIB00000426514
SCANS=1486
282.0 100.0 
END IONS

BEGIN IONS
PEPMASS=124.04
CHARGE=1+
MSLEVEL=2
SOURCE_INSTRUMENT=Positive-Quattro_QQQ:10eV
FILENAME=hmdb_intermediate.mgf
SEQ=*..*
IONMODE=Positive
ORGANISM=HMDB
NAME=HMDB:HMDB02243-2043 Picolinic acid M+H
PI=HMDB
DATACOLLECTOR=HMDB
SMILES=OC(=O)C1=CC=CC=N1
INCHI=InChI=1S/C6H5NO2/c8-6(9)5-3-1-2-4-7-5/h1-4H,(H,8,9)
INCHIAUX=N/A
PUBMED=N/A
SUBMITUSER=mwang87
TAGS=
LIBRARYQUALITY=3
SPECTRUMID=CCMSLIB00000426515
SCANS=1487
77.96 72.156 
105.87 100.0 
123.85 67.919 
END IONS

BEGIN IONS
PEPMASS=93.0552
CHARGE=1+
MSLEVEL=2
SOURCE_INSTRUMENT=Positive-Quattro_QQQ:40eV
FILENAME=hmdb_intermediate.mgf
SEQ=*..*
IONMODE=Positive
ORGANISM=HMDB
NAME=HMDB:HMDB00131-202 Glycerol M+H
PI=HMDB
DATACOLLECTOR=HMDB
SMILES=OCC(O)CO
INCHI=InChI=1S/C3H8O3/c4-1-3(6)2-5/h3-6H,1-2H2
INCHIAUX=N/A
PUBMED=N/A
SUBMITUSER=mwang87
TAGS=
LIBRARYQUALITY=3
SPECTRUMID=CCMSLIB00000426516
SCANS=1488
51.165 89.448 
51.663 93.964 
53.032 100.0 
END IONS

BEGIN IONS
PEPMASS=56.9673
CHARGE=1+
MSLEVEL=2
SOURCE_INSTRUMENT=Negative-Quattro_QQQ:10eV
FILENAME=hmdb_intermediate.mgf
SEQ=*..*
IONMODE=Negative
ORGANISM=HMDB
NAME=HMDB:HMDB01453-1583 Thiocyanate M-H
PI=HMDB
DATACOLLECTOR=HMDB
SMILES=[S-]C#N
INCHI=InChI=1S/CHNS/c2-1-3/h3H/p-1
INCHIAUX=N/A
PUBMED=N/A
SUBMITUSER=mwang87
TAGS=
LIBRARYQUALITY=3
SPECTRUMID=CCMSLIB00000426517
SCANS=1489
57.0 100.0 
END IONS

BEGIN IONS
PEPMASS=166.054
CHARGE=1+
MSLEVEL=2
SOURCE_INSTRUMENT=Positive-Quattro_QQQ:40eV
FILENAME=hmdb_intermediate.mgf
SEQ=*..*
IONMODE=Positive
ORGANISM=HMDB
NAME=HMDB:HMDB02005-1943 Methionine sulfoxide M+H
PI=HMDB
DATACOLLECTOR=HMDB
SMILES=CS(=O)CCC(N)C(O)=O
INCHI=InChI=1S/C5H11NO3S/c1-10(9)3-2-4(6)5(7)8/h4H,2-3,6H2,1H3,(H,7,8)
INCHIAUX=N/A
PUBMED=N/A
SUBMITUSER=mwang87
TAGS=
LIBRARYQUALITY=3
SPECTRUMID=CCMSLIB00000426518
SCANS=1490
74.0 100.0 
END IONS

BEGIN IONS
PEPMASS=271.17
CHARGE=1+
MSLEVEL=2
SOURCE_INSTRUMENT=Positive-Quattro_QQQ:25eV
FILENAME=hmdb_intermediate.mgf
SEQ=*..*
IONMODE=Positive
ORGANISM=HMDB
NAME=HMDB:HMDB00145-219 Estrone M+H
PI=HMDB
DATACOLLECTOR=HMDB
SMILES=[H][C@@]12CCC(=O)[C@@]1(C)CC[C@]1([H])C3=C(CC[C@@]21[H])C=C(O)C=C3
INCHI=InChI=1S/C18H22O2/c1-18-9-8-14-13-5-3-12(19)10-11(13)2-4-15(14)16(18)6-7-17(18)20/h3,5,10,14-16,19H,2,4,6-9H2,1H3/t14-,15-,16+,18+/m1/s1
INCHIAUX=N/A
PUBMED=N/A
SUBMITUSER=mwang87
TAGS=
LIBRARYQUALITY=3
SPECTRUMID=CCMSLIB00000426519
SCANS=1491
69.0 91.407 
81.0 100.0 
93.0 57.059 
95.0 70.839 
107.0 62.971 
109.0 60.224 
119.0 55.032 
131.0 51.112 
145.0 74.826 
147.0 63.691 
159.0 93.157 
187.0 57.411 
END IONS

BEGIN IONS
PEPMASS=143.046
CHARGE=1+
MSLEVEL=2
SOURCE_INSTRUMENT=Positive-Quattro_QQQ:25eV
FILENAME=hmdb_intermediate.mgf
SEQ=*..*
IONMODE=Positive
ORGANISM=HMDB
NAME=HMDB:HMDB00469-684 5-Hydroxymethyluracil M+H
PI=HMDB
DATACOLLECTOR=HMDB
SMILES=OCC1=CNC(=O)NC1=O
INCHI=InChI=1S/C5H6N2O3/c8-2-3-1-6-5(10)7-4(3)9/h1,8H,2H2,(H2,6,7,9,10)
INCHIAUX=N/A
PUBMED=N/A
SUBMITUSER=mwang87
TAGS=
LIBRARYQUALITY=3
SPECTRUMID=CCMSLIB00000426520
SCANS=1492
54.265 54.93 
82.067 100.0 
END IONS

BEGIN IONS
PEPMASS=287.113
CHARGE=1+
MSLEVEL=2
SOURCE_INSTRUMENT=Positive-Quattro_QQQ:10eV
FILENAME=hmdb_intermediate.mgf
SEQ=*..*
IONMODE=Positive
ORGANISM=HMDB
NAME=HMDB:HMDB03546-2325 Salicin M+H
PI=HMDB
DATACOLLECTOR=HMDB
SMILES=OC[C@H]1O[C@@H](OC2=C(CO)C=CC=C2)[C@H](O)[C@@H](O)[C@@H]1O
INCHI=InChI=1S/C13H18O7/c14-5-7-3-1-2-4-8(7)19-13-12(18)11(17)10(16)9(6-15)20-13/h1-4,9-18H,5-6H2/t9-,10-,11+,12-,13-/m1/s1
INCHIAUX=N/A
PUBMED=N/A
SUBMITUSER=mwang87
TAGS=
LIBRARYQUALITY=3
SPECTRUMID=CCMSLIB00000426521
SCANS=1493
106.82 100.0 
END IONS

BEGIN IONS
PEPMASS=134.045
CHARGE=1+
MSLEVEL=2
SOURCE_INSTRUMENT=Positive-Quattro_QQQ:25eV
FILENAME=hmdb_intermediate.mgf
SEQ=*..*
IONMODE=Positive
ORGANISM=HMDB
NAME=HMDB:HMDB00191-305 L-Aspartic acid M+H
PI=HMDB
DATACOLLECTOR=HMDB
SMILES=N[C@@H](CC(O)=O)C(O)=O
INCHI=InChI=1S/C4H7NO4/c5-2(4(8)9)1-3(6)7/h2H,1,5H2,(H,6,7)(H,8,9)/t2-/m0/s1
INCHIAUX=N/A
PUBMED=N/A
SUBMITUSER=mwang87
TAGS=
LIBRARYQUALITY=3
SPECTRUMID=CCMSLIB00000426522
SCANS=1494
74.02 100.0 
END IONS

BEGIN IONS
PEPMASS=505.177
CHARGE=1+
MSLEVEL=2
SOURCE_INSTRUMENT=Positive-Quattro_QQQ:25eV
FILENAME=hmdb_intermediate.mgf
SEQ=*..*
IONMODE=Positive
ORGANISM=HMDB
NAME=HMDB:HMDB01262-1495 Maltotriose M+H
PI=HMDB
DATACOLLECTOR=HMDB
SMILES=OC[C@H]1O[C@H](O[C@H]2[C@H](O)[C@@H](O)[C@@H](O[C@H]3[C@H](O)[C@@H](O)C(O)O[C@@H]3CO)O[C@@H]2CO)[C@H](O)[C@@H](O)[C@@H]1O
INCHI=InChI=1S/C18H32O16/c19-1-4-7(22)8(23)12(27)17(31-4)34-15-6(3-21)32-18(13(28)10(15)25)33-14-5(2-20)30-16(29)11(26)9(14)24/h4-29H,1-3H2/t4-,5-,6-,7-,8+,9-,10-,11-,12-,13-,14-,15-,16?,17-,18-/m1/s1
INCHIAUX=N/A
PUBMED=N/A
SUBMITUSER=mwang87
TAGS=
LIBRARYQUALITY=3
SPECTRUMID=CCMSLIB00000426523
SCANS=1495
85.0 76.808 
145.0 81.243 
163.0 100.0 
END IONS

BEGIN IONS
PEPMASS=203.224
CHARGE=1+
MSLEVEL=2
SOURCE_INSTRUMENT=Positive-Quattro_QQQ:25eV
FILENAME=hmdb_intermediate.mgf
SEQ=*..*
IONMODE=Positive
ORGANISM=HMDB
NAME=HMDB:HMDB01256-1488 Spermine M+H
PI=HMDB
DATACOLLECTOR=HMDB
SMILES=NCCCNCCCCNCCCN
INCHI=InChI=1S/C10H26N4/c11-5-3-9-13-7-1-2-8-14-10-4-6-12/h13-14H,1-12H2
INCHIAUX=N/A
PUBMED=N/A
SUBMITUSER=mwang87
TAGS=
LIBRARYQUALITY=3
SPECTRUMID=CCMSLIB00000426524
SCANS=1496
111.458 54.613 
112.081 100.0 
112.579 67.156 
END IONS

BEGIN IONS
PEPMASS=145.05
CHARGE=1+
MSLEVEL=2
SOURCE_INSTRUMENT=Negative-Quattro_QQQ:10eV
FILENAME=hmdb_intermediate.mgf
SEQ=*..*
IONMODE=Negative
ORGANISM=HMDB
NAME=HMDB:HMDB00448-653 Adipic acid M-H
PI=HMDB
DATACOLLECTOR=HMDB
SMILES=OC(=O)CCCCC(O)=O
INCHI=InChI=1S/C6H10O4/c7-5(8)3-1-2-4-6(9)10/h1-4H2,(H,7,8)(H,9,10)
INCHIAUX=N/A
PUBMED=N/A
SUBMITUSER=mwang87
TAGS=
LIBRARYQUALITY=3
SPECTRUMID=CCMSLIB00000426525
SCANS=1497
83.108 62.676 
144.972 100.0 
END IONS

BEGIN IONS
PEPMASS=127.051
CHARGE=1+
MSLEVEL=2
SOURCE_INSTRUMENT=Positive-Quattro_QQQ:25eV
FILENAME=hmdb_intermediate.mgf
SEQ=*..*
IONMODE=Positive
ORGANISM=HMDB
NAME=HMDB:HMDB00262-455 Thymine M+H
PI=HMDB
DATACOLLECTOR=HMDB
SMILES=CC1=CNC(=O)NC1=O
INCHI=InChI=1S/C5H6N2O2/c1-3-2-6-5(9)7-4(3)8/h2H,1H3,(H2,6,7,8,9)
INCHIAUX=N/A
PUBMED=N/A
SUBMITUSER=mwang87
TAGS=
LIBRARYQUALITY=3
SPECTRUMID=CCMSLIB00000426526
SCANS=1498
126.961 100.0 
END IONS

BEGIN IONS
PEPMASS=149.009
CHARGE=1+
MSLEVEL=2
SOURCE_INSTRUMENT=Negative-Quattro_QQQ:10eV
FILENAME=hmdb_intermediate.mgf
SEQ=*..*
IONMODE=Negative
ORGANISM=HMDB
NAME=HMDB:HMDB00956-1354 Tartaric acid M-H
PI=HMDB
DATACOLLECTOR=HMDB
SMILES=O[C@H]([C@@H](O)C(O)=O)C(O)=O
INCHI=InChI=1S/C4H6O6/c5-1(3(7)8)2(6)4(9)10/h1-2,5-6H,(H,7,8)(H,9,10)/t1-,2-/m1/s1
INCHIAUX=N/A
PUBMED=N/A
SUBMITUSER=mwang87
TAGS=
LIBRARYQUALITY=3
SPECTRUMID=CCMSLIB00000426527
SCANS=1499
87.29 60.644 
149.104 100.0 
END IONS

BEGIN IONS
PEPMASS=177.103
CHARGE=1+
MSLEVEL=2
SOURCE_INSTRUMENT=Positive-Quattro_QQQ:25eV
FILENAME=hmdb_intermediate.mgf
SEQ=*..*
IONMODE=Positive
ORGANISM=HMDB
NAME=HMDB:HMDB01046-1398 Cotinine M+H
PI=HMDB
DATACOLLECTOR=HMDB
SMILES=CN1C(CCC1=O)C1=CN=CC=C1
INCHI=InChI=1S/C10H12N2O/c1-12-9(4-5-10(12)13)8-3-2-6-11-7-8/h2-3,6-7,9H,4-5H2,1H3
INCHIAUX=N/A
PUBMED=N/A
SUBMITUSER=mwang87
TAGS=
LIBRARYQUALITY=3
SPECTRUMID=CCMSLIB00000426528
SCANS=1500
80.0 100.0 
END IONS

BEGIN IONS
PEPMASS=115.076
CHARGE=1+
MSLEVEL=2
SOURCE_INSTRUMENT=Positive-Quattro_QQQ:25eV
FILENAME=hmdb_intermediate.mgf
SEQ=*..*
IONMODE=Positive
ORGANISM=HMDB
NAME=HMDB:HMDB00453-663 Delta-Hexanolactone M+H
PI=HMDB
DATACOLLECTOR=HMDB
SMILES=CC1CCCC(=O)O1
INCHI=InChI=1S/C6H10O2/c1-5-3-2-4-6(7)8-5/h5H,2-4H2,1H3
INCHIAUX=N/A
PUBMED=N/A
SUBMITUSER=mwang87
TAGS=
LIBRARYQUALITY=3
SPECTRUMID=CCMSLIB00000426529
SCANS=1501
69.399 100.0 
69.523 98.254 
END IONS

BEGIN IONS
PEPMASS=253.094
CHARGE=1+
MSLEVEL=2
SOURCE_INSTRUMENT=Positive-Quattro_QQQ:25eV
FILENAME=hmdb_intermediate.mgf
SEQ=*..*
IONMODE=Positive
ORGANISM=HMDB
NAME=HMDB:HMDB00071-115 Deoxyinosine M+H
PI=HMDB
DATACOLLECTOR=HMDB
SMILES=OC[C@H]1O[C@H](C[C@@H]1O)N1C=NC2=C1N=CN=C2O
INCHI=InChI=1S/C10H12N4O4/c15-2-6-5(16)1-7(18-6)14-4-13-8-9(14)11-3-12-10(8)17/h3-7,15-16H,1-2H2,(H,11,12,17)/t5-,6+,7+/m0/s1
INCHIAUX=N/A
PUBMED=N/A
SUBMITUSER=mwang87
TAGS=
LIBRARYQUALITY=3
SPECTRUMID=CCMSLIB00000426530
SCANS=1502
137.112 100.0 
END IONS

BEGIN IONS
PEPMASS=228.098
CHARGE=1+
MSLEVEL=2
SOURCE_INSTRUMENT=Positive-Quattro_QQQ:25eV
FILENAME=hmdb_intermediate.mgf
SEQ=*..*
IONMODE=Positive
ORGANISM=HMDB
NAME=HMDB:HMDB00014-23 Deoxycytidine M+H
PI=HMDB
DATACOLLECTOR=HMDB
SMILES=NC1=NC(=O)N(C=C1)[C@H]1C[C@H](O)[C@@H](CO)O1
INCHI=InChI=1S/C9H13N3O4/c10-7-1-2-12(9(15)11-7)8-3-5(14)6(4-13)16-8/h1-2,5-6,8,13-14H,3-4H2,(H2,10,11,15)/t5-,6+,8+/m0/s1
INCHIAUX=N/A
PUBMED=N/A
SUBMITUSER=mwang87
TAGS=
LIBRARYQUALITY=3
SPECTRUMID=CCMSLIB00000426531
SCANS=1503
112.019 100.0 
END IONS

BEGIN IONS
PEPMASS=565.047
CHARGE=1+
MSLEVEL=2
SOURCE_INSTRUMENT=Negative-Quattro_QQQ:40eV
FILENAME=hmdb_intermediate.mgf
SEQ=*..*
IONMODE=Negative
ORGANISM=HMDB
NAME=HMDB:HMDB00286-485 Uridine diphosphate glucose M-H
PI=HMDB
DATACOLLECTOR=HMDB
SMILES=OC[C@@H]1OC(OP(O)(=O)OP(O)(=O)OC[C@@H]2O[C@@H]([C@@H](O)[C@H]2O)N2C=CC(=O)NC2=O)[C@@H](O)[C@H](O)[C@H]1O
INCHI=InChI=1S/C15H24N2O17P2/c18-3-5-8(20)10(22)12(24)14(32-5)33-36(28,29)34-35(26,27)30-4-6-9(21)11(23)13(31-6)17-2-1-7(19)16-15(17)25/h1-2,5-6,8-14,18,20-24H,3-4H2,(H,26,27)(H,28,29)(H,16,19,25)/t5-,6-,8-,9-,10+,11-,12-,13-,14?/m0/s1
INCHIAUX=N/A
PUBMED=N/A
SUBMITUSER=mwang87
TAGS=
LIBRARYQUALITY=3
SPECTRUMID=CCMSLIB00000426532
SCANS=1504
64.424 79.5 
72.518 82.913 
84.407 86.325 
144.236 86.325 
158.403 72.651 
178.517 100.0 
187.246 82.913 
236.966 89.762 
254.932 72.651 
266.952 86.325 
313.643 72.651 
327.057 72.651 
414.252 76.064 
418.682 93.174 
449.311 72.651 
460.956 79.5 
472.6 82.913 
538.421 89.762 
549.434 89.762 
561.08 72.651 
573.866 100.0 
END IONS

BEGIN IONS
PEPMASS=111.008
CHARGE=1+
MSLEVEL=2
SOURCE_INSTRUMENT=Negative-Quattro_QQQ:40eV
FILENAME=hmdb_intermediate.mgf
SEQ=*..*
IONMODE=Negative
ORGANISM=HMDB
NAME=HMDB:HMDB00617-833 2-Furoic acid M-H
PI=HMDB
DATACOLLECTOR=HMDB
SMILES=OC(=O)C1=CC=CO1
INCHI=InChI=1S/C5H4O3/c6-5(7)4-2-1-3-8-4/h1-3H,(H,6,7)
INCHIAUX=N/A
PUBMED=N/A
SUBMITUSER=mwang87
TAGS=
LIBRARYQUALITY=3
SPECTRUMID=CCMSLIB00000426533
SCANS=1505
41.243 70.085 
49.163 96.581 
67.011 100.0 
END IONS

BEGIN IONS
PEPMASS=159.102
CHARGE=1+
MSLEVEL=2
SOURCE_INSTRUMENT=Negative-Quattro_QQQ:10eV
FILENAME=hmdb_intermediate.mgf
SEQ=*..*
IONMODE=Negative
ORGANISM=HMDB
NAME=HMDB:HMDB00711-993 Hydroxyoctanoic acid M-H
PI=HMDB
DATACOLLECTOR=HMDB
SMILES=CCCCCCC(O)C(O)=O
INCHI=InChI=1S/C8H16O3/c1-2-3-4-5-6-7(9)8(10)11/h7,9H,2-6H2,1H3,(H,10,11)
INCHIAUX=N/A
PUBMED=N/A
SUBMITUSER=mwang87
TAGS=
LIBRARYQUALITY=3
SPECTRUMID=CCMSLIB00000426534
SCANS=1506
159.203 100.0 
END IONS

BEGIN IONS
PEPMASS=206.045
CHARGE=1+
MSLEVEL=2
SOURCE_INSTRUMENT=Positive-Quattro_QQQ:25eV
FILENAME=hmdb_intermediate.mgf
SEQ=*..*
IONMODE=Positive
ORGANISM=HMDB
NAME=HMDB:HMDB00881-1242 Xanthurenic acid M+H
PI=HMDB
DATACOLLECTOR=HMDB
SMILES=OC(=O)C1=NC2=C(O)C=CC=C2C(O)=C1
INCHI=InChI=1S/C10H7NO4/c12-7-3-1-2-5-8(13)4-6(10(14)15)11-9(5)7/h1-4,12H,(H,11,13)(H,14,15)
INCHIAUX=N/A
PUBMED=N/A
SUBMITUSER=mwang87
TAGS=
LIBRARYQUALITY=3
SPECTRUMID=CCMSLIB00000426535
SCANS=1507
132.01 73.006 
159.963 100.0 
END IONS

BEGIN IONS
PEPMASS=175.061
CHARGE=1+
MSLEVEL=2
SOURCE_INSTRUMENT=Positive-Quattro_QQQ:25eV
FILENAME=hmdb_intermediate.mgf
SEQ=*..*
IONMODE=Positive
ORGANISM=HMDB
NAME=HMDB:HMDB03070-2189 Shikimic acid M+H
PI=HMDB
DATACOLLECTOR=HMDB
SMILES=O[C@@H]1CC(=C[C@@H](O)[C@H]1O)C(O)=O
INCHI=InChI=1S/C7H10O5/c8-4-1-3(7(11)12)2-5(9)6(4)10/h1,4-6,8-10H,2H2,(H,11,12)/t4-,5-,6-/m1/s1
INCHIAUX=N/A
PUBMED=N/A
SUBMITUSER=mwang87
TAGS=
LIBRARYQUALITY=3
SPECTRUMID=CCMSLIB00000426536
SCANS=1508
88.0 62.758 
129.0 100.0 
END IONS

BEGIN IONS
PEPMASS=122.028
CHARGE=1+
MSLEVEL=2
SOURCE_INSTRUMENT=Positive-Quattro_QQQ:10eV
FILENAME=hmdb_intermediate.mgf
SEQ=*..*
IONMODE=Positive
ORGANISM=HMDB
NAME=HMDB:HMDB00574-800 L-Cysteine M+H
PI=HMDB
DATACOLLECTOR=HMDB
SMILES=N[C@@H](CS)C(O)=O
INCHI=InChI=1S/C3H7NO2S/c4-2(1-7)3(5)6/h2,7H,1,4H2,(H,5,6)/t2-/m0/s1
INCHIAUX=N/A
PUBMED=N/A
SUBMITUSER=mwang87
TAGS=
LIBRARYQUALITY=3
SPECTRUMID=CCMSLIB00000426537
SCANS=1509
76.081 100.0 
121.936 62.037 
END IONS

BEGIN IONS
PEPMASS=134.045
CHARGE=1+
MSLEVEL=2
SOURCE_INSTRUMENT=Positive-Quattro_QQQ:25eV
FILENAME=hmdb_intermediate.mgf
SEQ=*..*
IONMODE=Positive
ORGANISM=HMDB
NAME=HMDB:HMDB06483-2488 D-Aspartic acid M+H
PI=HMDB
DATACOLLECTOR=HMDB
SMILES=N[C@H](CC(O)=O)C(O)=O
INCHI=InChI=1S/C4H7NO4/c5-2(4(8)9)1-3(6)7/h2H,1,5H2,(H,6,7)(H,8,9)/t2-/m1/s1
INCHIAUX=N/A
PUBMED=N/A
SUBMITUSER=mwang87
TAGS=
LIBRARYQUALITY=3
SPECTRUMID=CCMSLIB00000426538
SCANS=1510
74.04 84.9480263395 
88.02 100.0 
END IONS

BEGIN IONS
PEPMASS=768.123
CHARGE=1+
MSLEVEL=2
SOURCE_INSTRUMENT=Positive-Quattro_QQQ:40eV
FILENAME=hmdb_intermediate.mgf
SEQ=*..*
IONMODE=Positive
ORGANISM=HMDB
NAME=HMDB:HMDB01423-1573 Coenzyme A M+H
PI=HMDB
DATACOLLECTOR=HMDB
SMILES=CC(C)(COP(O)(=O)OP(O)(=O)OC[C@H]1O[C@H]([C@H](O)[C@@H]1OP(O)(O)=O)N1C=NC2=C1N=CN=C2N)C(O)C(=O)NCCC(=O)NCCS
INCHI=InChI=1S/C21H36N7O16P3S/c1-21(2,16(31)19(32)24-4-3-12(29)23-5-6-48)8-41-47(38,39)44-46(36,37)40-7-11-15(43-45(33,34)35)14(30)20(42-11)28-10-27-13-17(22)25-9-26-18(13)28/h9-11,14-16,20,30-31,48H,3-8H2,1-2H3,(H,23,29)(H,24,32)(H,36,37)(H,38,39)(H2,22,25,26)(H2,33,34,35)/t11-,14-,15-,16?,20-/m1/s1
INCHIAUX=N/A
PUBMED=N/A
SUBMITUSER=mwang87
TAGS=
LIBRARYQUALITY=3
SPECTRUMID=CCMSLIB00000426539
SCANS=1511
261.0 100.0 
END IONS

BEGIN IONS
PEPMASS=59.0497
CHARGE=1+
MSLEVEL=2
SOURCE_INSTRUMENT=Positive-Quattro_QQQ:40eV
FILENAME=hmdb_intermediate.mgf
SEQ=*..*
IONMODE=Positive
ORGANISM=HMDB
NAME=HMDB:HMDB03366-2273 Propanal M+H
PI=HMDB
DATACOLLECTOR=HMDB
SMILES=CCC=O
INCHI=InChI=1S/C3H6O/c1-2-3-4/h3H,2H2,1H3
INCHIAUX=N/A
PUBMED=N/A
SUBMITUSER=mwang87
TAGS=
LIBRARYQUALITY=3
SPECTRUMID=CCMSLIB00000426540
SCANS=1512
15.0 64.878 
29.0 58.402 
31.0 65.432 
42.0 78.356 
43.0 66.798 
57.0 67.103 
58.0 100.0 
59.0 90.859 
END IONS

BEGIN IONS
PEPMASS=115.076
CHARGE=1+
MSLEVEL=2
SOURCE_INSTRUMENT=Positive-Quattro_QQQ:25eV
FILENAME=hmdb_intermediate.mgf
SEQ=*..*
IONMODE=Positive
ORGANISM=HMDB
NAME=HMDB:HMDB03843-2347 Gamma-Caprolactone M+H
PI=HMDB
DATACOLLECTOR=HMDB
SMILES=CCC1CCC(=O)O1
INCHI=InChI=1S/C6H10O2/c1-2-5-3-4-6(7)8-5/h5H,2-4H2,1H3
INCHIAUX=N/A
PUBMED=N/A
SUBMITUSER=mwang87
TAGS=
LIBRARYQUALITY=3
SPECTRUMID=CCMSLIB00000426541
SCANS=1513
41.2 60.463 
42.35 100.0 
43.35 98.259 
55.13 98.555 
55.54 52.846 
END IONS

BEGIN IONS
PEPMASS=293.248
CHARGE=1+
MSLEVEL=2
SOURCE_INSTRUMENT=Positive-Quattro_QQQ:25eV
FILENAME=hmdb_intermediate.mgf
SEQ=*..*
IONMODE=Positive
ORGANISM=HMDB
NAME=HMDB:HMDB00493-714 5a-Androstane-3b,17b-diol M+H
PI=HMDB
DATACOLLECTOR=HMDB
SMILES=[H][C@@]12CC[C@H](O)[C@@]1(C)CC[C@@]1([H])[C@@]2([H])CC[C@@]2([H])C[C@@H](O)CC[C@]12C
INCHI=InChI=1S/C19H32O2/c1-18-9-7-13(20)11-12(18)3-4-14-15-5-6-17(21)19(15,2)10-8-16(14)18/h12-17,20-21H,3-11H2,1-2H3/t12-,13-,14-,15-,16-,17-,18-,19-/m0/s1
INCHIAUX=N/A
PUBMED=N/A
SUBMITUSER=mwang87
TAGS=
LIBRARYQUALITY=3
SPECTRUMID=CCMSLIB00000426542
SCANS=1514
74.655 100.0 
98.465 79.554 
228.581 54.311 
END IONS

BEGIN IONS
PEPMASS=87.081
CHARGE=1+
MSLEVEL=2
SOURCE_INSTRUMENT=Positive-Quattro_QQQ:40eV
FILENAME=hmdb_intermediate.mgf
SEQ=*..*
IONMODE=Positive
ORGANISM=HMDB
NAME=HMDB:HMDB06478-2486 Iso-Valeraldehyde M+H
PI=HMDB
DATACOLLECTOR=HMDB
SMILES=CC(C)CC=O
INCHI=InChI=1S/C5H10O/c1-5(2)3-4-6/h4-5H,3H2,1-2H3
INCHIAUX=N/A
PUBMED=N/A
SUBMITUSER=mwang87
TAGS=
LIBRARYQUALITY=3
SPECTRUMID=CCMSLIB00000426543
SCANS=1515
87.06 100.0 
END IONS

BEGIN IONS
PEPMASS=43.0058
CHARGE=1+
MSLEVEL=2
SOURCE_INSTRUMENT=Positive-Quattro_QQQ:10eV
FILENAME=hmdb_intermediate.mgf
SEQ=*..*
IONMODE=Positive
ORGANISM=HMDB
NAME=HMDB:HMDB02078-1987 Cyanate M+H
PI=HMDB
DATACOLLECTOR=HMDB
SMILES=[O-]C#N
INCHI=InChI=1S/CHNO/c2-1-3/h3H/p-1
INCHIAUX=N/A
PUBMED=N/A
SUBMITUSER=mwang87
TAGS=
LIBRARYQUALITY=3
SPECTRUMID=CCMSLIB00000426544
SCANS=1516
43.0 100.0 
END IONS

BEGIN IONS
PEPMASS=505.177
CHARGE=1+
MSLEVEL=2
SOURCE_INSTRUMENT=Positive-Quattro_QQQ:40eV
FILENAME=hmdb_intermediate.mgf
SEQ=*..*
IONMODE=Positive
ORGANISM=HMDB
NAME=HMDB:HMDB01262-1496 Maltotriose M+H
PI=HMDB
DATACOLLECTOR=HMDB
SMILES=OC[C@H]1O[C@H](O[C@H]2[C@H](O)[C@@H](O)[C@@H](O[C@H]3[C@H](O)[C@@H](O)C(O)O[C@@H]3CO)O[C@@H]2CO)[C@H](O)[C@@H](O)[C@@H]1O
INCHI=InChI=1S/C18H32O16/c19-1-4-7(22)8(23)12(27)17(31-4)34-15-6(3-21)32-18(13(28)10(15)25)33-14-5(2-20)30-16(29)11(26)9(14)24/h4-29H,1-3H2/t4-,5-,6-,7-,8+,9-,10-,11-,12-,13-,14-,15-,16?,17-,18-/m1/s1
INCHIAUX=N/A
PUBMED=N/A
SUBMITUSER=mwang87
TAGS=
LIBRARYQUALITY=3
SPECTRUMID=CCMSLIB00000426545
SCANS=1517
85.0 100.0 
END IONS

BEGIN IONS
PEPMASS=428.037
CHARGE=1+
MSLEVEL=2
SOURCE_INSTRUMENT=Positive-Quattro_QQQ:10eV
FILENAME=hmdb_intermediate.mgf
SEQ=*..*
IONMODE=Positive
ORGANISM=HMDB
NAME=HMDB:HMDB01341-1522 ADP M+H
PI=HMDB
DATACOLLECTOR=HMDB
SMILES=NC1=NC=NC2=C1N=CN2[C@@H]1O[C@H](COP(O)(=O)OP(O)(O)=O)[C@@H](O)[C@H]1O
INCHI=InChI=1S/C10H15N5O10P2/c11-8-5-9(13-2-12-8)15(3-14-5)10-7(17)6(16)4(24-10)1-23-27(21,22)25-26(18,19)20/h2-4,6-7,10,16-17H,1H2,(H,21,22)(H2,11,12,13)(H2,18,19,20)/t4-,6-,7-,10-/m1/s1
INCHIAUX=N/A
PUBMED=N/A
SUBMITUSER=mwang87
TAGS=
LIBRARYQUALITY=3
SPECTRUMID=CCMSLIB00000426546
SCANS=1518
427.0 100.0 
428.0 65.326 
END IONS

BEGIN IONS
PEPMASS=335.064
CHARGE=1+
MSLEVEL=2
SOURCE_INSTRUMENT=Positive-Quattro_QQQ:10eV
FILENAME=hmdb_intermediate.mgf
SEQ=*..*
IONMODE=Positive
ORGANISM=HMDB
NAME=HMDB:HMDB00229-382 Nicotinamide ribotide M+H
PI=HMDB
DATACOLLECTOR=HMDB
SMILES=NC(=O)C1=CC=C[N+](=C1)[C@@H]1O[C@H](COP(O)([O-])=O)[C@@H](O)[C@H]1O
INCHI=InChI=1S/C11H15N2O8P/c12-10(16)6-2-1-3-13(4-6)11-9(15)8(14)7(21-11)5-20-22(17,18)19/h1-4,7-9,11,14-15H,5H2,(H3-,12,16,17,18,19)/t7-,8-,9-,11-/m1/s1
INCHIAUX=N/A
PUBMED=N/A
SUBMITUSER=mwang87
TAGS=
LIBRARYQUALITY=3
SPECTRUMID=CCMSLIB00000426547
SCANS=1519
122.493 69.54 
122.618 100.0 
123.62 56.192 
END IONS

BEGIN IONS
PEPMASS=169.05
CHARGE=1+
MSLEVEL=2
SOURCE_INSTRUMENT=Positive-Quattro_QQQ:25eV
FILENAME=hmdb_intermediate.mgf
SEQ=*..*
IONMODE=Positive
ORGANISM=HMDB
NAME=HMDB:HMDB01868-1754 5-Methoxysalicylic acid M+H
PI=HMDB
DATACOLLECTOR=HMDB
SMILES=COC1=CC(C(O)=O)=C(O)C=C1
INCHI=InChI=1S/C8H8O4/c1-12-5-2-3-7(9)6(4-5)8(10)11/h2-4,9H,1H3,(H,10,11)
INCHIAUX=N/A
PUBMED=N/A
SUBMITUSER=mwang87
TAGS=
LIBRARYQUALITY=3
SPECTRUMID=CCMSLIB00000426548
SCANS=1520
95.204 71.328 
122.898 72.127 
123.525 53.602 
150.469 70.672 
151.095 100.0 
151.597 65.479 
END IONS

BEGIN IONS
PEPMASS=405.01
CHARGE=1+
MSLEVEL=2
SOURCE_INSTRUMENT=Positive-Quattro_QQQ:25eV
FILENAME=hmdb_intermediate.mgf
SEQ=*..*
IONMODE=Positive
ORGANISM=HMDB
NAME=HMDB:HMDB00295-502 Uridine 5'-diphosphate M+H
PI=HMDB
DATACOLLECTOR=HMDB
SMILES=O[C@H]1[C@@H](O)[C@@H](O[C@@H]1COP(O)(=O)OP(O)(O)=O)N1C=CC(=O)NC1=O
INCHI=InChI=1S/C9H14N2O12P2/c12-5-1-2-11(9(15)10-5)8-7(14)6(13)4(22-8)3-21-25(19,20)23-24(16,17)18/h1-2,4,6-8,13-14H,3H2,(H,19,20)(H,10,12,15)(H2,16,17,18)/t4-,6-,7-,8-/m1/s1
INCHIAUX=N/A
PUBMED=N/A
SUBMITUSER=mwang87
TAGS=
LIBRARYQUALITY=3
SPECTRUMID=CCMSLIB00000426549
SCANS=1521
96.83 100.0 
END IONS

BEGIN IONS
PEPMASS=223.075
CHARGE=1+
MSLEVEL=2
SOURCE_INSTRUMENT=Positive-Quattro_QQQ:40eV
FILENAME=hmdb_intermediate.mgf
SEQ=*..*
IONMODE=Positive
ORGANISM=HMDB
NAME=HMDB:HMDB00099-158 L-Cystathionine M+H
PI=HMDB
DATACOLLECTOR=HMDB
SMILES=N[C@@H](CCSC[C@H](N)C(O)=O)C(O)=O
INCHI=InChI=1S/C7H14N2O4S/c8-4(6(10)11)1-2-14-3-5(9)7(12)13/h4-5H,1-3,8-9H2,(H,10,11)(H,12,13)/t4-,5-/m0/s1
INCHIAUX=N/A
PUBMED=N/A
SUBMITUSER=mwang87
TAGS=
LIBRARYQUALITY=3
SPECTRUMID=CCMSLIB00000426550
SCANS=1522
88.082 100.0 
END IONS

BEGIN IONS
PEPMASS=347.222
CHARGE=1+
MSLEVEL=2
SOURCE_INSTRUMENT=Positive-Quattro_QQQ:40eV
FILENAME=hmdb_intermediate.mgf
SEQ=*..*
IONMODE=Positive
ORGANISM=HMDB
NAME=HMDB:HMDB01547-1648 Corticosterone M+H
PI=HMDB
DATACOLLECTOR=HMDB
SMILES=[H][C@@]12CC[C@H](C(=O)CO)[C@@]1(C)C[C@H](O)[C@@]1([H])[C@@]2([H])CCC2=CC(=O)CC[C@]12C
INCHI=InChI=1S/C21H30O4/c1-20-8-7-13(23)9-12(20)3-4-14-15-5-6-16(18(25)11-22)21(15,2)10-17(24)19(14)20/h9,14-17,19,22,24H,3-8,10-11H2,1-2H3/t14-,15-,16+,17-,19+,20-,21-/m0/s1
INCHIAUX=N/A
PUBMED=N/A
SUBMITUSER=mwang87
TAGS=
LIBRARYQUALITY=3
SPECTRUMID=CCMSLIB00000426551
SCANS=1523
79.118 58.915 
81.109 51.163 
91.093 74.419 
93.084 65.116 
97.081 72.868 
105.067 80.62 
107.042 51.163 
121.009 100.0 
END IONS

BEGIN IONS
PEPMASS=167.071
CHARGE=1+
MSLEVEL=2
SOURCE_INSTRUMENT=Positive-Quattro_QQQ:40eV
FILENAME=hmdb_intermediate.mgf
SEQ=*..*
IONMODE=Positive
ORGANISM=HMDB
NAME=HMDB:HMDB02199-2027 Desaminotyrosine M+H
PI=HMDB
DATACOLLECTOR=HMDB
SMILES=OC(=O)CCC1=CC=C(O)C=C1
INCHI=InChI=1S/C9H10O3/c10-8-4-1-7(2-5-8)3-6-9(11)12/h1-2,4-5,10H,3,6H2,(H,11,12)
INCHIAUX=N/A
PUBMED=N/A
SUBMITUSER=mwang87
TAGS=
LIBRARYQUALITY=3
SPECTRUMID=CCMSLIB00000426552
SCANS=1524
73.0 72.201 
77.0 100.0 
END IONS

BEGIN IONS
PEPMASS=165.055
CHARGE=1+
MSLEVEL=2
SOURCE_INSTRUMENT=Positive-Quattro_QQQ:40eV
FILENAME=hmdb_intermediate.mgf
SEQ=*..*
IONMODE=Positive
ORGANISM=HMDB
NAME=HMDB:HMDB31629-330 Phenylpyruvic acid M+H
PI=HMDB
DATACOLLECTOR=HMDB
SMILES=OC(=O)C(=O)CC1=CC=CC=C1
INCHI=InChI=1S/C9H8O3/c10-8(9(11)12)6-7-4-2-1-3-5-7/h1-5H,6H2,(H,11,12)
INCHIAUX=N/A
PUBMED=N/A
SUBMITUSER=mwang87
TAGS=
LIBRARYQUALITY=3
SPECTRUMID=CCMSLIB00000426553
SCANS=1525
77.0 100.0 
END IONS

BEGIN IONS
PEPMASS=289.18
CHARGE=1+
MSLEVEL=2
SOURCE_INSTRUMENT=Positive-Quattro_QQQ:10eV
FILENAME=hmdb_intermediate.mgf
SEQ=*..*
IONMODE=Positive
ORGANISM=HMDB
NAME=HMDB:HMDB00347-558 16b-Hydroxyestradiol M+H
PI=HMDB
DATACOLLECTOR=HMDB
SMILES=[H][C@@]12C[C@H](O)[C@H](O)[C@@]1(C)CC[C@]1([H])C3=C(CC[C@@]21[H])C=C(O)C=C3
INCHI=InChI=1S/C18H24O3/c1-18-7-6-13-12-5-3-11(19)8-10(12)2-4-14(13)15(18)9-16(20)17(18)21/h3,5,8,13-17,19-21H,2,4,6-7,9H2,1H3/t13-,14-,15+,16+,17+,18+/m1/s1
INCHIAUX=N/A
PUBMED=N/A
SUBMITUSER=mwang87
TAGS=
LIBRARYQUALITY=3
SPECTRUMID=CCMSLIB00000426554
SCANS=1526
289.169 100.0 
END IONS

BEGIN IONS
PEPMASS=184.028
CHARGE=1+
MSLEVEL=2
SOURCE_INSTRUMENT=Positive-Quattro_QQQ:40eV
FILENAME=hmdb_intermediate.mgf
SEQ=*..*
IONMODE=Positive
ORGANISM=HMDB
NAME=HMDB:HMDB02205-2030 L-Homocysteic acid M+H
PI=HMDB
DATACOLLECTOR=HMDB
SMILES=N[C@@H](CCS(O)(=O)=O)C(O)=O
INCHI=InChI=1S/C4H9NO5S/c5-3(4(6)7)1-2-11(8,9)10/h3H,1-2,5H2,(H,6,7)(H,8,9,10)/t3-/m0/s1
INCHIAUX=N/A
PUBMED=N/A
SUBMITUSER=mwang87
TAGS=
LIBRARYQUALITY=3
SPECTRUMID=CCMSLIB00000426555
SCANS=1527
56.06 100.0 
END IONS

BEGIN IONS
PEPMASS=185.082
CHARGE=1+
MSLEVEL=2
SOURCE_INSTRUMENT=Positive-Quattro_QQQ:40eV
FILENAME=hmdb_intermediate.mgf
SEQ=*..*
IONMODE=Positive
ORGANISM=HMDB
NAME=HMDB:HMDB01565-1653 Phosphorylcholine M+H
PI=HMDB
DATACOLLECTOR=HMDB
SMILES=C[N+](C)(C)CCOP(O)(O)=O
INCHI=InChI=1S/C5H14NO4P/c1-6(2,3)4-5-10-11(7,8)9/h4-5H2,1-3H3,(H-,7,8,9)/p+1
INCHIAUX=N/A
PUBMED=N/A
SUBMITUSER=mwang87
TAGS=
LIBRARYQUALITY=3
SPECTRUMID=CCMSLIB00000426556
SCANS=1528
72.0 85.227 
81.0 51.928 
89.0 72.811 
99.0 100.0 
END IONS

BEGIN IONS
PEPMASS=104.071
CHARGE=1+
MSLEVEL=2
SOURCE_INSTRUMENT=Positive-Quattro_QQQ:25eV
FILENAME=hmdb_intermediate.mgf
SEQ=*..*
IONMODE=Positive
ORGANISM=HMDB
NAME=HMDB:HMDB00092-142 Dimethylglycine M+H
PI=HMDB
DATACOLLECTOR=HMDB
SMILES=CN(C)CC(O)=O
INCHI=InChI=1S/C4H9NO2/c1-5(2)3-4(6)7/h3H2,1-2H3,(H,6,7)
INCHIAUX=N/A
PUBMED=N/A
SUBMITUSER=mwang87
TAGS=
LIBRARYQUALITY=3
SPECTRUMID=CCMSLIB00000426557
SCANS=1529
58.201 100.0 
58.578 86.521 
END IONS

BEGIN IONS
PEPMASS=300.29
CHARGE=1+
MSLEVEL=2
SOURCE_INSTRUMENT=Positive-Quattro_QQQ:40eV
FILENAME=hmdb_intermediate.mgf
SEQ=*..*
IONMODE=Positive
ORGANISM=HMDB
NAME=HMDB:HMDB00252-435 Sphingosine M+H
PI=HMDB
DATACOLLECTOR=HMDB
SMILES=CCCCCCCCCCCCC\C=C\C(O)C(N)CO
INCHI=InChI=1S/C18H37NO2/c1-2-3-4-5-6-7-8-9-10-11-12-13-14-15-18(21)17(19)16-20/h14-15,17-18,20-21H,2-13,16,19H2,1H3/b15-14+
INCHIAUX=N/A
PUBMED=N/A
SUBMITUSER=mwang87
TAGS=
LIBRARYQUALITY=3
SPECTRUMID=CCMSLIB00000426558
SCANS=1530
54.0 79.676 
55.0 100.0 
56.0 62.32 
66.0 68.172 
68.0 63.398 
END IONS

BEGIN IONS
PEPMASS=111.045
CHARGE=1+
MSLEVEL=2
SOURCE_INSTRUMENT=Positive-Quattro_QQQ:40eV
FILENAME=hmdb_intermediate.mgf
SEQ=*..*
IONMODE=Positive
ORGANISM=HMDB
NAME=HMDB:HMDB00957-1359 Pyrocatechol M+H
PI=HMDB
DATACOLLECTOR=HMDB
SMILES=OC1=CC=CC=C1O
INCHI=InChI=1S/C6H6O2/c7-5-3-1-2-4-6(5)8/h1-4,7-8H
INCHIAUX=N/A
PUBMED=N/A
SUBMITUSER=mwang87
TAGS=
LIBRARYQUALITY=3
SPECTRUMID=CCMSLIB00000426559
SCANS=1531
65.152 100.0 
END IONS

BEGIN IONS
PEPMASS=232.118
CHARGE=1+
MSLEVEL=2
SOURCE_INSTRUMENT=Positive-Quattro_QQQ:40eV
FILENAME=hmdb_intermediate.mgf
SEQ=*..*
IONMODE=Positive
ORGANISM=HMDB
NAME=HMDB:HMDB00953-1347 Suberylglycine M+H
PI=HMDB
DATACOLLECTOR=HMDB
SMILES=OC(=O)CCCCCCC(=O)NCC(O)=O
INCHI=InChI=1S/C10H17NO5/c12-8(11-7-10(15)16)5-3-1-2-4-6-9(13)14/h1-7H2,(H,11,12)(H,13,14)(H,15,16)
INCHIAUX=N/A
PUBMED=N/A
SUBMITUSER=mwang87
TAGS=
LIBRARYQUALITY=3
SPECTRUMID=CCMSLIB00000426560
SCANS=1532
55.0 100.0 
END IONS

BEGIN IONS
PEPMASS=289.217
CHARGE=1+
MSLEVEL=2
SOURCE_INSTRUMENT=Positive-Quattro_QQQ:40eV
FILENAME=hmdb_intermediate.mgf
SEQ=*..*
IONMODE=Positive
ORGANISM=HMDB
NAME=HMDB:HMDB00077-128 Dehydroepiandrosterone M+H
PI=HMDB
DATACOLLECTOR=HMDB
SMILES=C[C@]12CCC3C(CC=C4C[C@@H](O)CC[C@]34C)C1CCC2=O
INCHI=InChI=1S/C19H28O2/c1-18-9-7-13(20)11-12(18)3-4-14-15-5-6-17(21)19(15,2)10-8-16(14)18/h3,13-16,20H,4-11H2,1-2H3/t13-,14?,15?,16?,18-,19-/m0/s1
INCHIAUX=N/A
PUBMED=N/A
SUBMITUSER=mwang87
TAGS=
LIBRARYQUALITY=3
SPECTRUMID=CCMSLIB00000426561
SCANS=1533
79.11 50.75 
81.109 69.0 
91.086 100.0 
105.052 76.0 
END IONS

BEGIN IONS
PEPMASS=143.107
CHARGE=1+
MSLEVEL=2
SOURCE_INSTRUMENT=Positive-Quattro_QQQ:25eV
FILENAME=hmdb_intermediate.mgf
SEQ=*..*
IONMODE=Positive
ORGANISM=HMDB
NAME=HMDB:HMDB00392-598 2-Octenoic acid M+H
PI=HMDB
DATACOLLECTOR=HMDB
SMILES=CCCCC\C=C/C(O)=O
INCHI=InChI=1S/C8H14O2/c1-2-3-4-5-6-7-8(9)10/h6-7H,2-5H2,1H3,(H,9,10)/b7-6-
INCHIAUX=N/A
PUBMED=N/A
SUBMITUSER=mwang87
TAGS=
LIBRARYQUALITY=3
SPECTRUMID=CCMSLIB00000426562
SCANS=1534
54.0 97.72 
72.0 100.0 
END IONS

BEGIN IONS
PEPMASS=151.04
CHARGE=1+
MSLEVEL=2
SOURCE_INSTRUMENT=Negative-Quattro_QQQ:10eV
FILENAME=hmdb_intermediate.mgf
SEQ=*..*
IONMODE=Negative
ORGANISM=HMDB
NAME=HMDB:HMDB00440-641 3-Hydroxyphenylacetic acid M-H
PI=HMDB
DATACOLLECTOR=HMDB
SMILES=OC(=O)CC1=CC=CC(O)=C1
INCHI=InChI=1S/C8H8O3/c9-7-3-1-2-6(4-7)5-8(10)11/h1-4,9H,5H2,(H,10,11)
INCHIAUX=N/A
PUBMED=N/A
SUBMITUSER=mwang87
TAGS=
LIBRARYQUALITY=3
SPECTRUMID=CCMSLIB00000426563
SCANS=1535
107.222 100.0 
END IONS

BEGIN IONS
PEPMASS=103.003
CHARGE=1+
MSLEVEL=2
SOURCE_INSTRUMENT=Negative-Quattro_QQQ:40eV
FILENAME=hmdb_intermediate.mgf
SEQ=*..*
IONMODE=Negative
ORGANISM=HMDB
NAME=HMDB:HMDB00691-960 Malonic acid M-H
PI=HMDB
DATACOLLECTOR=HMDB
SMILES=OC(=O)CC(O)=O
INCHI=InChI=1S/C3H4O4/c4-2(5)1-3(6)7/h1H2,(H,4,5)(H,6,7)
INCHIAUX=N/A
PUBMED=N/A
SUBMITUSER=mwang87
TAGS=
LIBRARYQUALITY=3
SPECTRUMID=CCMSLIB00000426564
SCANS=1536
41.594 100.0 
59.277 57.051 
END IONS

BEGIN IONS
PEPMASS=307.264
CHARGE=1+
MSLEVEL=2
SOURCE_INSTRUMENT=Positive-Quattro_QQQ:10eV
FILENAME=hmdb_intermediate.mgf
SEQ=*..*
IONMODE=Positive
ORGANISM=HMDB
NAME=HMDB:HMDB02925-2166 8,11,14-Eicosatrienoic acid M+H
PI=HMDB
DATACOLLECTOR=HMDB
SMILES=CCCCC\C=C/C\C=C/C\C=C/CCCCCCC(O)=O
INCHI=InChI=1S/C20H34O2/c1-2-3-4-5-6-7-8-9-10-11-12-13-14-15-16-17-18-19-20(21)22/h6-7,9-10,12-13H,2-5,8,11,14-19H2,1H3,(H,21,22)/b7-6-,10-9-,13-12-
INCHIAUX=N/A
PUBMED=N/A
SUBMITUSER=mwang87
TAGS=
LIBRARYQUALITY=3
SPECTRUMID=CCMSLIB00000426565
SCANS=1537
306.0 100.0 
307.0 81.824 
END IONS

BEGIN IONS
PEPMASS=269.089
CHARGE=1+
MSLEVEL=2
SOURCE_INSTRUMENT=Positive-Quattro_QQQ:40eV
FILENAME=hmdb_intermediate.mgf
SEQ=*..*
IONMODE=Positive
ORGANISM=HMDB
NAME=HMDB:HMDB00195-318 Inosine M+H
PI=HMDB
DATACOLLECTOR=HMDB
SMILES=OC[C@H]1O[C@H]([C@H](O)[C@@H]1O)N1C=NC2=C1N=CNC2=O
INCHI=InChI=1S/C10H12N4O5/c15-1-4-6(16)7(17)10(19-4)14-3-13-5-8(14)11-2-12-9(5)18/h2-4,6-7,10,15-17H,1H2,(H,11,12,18)/t4-,6-,7-,10-/m1/s1
INCHIAUX=N/A
PUBMED=N/A
SUBMITUSER=mwang87
TAGS=
LIBRARYQUALITY=3
SPECTRUMID=CCMSLIB00000426566
SCANS=1538
136.971 100.0 
END IONS

BEGIN IONS
PEPMASS=160.134
CHARGE=1+
MSLEVEL=2
SOURCE_INSTRUMENT=Positive-Quattro_QQQ:25eV
FILENAME=hmdb_intermediate.mgf
SEQ=*..*
IONMODE=Positive
ORGANISM=HMDB
NAME=HMDB:HMDB00991-1382 DL-2-Aminooctanoic acid M+H
PI=HMDB
DATACOLLECTOR=HMDB
SMILES=CCCCCCC(N)C(O)=O
INCHI=InChI=1S/C8H17NO2/c1-2-3-4-5-6-7(9)8(10)11/h7H,2-6,9H2,1H3,(H,10,11)
INCHIAUX=N/A
PUBMED=N/A
SUBMITUSER=mwang87
TAGS=
LIBRARYQUALITY=3
SPECTRUMID=CCMSLIB00000426567
SCANS=1539
55.261 100.0 
END IONS

BEGIN IONS
PEPMASS=153.055
CHARGE=1+
MSLEVEL=2
SOURCE_INSTRUMENT=Positive-Quattro_QQQ:25eV
FILENAME=hmdb_intermediate.mgf
SEQ=*..*
IONMODE=Positive
ORGANISM=HMDB
NAME=HMDB:HMDB01101-1422 p-Anisic acid M+H
PI=HMDB
DATACOLLECTOR=HMDB
SMILES=COC1=CC=C(C=C1)C(O)=O
INCHI=InChI=1S/C8H8O3/c1-11-7-4-2-6(3-5-7)8(9)10/h2-5H,1H3,(H,9,10)
INCHIAUX=N/A
PUBMED=N/A
SUBMITUSER=mwang87
TAGS=
LIBRARYQUALITY=3
SPECTRUMID=CCMSLIB00000426568
SCANS=1540
76.92 100.0 
END IONS

BEGIN IONS
PEPMASS=155.034
CHARGE=1+
MSLEVEL=2
SOURCE_INSTRUMENT=Positive-Quattro_QQQ:25eV
FILENAME=hmdb_intermediate.mgf
SEQ=*..*
IONMODE=Positive
ORGANISM=HMDB
NAME=HMDB:HMDB01856-1724 Protocatechuic acid M+H
PI=HMDB
DATACOLLECTOR=HMDB
SMILES=OC(=O)C1=CC(O)=C(O)C=C1
INCHI=InChI=1S/C7H6O4/c8-5-2-1-4(7(10)11)3-6(5)9/h1-3,8-9H,(H,10,11)
INCHIAUX=N/A
PUBMED=N/A
SUBMITUSER=mwang87
TAGS=
LIBRARYQUALITY=3
SPECTRUMID=CCMSLIB00000426569
SCANS=1541
64.966 100.0 
65.593 95.683 
93.327 86.094 
93.578 61.805 
END IONS

BEGIN IONS
PEPMASS=167.107
CHARGE=1+
MSLEVEL=2
SOURCE_INSTRUMENT=Positive-Quattro_QQQ:25eV
FILENAME=hmdb_intermediate.mgf
SEQ=*..*
IONMODE=Positive
ORGANISM=HMDB
NAME=HMDB:HMDB04586-2398 Perillic acid M+H
PI=HMDB
DATACOLLECTOR=HMDB
SMILES=CC(=C)C1CCC(=CC1)C(O)=O
INCHI=InChI=1S/C10H14O2/c1-7(2)8-3-5-9(6-4-8)10(11)12/h5,8H,1,3-4,6H2,2H3,(H,11,12)
INCHIAUX=N/A
PUBMED=N/A
SUBMITUSER=mwang87
TAGS=
LIBRARYQUALITY=3
SPECTRUMID=CCMSLIB00000426570
SCANS=1542
67.0 63.481 
79.0 100.0 
93.0 68.188 
END IONS

BEGIN IONS
PEPMASS=281.114
CHARGE=1+
MSLEVEL=2
SOURCE_INSTRUMENT=Positive-Quattro_QQQ:40eV
FILENAME=hmdb_intermediate.mgf
SEQ=*..*
IONMODE=Positive
ORGANISM=HMDB
NAME=HMDB:HMDB00706-989 L-Aspartyl-L-phenylalanine M+H
PI=HMDB
DATACOLLECTOR=HMDB
SMILES=N[C@@H](CC(O)=O)C(=O)N[C@@H](CC1=CC=CC=C1)C(O)=O
INCHI=InChI=1S/C13H16N2O5/c14-9(7-11(16)17)12(18)15-10(13(19)20)6-8-4-2-1-3-5-8/h1-5,9-10H,6-7,14H2,(H,15,18)(H,16,17)(H,19,20)/t9-,10-/m0/s1
INCHIAUX=N/A
PUBMED=N/A
SUBMITUSER=mwang87
TAGS=
LIBRARYQUALITY=3
SPECTRUMID=CCMSLIB00000426571
SCANS=1543
120.026 100.0 
END IONS

BEGIN IONS
PEPMASS=132.102
CHARGE=1+
MSLEVEL=2
SOURCE_INSTRUMENT=Positive-Quattro_QQQ:40eV
FILENAME=hmdb_intermediate.mgf
SEQ=*..*
IONMODE=Positive
ORGANISM=HMDB
NAME=HMDB:HMDB00172-273 L-Isoleucine M+H
PI=HMDB
DATACOLLECTOR=HMDB
SMILES=CC[C@H](C)[C@H](N)C(O)=O
INCHI=InChI=1S/C6H13NO2/c1-3-4(2)5(7)6(8)9/h4-5H,3,7H2,1-2H3,(H,8,9)/t4-,5-/m0/s1
INCHIAUX=N/A
PUBMED=N/A
SUBMITUSER=mwang87
TAGS=
LIBRARYQUALITY=3
SPECTRUMID=CCMSLIB00000426572
SCANS=1544
41.305 100.0 
44.161 64.873 
END IONS

BEGIN IONS
PEPMASS=185.154
CHARGE=1+
MSLEVEL=2
SOURCE_INSTRUMENT=Negative-Quattro_QQQ:10eV
FILENAME=hmdb_intermediate.mgf
SEQ=*..*
IONMODE=Negative
ORGANISM=HMDB
NAME=HMDB:HMDB00947-1342 Undecanoic acid M-H
PI=HMDB
DATACOLLECTOR=HMDB
SMILES=CCCCCCCCCCC(O)=O
INCHI=InChI=1S/C11H22O2/c1-2-3-4-5-6-7-8-9-10-11(12)13/h2-10H2,1H3,(H,12,13)
INCHIAUX=N/A
PUBMED=N/A
SUBMITUSER=mwang87
TAGS=
LIBRARYQUALITY=3
SPECTRUMID=CCMSLIB00000426573
SCANS=1545
185.076 100.0 
END IONS

BEGIN IONS
PEPMASS=201.984
CHARGE=1+
MSLEVEL=2
SOURCE_INSTRUMENT=Positive-Quattro_QQQ:10eV
FILENAME=hmdb_intermediate.mgf
SEQ=*..*
IONMODE=Positive
ORGANISM=HMDB
NAME=HMDB:HMDB00731-1029 Cysteine-S-sulfate M+H
PI=HMDB
DATACOLLECTOR=HMDB
SMILES=N[C@@H](CSS(O)(=O)=O)C(O)=O
INCHI=InChI=1S/C3H7NO5S2/c4-2(3(5)6)1-10-11(7,8)9/h2H,1,4H2,(H,5,6)(H,7,8,9)/t2-/m0/s1
INCHIAUX=N/A
PUBMED=N/A
SUBMITUSER=mwang87
TAGS=
LIBRARYQUALITY=3
SPECTRUMID=CCMSLIB00000426574
SCANS=1546
120.0 100.0 
END IONS

BEGIN IONS
PEPMASS=316.249
CHARGE=1+
MSLEVEL=2
SOURCE_INSTRUMENT=Positive-Quattro_QQQ:40eV
FILENAME=hmdb_intermediate.mgf
SEQ=*..*
IONMODE=Positive
ORGANISM=HMDB
NAME=HMDB:HMDB00651-890 Decanoylcarnitine M+H
PI=HMDB
DATACOLLECTOR=HMDB
SMILES=CCCCCCCCCC(=O)OC(CC([O-])=O)C[N+](C)(C)C
INCHI=InChI=1S/C17H33NO4/c1-5-6-7-8-9-10-11-12-17(21)22-15(13-16(19)20)14-18(2,3)4/h15H,5-14H2,1-4H3
INCHIAUX=N/A
PUBMED=N/A
SUBMITUSER=mwang87
TAGS=
LIBRARYQUALITY=3
SPECTRUMID=CCMSLIB00000426575
SCANS=1547
85.218 100.0 
END IONS

BEGIN IONS
PEPMASS=133.05
CHARGE=1+
MSLEVEL=2
SOURCE_INSTRUMENT=Positive-Quattro_QQQ:10eV
FILENAME=hmdb_intermediate.mgf
SEQ=*..*
IONMODE=Positive
ORGANISM=HMDB
NAME=HMDB:HMDB01844-1696 Methylsuccinic acid M+H
PI=HMDB
DATACOLLECTOR=HMDB
SMILES=CC(CC(O)=O)C(O)=O
INCHI=InChI=1S/C5H8O4/c1-3(5(8)9)2-4(6)7/h3H,2H2,1H3,(H,6,7)(H,8,9)
INCHIAUX=N/A
PUBMED=N/A
SUBMITUSER=mwang87
TAGS=
LIBRARYQUALITY=3
SPECTRUMID=CCMSLIB00000426576
SCANS=1548
115.0 100.0 
END IONS

BEGIN IONS
PEPMASS=173.06
CHARGE=1+
MSLEVEL=2
SOURCE_INSTRUMENT=Positive-Quattro_QQQ:25eV
FILENAME=hmdb_intermediate.mgf
SEQ=*..*
IONMODE=Positive
ORGANISM=HMDB
NAME=HMDB:HMDB01892-1802 Menadione M+H
PI=HMDB
DATACOLLECTOR=HMDB
SMILES=CC1=CC(=O)C2=CC=CC=C2C1=O
INCHI=InChI=1S/C11H8O2/c1-7-6-10(12)8-4-2-3-5-9(8)11(7)13/h2-6H,1H3
INCHIAUX=N/A
PUBMED=N/A
SUBMITUSER=mwang87
TAGS=
LIBRARYQUALITY=3
SPECTRUMID=CCMSLIB00000426577
SCANS=1549
105.324 100.0 
END IONS

BEGIN IONS
PEPMASS=268.105
CHARGE=1+
MSLEVEL=2
SOURCE_INSTRUMENT=Positive-Quattro_QQQ:40eV
FILENAME=hmdb_intermediate.mgf
SEQ=*..*
IONMODE=Positive
ORGANISM=HMDB
NAME=HMDB:HMDB00085-137 Deoxyguanosine M+H
PI=HMDB
DATACOLLECTOR=HMDB
SMILES=NC1=NC2=C(N=CN2[C@H]2C[C@H](O)[C@@H](CO)O2)C(=O)N1
INCHI=InChI=1S/C10H13N5O4/c11-10-13-8-7(9(18)14-10)12-3-15(8)6-1-4(17)5(2-16)19-6/h3-6,16-17H,1-2H2,(H3,11,13,14,18)/t4-,5+,6+/m0/s1
INCHIAUX=N/A
PUBMED=N/A
SUBMITUSER=mwang87
TAGS=
LIBRARYQUALITY=3
SPECTRUMID=CCMSLIB00000426578
SCANS=1550
134.881 100.0 
151.911 65.878 
END IONS

BEGIN IONS
PEPMASS=130.05
CHARGE=1+
MSLEVEL=2
SOURCE_INSTRUMENT=Positive-Quattro_QQQ:10eV
FILENAME=hmdb_intermediate.mgf
SEQ=*..*
IONMODE=Positive
ORGANISM=HMDB
NAME=HMDB:HMDB01843-1693 N-Acryloylglycine M+H
PI=HMDB
DATACOLLECTOR=HMDB
SMILES=OC(=O)CNC(=O)C=C
INCHI=InChI=1S/C5H7NO3/c1-2-4(7)6-3-5(8)9/h2H,1,3H2,(H,6,7)(H,8,9)
INCHIAUX=N/A
PUBMED=N/A
SUBMITUSER=mwang87
TAGS=
LIBRARYQUALITY=3
SPECTRUMID=CCMSLIB00000426579
SCANS=1551
55.485 100.0 
84.326 62.105 
END IONS

BEGIN IONS
PEPMASS=89.1079
CHARGE=1+
MSLEVEL=2
SOURCE_INSTRUMENT=Positive-Quattro_QQQ:40eV
FILENAME=hmdb_intermediate.mgf
SEQ=*..*
IONMODE=Positive
ORGANISM=HMDB
NAME=HMDB:HMDB01414-1570 Putrescine M+H
PI=HMDB
DATACOLLECTOR=HMDB
SMILES=NCCCCN
INCHI=InChI=1S/C4H12N2/c5-3-1-2-4-6/h1-6H2
INCHIAUX=N/A
PUBMED=N/A
SUBMITUSER=mwang87
TAGS=
LIBRARYQUALITY=3
SPECTRUMID=CCMSLIB00000426580
SCANS=1552
72.18 100.0 
89.131 64.024 
END IONS

BEGIN IONS
PEPMASS=91.0395
CHARGE=1+
MSLEVEL=2
SOURCE_INSTRUMENT=Positive-Quattro_QQQ:25eV
FILENAME=hmdb_intermediate.mgf
SEQ=*..*
IONMODE=Positive
ORGANISM=HMDB
NAME=HMDB:HMDB01051-1404 Glyceraldehyde M+H
PI=HMDB
DATACOLLECTOR=HMDB
SMILES=OCC(O)C=O
INCHI=InChI=1S/C3H6O3/c4-1-3(6)2-5/h1,3,5-6H,2H2
INCHIAUX=N/A
PUBMED=N/A
SUBMITUSER=mwang87
TAGS=
LIBRARYQUALITY=3
SPECTRUMID=CCMSLIB00000426581
SCANS=1553
43.277 100.0 
61.094 64.407 
END IONS

BEGIN IONS
PEPMASS=151.061
CHARGE=1+
MSLEVEL=2
SOURCE_INSTRUMENT=Positive-Quattro_QQQ:10eV
FILENAME=hmdb_intermediate.mgf
SEQ=*..*
IONMODE=Positive
ORGANISM=HMDB
NAME=HMDB:HMDB00098-153 D-Xylose M+H
PI=HMDB
DATACOLLECTOR=HMDB
SMILES=O[C@@H]1COC(O)[C@H](O)[C@H]1O
INCHI=InChI=1S/C5H10O5/c6-2-1-10-5(9)4(8)3(2)7/h2-9H,1H2/t2-,3+,4-,5?/m1/s1
INCHIAUX=N/A
PUBMED=N/A
SUBMITUSER=mwang87
TAGS=
LIBRARYQUALITY=3
SPECTRUMID=CCMSLIB00000426582
SCANS=1554
89.0 54.071 
101.0 100.0 
119.0 58.898 
133.0 61.136 
151.0 55.317 
END IONS

BEGIN IONS
PEPMASS=153.055
CHARGE=1+
MSLEVEL=2
SOURCE_INSTRUMENT=Positive-Quattro_QQQ:40eV
FILENAME=hmdb_intermediate.mgf
SEQ=*..*
IONMODE=Positive
ORGANISM=HMDB
NAME=HMDB:HMDB01101-1423 p-Anisic acid M+H
PI=HMDB
DATACOLLECTOR=HMDB
SMILES=COC1=CC=C(C=C1)C(O)=O
INCHI=InChI=1S/C8H8O3/c1-11-7-4-2-6(3-5-7)8(9)10/h2-5H,1H3,(H,9,10)
INCHIAUX=N/A
PUBMED=N/A
SUBMITUSER=mwang87
TAGS=
LIBRARYQUALITY=3
SPECTRUMID=CCMSLIB00000426583
SCANS=1555
51.06 52.341 
76.95 100.0 
END IONS

BEGIN IONS
PEPMASS=267.171
CHARGE=1+
MSLEVEL=2
SOURCE_INSTRUMENT=Positive-Quattro_QQQ:10eV
FILENAME=hmdb_intermediate.mgf
SEQ=*..*
IONMODE=Positive
ORGANISM=HMDB
NAME=HMDB:HMDB01924-1852 Atenolol M+H
PI=HMDB
DATACOLLECTOR=HMDB
SMILES=CC(C)NCC(O)COC1=CC=C(CC(N)=O)C=C1
INCHI=InChI=1S/C14H22N2O3/c1-10(2)16-8-12(17)9-19-13-5-3-11(4-6-13)7-14(15)18/h3-6,10,12,16-17H,7-9H2,1-2H3,(H2,15,18)
INCHIAUX=N/A
PUBMED=N/A
SUBMITUSER=mwang87
TAGS=
LIBRARYQUALITY=3
SPECTRUMID=CCMSLIB00000426584
SCANS=1556
150.302 57.466 
154.995 100.0 
185.055 95.701 
267.003 87.968 
END IONS

BEGIN IONS
PEPMASS=203.224
CHARGE=1+
MSLEVEL=2
SOURCE_INSTRUMENT=Positive-Quattro_QQQ:10eV
FILENAME=hmdb_intermediate.mgf
SEQ=*..*
IONMODE=Positive
ORGANISM=HMDB
NAME=HMDB:HMDB01256-1487 Spermine M+H
PI=HMDB
DATACOLLECTOR=HMDB
SMILES=NCCCNCCCCNCCCN
INCHI=InChI=1S/C10H26N4/c11-5-3-9-13-7-1-2-8-14-10-4-6-12/h13-14H,1-12H2
INCHIAUX=N/A
PUBMED=N/A
SUBMITUSER=mwang87
TAGS=
LIBRARYQUALITY=3
SPECTRUMID=CCMSLIB00000426585
SCANS=1557
203.441 100.0 
END IONS

BEGIN IONS
PEPMASS=209.093
CHARGE=1+
MSLEVEL=2
SOURCE_INSTRUMENT=Positive-Quattro_QQQ:25eV
FILENAME=hmdb_intermediate.mgf
SEQ=*..*
IONMODE=Positive
ORGANISM=HMDB
NAME=HMDB:HMDB00684-949 L-Kynurenine M+H
PI=HMDB
DATACOLLECTOR=HMDB
SMILES=N[C@@H](CC(=O)C1=CC=CC=C1N)C(O)=O
INCHI=InChI=1S/C10H12N2O3/c11-7-4-2-1-3-6(7)9(13)5-8(12)10(14)15/h1-4,8H,5,11-12H2,(H,14,15)/t8-/m0/s1
INCHIAUX=N/A
PUBMED=N/A
SUBMITUSER=mwang87
TAGS=
LIBRARYQUALITY=3
SPECTRUMID=CCMSLIB00000426586
SCANS=1558
74.042 55.921 
94.033 85.526 
117.914 84.211 
119.928 64.474 
145.912 100.0 
END IONS

BEGIN IONS
PEPMASS=323.064
CHARGE=1+
MSLEVEL=2
SOURCE_INSTRUMENT=Positive-Quattro_QQQ:10eV
FILENAME=hmdb_intermediate.mgf
SEQ=*..*
IONMODE=Positive
ORGANISM=HMDB
NAME=HMDB:HMDB01227-1472 5-Thymidylic acid M+H
PI=HMDB
DATACOLLECTOR=HMDB
SMILES=CC1=CN([C@H]2C[C@H](O)[C@@H](COP(O)(O)=O)O2)C(=O)NC1=O
INCHI=InChI=1S/C10H15N2O8P/c1-5-3-12(10(15)11-9(5)14)8-2-6(13)7(20-8)4-19-21(16,17)18/h3,6-8,13H,2,4H2,1H3,(H,11,14,15)(H2,16,17,18)/t6-,7+,8+/m0/s1
INCHIAUX=N/A
PUBMED=N/A
SUBMITUSER=mwang87
TAGS=
LIBRARYQUALITY=3
SPECTRUMID=CCMSLIB00000426587
SCANS=1559
81.0 100.0 
END IONS

BEGIN IONS
PEPMASS=127.051
CHARGE=1+
MSLEVEL=2
SOURCE_INSTRUMENT=Positive-Quattro_QQQ:40eV
FILENAME=hmdb_intermediate.mgf
SEQ=*..*
IONMODE=Positive
ORGANISM=HMDB
NAME=HMDB:HMDB00262-456 Thymine M+H
PI=HMDB
DATACOLLECTOR=HMDB
SMILES=CC1=CNC(=O)NC1=O
INCHI=InChI=1S/C5H6N2O2/c1-3-2-6-5(9)7-4(3)8/h2H,1H3,(H2,6,7,8,9)
INCHIAUX=N/A
PUBMED=N/A
SUBMITUSER=mwang87
TAGS=
LIBRARYQUALITY=3
SPECTRUMID=CCMSLIB00000426588
SCANS=1560
54.169 100.0 
END IONS

BEGIN IONS
PEPMASS=244.093
CHARGE=1+
MSLEVEL=2
SOURCE_INSTRUMENT=Positive-Quattro_QQQ:10eV
FILENAME=hmdb_intermediate.mgf
SEQ=*..*
IONMODE=Positive
ORGANISM=HMDB
NAME=HMDB:HMDB00089-138 Cytidine M+H
PI=HMDB
DATACOLLECTOR=HMDB
SMILES=NC1=NC(=O)N(C=C1)[C@@H]1O[C@H](CO)[C@@H](O)[C@H]1O
INCHI=InChI=1S/C9H13N3O5/c10-5-1-2-12(9(16)11-5)8-7(15)6(14)4(3-13)17-8/h1-2,4,6-8,13-15H,3H2,(H2,10,11,16)/t4-,6-,7-,8-/m1/s1
INCHIAUX=N/A
PUBMED=N/A
SUBMITUSER=mwang87
TAGS=
LIBRARYQUALITY=3
SPECTRUMID=CCMSLIB00000426589
SCANS=1561
112.007 100.0 
END IONS

BEGIN IONS
PEPMASS=117.055
CHARGE=1+
MSLEVEL=2
SOURCE_INSTRUMENT=Positive-Quattro_QQQ:10eV
FILENAME=hmdb_intermediate.mgf
SEQ=*..*
IONMODE=Positive
ORGANISM=HMDB
NAME=HMDB:HMDB00019-31 Alpha-ketoisovaleric acid M+H
PI=HMDB
DATACOLLECTOR=HMDB
SMILES=CC(C)C(=O)C(O)=O
INCHI=InChI=1S/C5H8O3/c1-3(2)4(6)5(7)8/h3H,1-2H3,(H,7,8)
INCHIAUX=N/A
PUBMED=N/A
SUBMITUSER=mwang87
TAGS=
LIBRARYQUALITY=3
SPECTRUMID=CCMSLIB00000426590
SCANS=1562
85.0 100.0 
END IONS

BEGIN IONS
PEPMASS=148.061
CHARGE=1+
MSLEVEL=2
SOURCE_INSTRUMENT=Positive-Quattro_QQQ:40eV
FILENAME=hmdb_intermediate.mgf
SEQ=*..*
IONMODE=Positive
ORGANISM=HMDB
NAME=HMDB:HMDB00148-223 L-Glutamic acid M+H
PI=HMDB
DATACOLLECTOR=HMDB
SMILES=N[C@@H](CCC(O)=O)C(O)=O
INCHI=InChI=1S/C5H9NO4/c6-3(5(9)10)1-2-4(7)8/h3H,1-2,6H2,(H,7,8)(H,9,10)/t3-/m0/s1
INCHIAUX=N/A
PUBMED=N/A
SUBMITUSER=mwang87
TAGS=
LIBRARYQUALITY=3
SPECTRUMID=CCMSLIB00000426591
SCANS=1563
56.175 100.0 
84.015 54.455 
END IONS

BEGIN IONS
PEPMASS=138.055
CHARGE=1+
MSLEVEL=2
SOURCE_INSTRUMENT=Positive-Quattro_QQQ:10eV
FILENAME=hmdb_intermediate.mgf
SEQ=*..*
IONMODE=Positive
ORGANISM=HMDB
NAME=HMDB:HMDB01392-1550 p-Aminobenzoic acid M+H
PI=HMDB
DATACOLLECTOR=HMDB
SMILES=NC1=CC=C(C=C1)C(O)=O
INCHI=InChI=1S/C7H7NO2/c8-6-3-1-5(2-4-6)7(9)10/h1-4H,8H2,(H,9,10)
INCHIAUX=N/A
PUBMED=N/A
SUBMITUSER=mwang87
TAGS=
LIBRARYQUALITY=3
SPECTRUMID=CCMSLIB00000426592
SCANS=1564
94.06 76.68 
119.966 62.846 
137.925 100.0 
END IONS

BEGIN IONS
PEPMASS=181.061
CHARGE=1+
MSLEVEL=2
SOURCE_INSTRUMENT=Positive-Quattro_QQQ:25eV
FILENAME=hmdb_intermediate.mgf
SEQ=*..*
IONMODE=Positive
ORGANISM=HMDB
NAME=HMDB:HMDB03269-2225 Nicotinuric acid M+H
PI=HMDB
DATACOLLECTOR=HMDB
SMILES=OC(=O)CNC(=O)C1=CN=CC=C1
INCHI=InChI=1S/C8H8N2O3/c11-7(12)5-10-8(13)6-2-1-3-9-4-6/h1-4H,5H2,(H,10,13)(H,11,12)
INCHIAUX=N/A
PUBMED=N/A
SUBMITUSER=mwang87
TAGS=
LIBRARYQUALITY=3
SPECTRUMID=CCMSLIB00000426593
SCANS=1565
107.0 54.693 
135.0 100.0 
END IONS

BEGIN IONS
PEPMASS=101.06
CHARGE=1+
MSLEVEL=2
SOURCE_INSTRUMENT=Positive-Quattro_QQQ:10eV
FILENAME=hmdb_intermediate.mgf
SEQ=*..*
IONMODE=Positive
ORGANISM=HMDB
NAME=HMDB:HMDB01862-1741 2-Ethylacrylic acid M+H
PI=HMDB
DATACOLLECTOR=HMDB
SMILES=CCC(=C)C(O)=O
INCHI=InChI=1S/C5H8O2/c1-3-4(2)5(6)7/h2-3H2,1H3,(H,6,7)
INCHIAUX=N/A
PUBMED=N/A
SUBMITUSER=mwang87
TAGS=
LIBRARYQUALITY=3
SPECTRUMID=CCMSLIB00000426594
SCANS=1566
54.0 96.566 
56.0 56.006 
59.0 66.253 
100.0 100.0 
END IONS

BEGIN IONS
PEPMASS=197.067
CHARGE=1+
MSLEVEL=2
SOURCE_INSTRUMENT=Positive-Quattro_QQQ:40eV
FILENAME=hmdb_intermediate.mgf
SEQ=*..*
IONMODE=Positive
ORGANISM=HMDB
NAME=HMDB:HMDB01982-1925 3,7-Dimethyluric acid M+H
PI=HMDB
DATACOLLECTOR=HMDB
SMILES=CN1C(=O)NC2=C1C(=O)NC(=O)N2C
INCHI=InChI=1S/C7H8N4O3/c1-10-3-4(8-6(10)13)11(2)7(14)9-5(3)12/h1-2H3,(H,8,13)(H,9,12,14)
INCHIAUX=N/A
PUBMED=N/A
SUBMITUSER=mwang87
TAGS=
LIBRARYQUALITY=3
SPECTRUMID=CCMSLIB00000426595
SCANS=1567
42.0 100.0 
68.0 66.463 
END IONS

BEGIN IONS
PEPMASS=131.034
CHARGE=1+
MSLEVEL=2
SOURCE_INSTRUMENT=Positive-Quattro_QQQ:25eV
FILENAME=hmdb_intermediate.mgf
SEQ=*..*
IONMODE=Positive
ORGANISM=HMDB
NAME=HMDB:HMDB00749-1069 Mesaconic acid M+H
PI=HMDB
DATACOLLECTOR=HMDB
SMILES=C\C(=C/C(O)=O)C(O)=O
INCHI=InChI=1S/C5H6O4/c1-3(5(8)9)2-4(6)7/h2H,1H3,(H,6,7)(H,8,9)/b3-2+
INCHIAUX=N/A
PUBMED=N/A
SUBMITUSER=mwang87
TAGS=
LIBRARYQUALITY=3
SPECTRUMID=CCMSLIB00000426596
SCANS=1568
67.0 67.641 
81.0 79.506 
85.0 100.0 
99.0 66.206 
END IONS

BEGIN IONS
PEPMASS=427.096
CHARGE=1+
MSLEVEL=2
SOURCE_INSTRUMENT=Positive-Quattro_QQQ:10eV
FILENAME=hmdb_intermediate.mgf
SEQ=*..*
IONMODE=Positive
ORGANISM=HMDB
NAME=HMDB:HMDB00656-894 Cysteineglutathione disulfide M+H
PI=HMDB
DATACOLLECTOR=HMDB
SMILES=N[C@@H](CCC(=O)N[C@@H](CSSCC(N)C(O)=O)C(=O)NCC(O)=O)C(O)=O
INCHI=InChI=1S/C13H22N4O8S2/c14-6(12(22)23)1-2-9(18)17-8(11(21)16-3-10(19)20)5-27-26-4-7(15)13(24)25/h6-8H,1-5,14-15H2,(H,16,21)(H,17,18)(H,19,20)(H,22,23)(H,24,25)/t6-,7?,8-/m0/s1
INCHIAUX=N/A
PUBMED=N/A
SUBMITUSER=mwang87
TAGS=
LIBRARYQUALITY=3
SPECTRUMID=CCMSLIB00000426597
SCANS=1569
298.507 100.0 
END IONS

BEGIN IONS
PEPMASS=331.227
CHARGE=1+
MSLEVEL=2
SOURCE_INSTRUMENT=Positive-Quattro_QQQ:10eV
FILENAME=hmdb_intermediate.mgf
SEQ=*..*
IONMODE=Positive
ORGANISM=HMDB
NAME=HMDB:HMDB00016-28 Deoxycorticosterone M+H
PI=HMDB
DATACOLLECTOR=HMDB
SMILES=[H][C@@]12CC[C@H](C(=O)CO)[C@@]1(C)CC[C@@]1([H])[C@@]2([H])CCC2=CC(=O)CC[C@]12C
INCHI=InChI=1S/C21H30O3/c1-20-9-7-14(23)11-13(20)3-4-15-16-5-6-18(19(24)12-22)21(16,2)10-8-17(15)20/h11,15-18,22H,3-10,12H2,1-2H3/t15-,16-,17-,18+,20-,21-/m0/s1
INCHIAUX=N/A
PUBMED=N/A
SUBMITUSER=mwang87
TAGS=
LIBRARYQUALITY=3
SPECTRUMID=CCMSLIB00000426598
SCANS=1570
331.195 100.0 
END IONS

BEGIN IONS
PEPMASS=287.113
CHARGE=1+
MSLEVEL=2
SOURCE_INSTRUMENT=Positive-Quattro_QQQ:40eV
FILENAME=hmdb_intermediate.mgf
SEQ=*..*
IONMODE=Positive
ORGANISM=HMDB
NAME=HMDB:HMDB03546-2327 Salicin M+H
PI=HMDB
DATACOLLECTOR=HMDB
SMILES=OC[C@H]1O[C@@H](OC2=C(CO)C=CC=C2)[C@H](O)[C@@H](O)[C@@H]1O
INCHI=InChI=1S/C13H18O7/c14-5-7-3-1-2-4-8(7)19-13-12(18)11(17)10(16)9(6-15)20-13/h1-4,9-18H,5-6H2/t9-,10-,11+,12-,13-/m1/s1
INCHIAUX=N/A
PUBMED=N/A
SUBMITUSER=mwang87
TAGS=
LIBRARYQUALITY=3
SPECTRUMID=CCMSLIB00000426599
SCANS=1571
107.04 100.0 
END IONS

BEGIN IONS
PEPMASS=163.04
CHARGE=1+
MSLEVEL=2
SOURCE_INSTRUMENT=Negative-Quattro_QQQ:40eV
FILENAME=hmdb_intermediate.mgf
SEQ=*..*
IONMODE=Negative
ORGANISM=HMDB
NAME=HMDB:HMDB01713-1677 m-Coumaric acid M-H
PI=HMDB
DATACOLLECTOR=HMDB
SMILES=OC(=O)\C=C\C1=CC=CC(O)=C1
INCHI=InChI=1S/C9H8O3/c10-8-3-1-2-7(6-8)4-5-9(11)12/h1-6,10H,(H,11,12)/b5-4+
INCHIAUX=N/A
PUBMED=N/A
SUBMITUSER=mwang87
TAGS=
LIBRARYQUALITY=3
SPECTRUMID=CCMSLIB00000426600
SCANS=1572
65.414 62.5 
91.361 94.828 
93.201 100.0 
119.18 88.362 
END IONS

BEGIN IONS
PEPMASS=157.006
CHARGE=1+
MSLEVEL=2
SOURCE_INSTRUMENT=Positive-Quattro_QQQ:40eV
FILENAME=hmdb_intermediate.mgf
SEQ=*..*
IONMODE=Positive
ORGANISM=HMDB
NAME=HMDB:HMDB01544-1642 m-Chlorobenzoic acid M+H
PI=HMDB
DATACOLLECTOR=HMDB
SMILES=OC(=O)C1=CC(Cl)=CC=C1
INCHI=InChI=1S/C7H5ClO2/c8-6-3-1-2-5(4-6)7(9)10/h1-4H,(H,9,10)
INCHIAUX=N/A
PUBMED=N/A
SUBMITUSER=mwang87
TAGS=
LIBRARYQUALITY=3
SPECTRUMID=CCMSLIB00000426601
SCANS=1573
63.0 100.0 
78.0 96.598 
END IONS

BEGIN IONS
PEPMASS=300.29
CHARGE=1+
MSLEVEL=2
SOURCE_INSTRUMENT=Positive-Quattro_QQQ:25eV
FILENAME=hmdb_intermediate.mgf
SEQ=*..*
IONMODE=Positive
ORGANISM=HMDB
NAME=HMDB:HMDB00252-434 Sphingosine M+H
PI=HMDB
DATACOLLECTOR=HMDB
SMILES=CCCCCCCCCCCCC\C=C\C(O)C(N)CO
INCHI=InChI=1S/C18H37NO2/c1-2-3-4-5-6-7-8-9-10-11-12-13-14-15-18(21)17(19)16-20/h14-15,17-18,20-21H,2-13,16,19H2,1H3/b15-14+
INCHIAUX=N/A
PUBMED=N/A
SUBMITUSER=mwang87
TAGS=
LIBRARYQUALITY=3
SPECTRUMID=CCMSLIB00000426602
SCANS=1574
55.0 84.052 
56.0 100.0 
57.0 59.887 
END IONS

BEGIN IONS
PEPMASS=359.147
CHARGE=1+
MSLEVEL=2
SOURCE_INSTRUMENT=Positive-Quattro_QQQ:25eV
FILENAME=hmdb_intermediate.mgf
SEQ=*..*
IONMODE=Positive
ORGANISM=HMDB
NAME=HMDB:HMDB01069-1416 2-Phenylaminoadenosine M+H
PI=HMDB
DATACOLLECTOR=HMDB
SMILES=NC1=C2N=CN(C3OC(CO)C(O)C3O)C2=NC(NC2=CC=CC=C2)=N1
INCHI=InChI=1S/C16H18N6O4/c17-13-10-14(21-16(20-13)19-8-4-2-1-3-5-8)22(7-18-10)15-12(25)11(24)9(6-23)26-15/h1-5,7,9,11-12,15,23-25H,6H2,(H3,17,19,20,21)
INCHIAUX=N/A
PUBMED=N/A
SUBMITUSER=mwang87
TAGS=
LIBRARYQUALITY=3
SPECTRUMID=CCMSLIB00000426603
SCANS=1575
226.86 100.0 
END IONS

BEGIN IONS
PEPMASS=287.237
CHARGE=1+
MSLEVEL=2
SOURCE_INSTRUMENT=Positive-Quattro_QQQ:25eV
FILENAME=hmdb_intermediate.mgf
SEQ=*..*
IONMODE=Positive
ORGANISM=HMDB
NAME=HMDB:HMDB00305-520 Vitamin A M+H
PI=HMDB
DATACOLLECTOR=HMDB
SMILES=C\C(=C/CO)\C=C\C=C(/C)\C=C\C1=C(C)CCCC1(C)C
INCHI=InChI=1S/C20H30O/c1-16(8-6-9-17(2)13-15-21)11-12-19-18(3)10-7-14-20(19,4)5/h6,8-9,11-13,21H,7,10,14-15H2,1-5H3/b9-6+,12-11+,16-8+,17-13+
INCHIAUX=N/A
PUBMED=N/A
SUBMITUSER=mwang87
TAGS=
LIBRARYQUALITY=3
SPECTRUMID=CCMSLIB00000426604
SCANS=1576
95.091 50.0 
121.035 100.0 
END IONS

BEGIN IONS
PEPMASS=146.093
CHARGE=1+
MSLEVEL=2
SOURCE_INSTRUMENT=Positive-Quattro_QQQ:10eV
FILENAME=hmdb_intermediate.mgf
SEQ=*..*
IONMODE=Positive
ORGANISM=HMDB
NAME=HMDB:HMDB03464-2319 4-Guanidinobutanoic acid M+H
PI=HMDB
DATACOLLECTOR=HMDB
SMILES=NC(N)=NCCCC(O)=O
INCHI=InChI=1S/C5H11N3O2/c6-5(7)8-3-1-2-4(9)10/h1-3H2,(H,9,10)(H4,6,7,8)
INCHIAUX=N/A
PUBMED=N/A
SUBMITUSER=mwang87
TAGS=
LIBRARYQUALITY=3
SPECTRUMID=CCMSLIB00000426605
SCANS=1577
146.0 100.0 
END IONS

BEGIN IONS
PEPMASS=171.139
CHARGE=1+
MSLEVEL=2
SOURCE_INSTRUMENT=Positive-Quattro_QQQ:25eV
FILENAME=hmdb_intermediate.mgf
SEQ=*..*
IONMODE=Positive
ORGANISM=HMDB
NAME=HMDB:HMDB04980-2416 cis-4-Decenoic acid M+H
PI=HMDB
DATACOLLECTOR=HMDB
SMILES=CCCCC\C=C/CCC(O)=O
INCHI=InChI=1S/C10H18O2/c1-2-3-4-5-6-7-8-9-10(11)12/h6-7H,2-5,8-9H2,1H3,(H,11,12)/b7-6-
INCHIAUX=N/A
PUBMED=N/A
SUBMITUSER=mwang87
TAGS=
LIBRARYQUALITY=3
SPECTRUMID=CCMSLIB00000426606
SCANS=1578
43.0 100.0 
44.0 54.896 
71.0 56.414 
END IONS

BEGIN IONS
PEPMASS=260.186
CHARGE=1+
MSLEVEL=2
SOURCE_INSTRUMENT=Positive-Quattro_QQQ:40eV
FILENAME=hmdb_intermediate.mgf
SEQ=*..*
IONMODE=Positive
ORGANISM=HMDB
NAME=HMDB:HMDB00705-986 Hexanoylcarnitine M+H
PI=HMDB
DATACOLLECTOR=HMDB
SMILES=CCCCCC(=O)OC(CC([O-])=O)C[N+](C)(C)C
INCHI=InChI=1S/C13H25NO4/c1-5-6-7-8-13(17)18-11(9-12(15)16)10-14(2,3)4/h11H,5-10H2,1-4H3
INCHIAUX=N/A
PUBMED=N/A
SUBMITUSER=mwang87
TAGS=
LIBRARYQUALITY=3
SPECTRUMID=CCMSLIB00000426607
SCANS=1579
85.201 100.0 
END IONS

BEGIN IONS
PEPMASS=268.105
CHARGE=1+
MSLEVEL=2
SOURCE_INSTRUMENT=Positive-Quattro_QQQ:25eV
FILENAME=hmdb_intermediate.mgf
SEQ=*..*
IONMODE=Positive
ORGANISM=HMDB
NAME=HMDB:HMDB00085-136 Deoxyguanosine M+H
PI=HMDB
DATACOLLECTOR=HMDB
SMILES=NC1=NC2=C(N=CN2[C@H]2C[C@H](O)[C@@H](CO)O2)C(=O)N1
INCHI=InChI=1S/C10H13N5O4/c11-10-13-8-7(9(18)14-10)12-3-15(8)6-1-4(17)5(2-16)19-6/h3-6,16-17H,1-2H2,(H3,11,13,14,18)/t4-,5+,6+/m0/s1
INCHIAUX=N/A
PUBMED=N/A
SUBMITUSER=mwang87
TAGS=
LIBRARYQUALITY=3
SPECTRUMID=CCMSLIB00000426608
SCANS=1580
151.911 100.0 
END IONS

BEGIN IONS
PEPMASS=157.159
CHARGE=1+
MSLEVEL=2
SOURCE_INSTRUMENT=Positive-Quattro_QQQ:40eV
FILENAME=hmdb_intermediate.mgf
SEQ=*..*
IONMODE=Positive
ORGANISM=HMDB
NAME=HMDB:HMDB03352-2261 Menthol M+H
PI=HMDB
DATACOLLECTOR=HMDB
SMILES=CC(C)[C@@H]1CC[C@@H](C)C[C@H]1O
INCHI=InChI=1S/C10H20O/c1-7(2)9-5-4-8(3)6-10(9)11/h7-11H,4-6H2,1-3H3/t8-,9+,10-/m1/s1
INCHIAUX=N/A
PUBMED=N/A
SUBMITUSER=mwang87
TAGS=
LIBRARYQUALITY=3
SPECTRUMID=CCMSLIB00000426609
SCANS=1581
41.0 93.988 
44.0 91.933 
45.0 100.0 
54.0 62.432 
74.0 76.437 
76.0 64.34 
END IONS

BEGIN IONS
PEPMASS=293.248
CHARGE=1+
MSLEVEL=2
SOURCE_INSTRUMENT=Positive-Quattro_QQQ:10eV
FILENAME=hmdb_intermediate.mgf
SEQ=*..*
IONMODE=Positive
ORGANISM=HMDB
NAME=HMDB:HMDB00493-713 5a-Androstane-3b,17b-diol M+H
PI=HMDB
DATACOLLECTOR=HMDB
SMILES=[H][C@@]12CC[C@H](O)[C@@]1(C)CC[C@@]1([H])[C@@]2([H])CC[C@@]2([H])C[C@@H](O)CC[C@]12C
INCHI=InChI=1S/C19H32O2/c1-18-9-7-13(20)11-12(18)3-4-14-15-5-6-17(21)19(15,2)10-8-16(14)18/h12-17,20-21H,3-11H2,1-2H3/t12-,13-,14-,15-,16-,17-,18-,19-/m0/s1
INCHIAUX=N/A
PUBMED=N/A
SUBMITUSER=mwang87
TAGS=
LIBRARYQUALITY=3
SPECTRUMID=CCMSLIB00000426610
SCANS=1582
149.28 100.0 
170.516 52.704 
END IONS

BEGIN IONS
PEPMASS=132.15
CHARGE=1+
MSLEVEL=2
SOURCE_INSTRUMENT=Positive-Quattro_QQQ:10eV
FILENAME=hmdb_intermediate.mgf
SEQ=*..*
IONMODE=Positive
ORGANISM=HMDB
NAME=HMDB:HMDB11634-2493 Norspermidine M+H
PI=HMDB
DATACOLLECTOR=HMDB
SMILES=NCCCNCCCN
INCHI=InChI=1S/C6H17N3/c7-3-1-5-9-6-2-4-8/h9H,1-8H2
INCHIAUX=N/A
PUBMED=N/A
SUBMITUSER=mwang87
TAGS=
LIBRARYQUALITY=3
SPECTRUMID=CCMSLIB00000426611
SCANS=1583
131.86 100.0 
END IONS

BEGIN IONS
PEPMASS=483.992
CHARGE=1+
MSLEVEL=2
SOURCE_INSTRUMENT=Positive-Quattro_QQQ:40eV
FILENAME=hmdb_intermediate.mgf
SEQ=*..*
IONMODE=Positive
ORGANISM=HMDB
NAME=HMDB:HMDB00082-134 Cytidine triphosphate M+H
PI=HMDB
DATACOLLECTOR=HMDB
SMILES=NC1=NC(=O)N(C=C1)[C@@H]1O[C@H](COP(O)(=O)OP(O)(=O)OP(O)(O)=O)[C@@H](O)[C@H]1O
INCHI=InChI=1S/C9H16N3O14P3/c10-5-1-2-12(9(15)11-5)8-7(14)6(13)4(24-8)3-23-28(19,20)26-29(21,22)25-27(16,17)18/h1-2,4,6-8,13-14H,3H2,(H,19,20)(H,21,22)(H2,10,11,15)(H2,16,17,18)/t4-,6-,7-,8-/m1/s1
INCHIAUX=N/A
PUBMED=N/A
SUBMITUSER=mwang87
TAGS=
LIBRARYQUALITY=3
SPECTRUMID=CCMSLIB00000426612
SCANS=1584
128.359 51.724 
128.727 58.621 
243.134 50.0 
308.207 51.724 
333.011 67.241 
438.01 51.724 
497.334 100.0 
END IONS

BEGIN IONS
PEPMASS=189.124
CHARGE=1+
MSLEVEL=2
SOURCE_INSTRUMENT=Positive-Quattro_QQQ:25eV
FILENAME=hmdb_intermediate.mgf
SEQ=*..*
IONMODE=Positive
ORGANISM=HMDB
NAME=HMDB:HMDB00206-332 N6-Acetyl-L-lysine M+H
PI=HMDB
DATACOLLECTOR=HMDB
SMILES=CC(=O)NCCCC[C@H](N)C(O)=O
INCHI=InChI=1S/C8H16N2O3/c1-6(11)10-5-3-2-4-7(9)8(12)13/h7H,2-5,9H2,1H3,(H,10,11)(H,12,13)/t7-/m0/s1
INCHIAUX=N/A
PUBMED=N/A
SUBMITUSER=mwang87
TAGS=
LIBRARYQUALITY=3
SPECTRUMID=CCMSLIB00000426613
SCANS=1585
84.121 100.0 
END IONS

BEGIN IONS
PEPMASS=175.061
CHARGE=1+
MSLEVEL=2
SOURCE_INSTRUMENT=Negative-Quattro_QQQ:40eV
FILENAME=hmdb_intermediate.mgf
SEQ=*..*
IONMODE=Negative
ORGANISM=HMDB
NAME=HMDB:HMDB00402-611 2-Isopropylmalic acid M-H
PI=HMDB
DATACOLLECTOR=HMDB
SMILES=CC(C)[C@@](O)(CC(O)=O)C(O)=O
INCHI=InChI=1S/C7H12O5/c1-4(2)7(12,6(10)11)3-5(8)9/h4,12H,3H2,1-2H3,(H,8,9)(H,10,11)/t7-/m0/s1
INCHIAUX=N/A
PUBMED=N/A
SUBMITUSER=mwang87
TAGS=
LIBRARYQUALITY=3
SPECTRUMID=CCMSLIB00000426614
SCANS=1586
59.426 85.714 
85.324 100.0 
115.176 57.857 
END IONS

BEGIN IONS
PEPMASS=116.071
CHARGE=1+
MSLEVEL=2
SOURCE_INSTRUMENT=Positive-Quattro_QQQ:40eV
FILENAME=hmdb_intermediate.mgf
SEQ=*..*
IONMODE=Positive
ORGANISM=HMDB
NAME=HMDB:HMDB00162-256 L-Proline M+H
PI=HMDB
DATACOLLECTOR=HMDB
SMILES=OC(=O)[C@@H]1CCCN1
INCHI=InChI=1S/C5H9NO2/c7-5(8)4-2-1-3-6-4/h4,6H,1-3H2,(H,7,8)/t4-/m0/s1
INCHIAUX=N/A
PUBMED=N/A
SUBMITUSER=mwang87
TAGS=
LIBRARYQUALITY=3
SPECTRUMID=CCMSLIB00000426615
SCANS=1587
70.117 100.0 
END IONS

BEGIN IONS
PEPMASS=245.077
CHARGE=1+
MSLEVEL=2
SOURCE_INSTRUMENT=Positive-Quattro_QQQ:25eV
FILENAME=hmdb_intermediate.mgf
SEQ=*..*
IONMODE=Positive
ORGANISM=HMDB
NAME=HMDB:HMDB00296-505 Uridine M+H
PI=HMDB
DATACOLLECTOR=HMDB
SMILES=OC[C@H]1O[C@H]([C@H](O)[C@@H]1O)N1C=CC(=O)NC1=O
INCHI=InChI=1S/C9H12N2O6/c12-3-4-6(14)7(15)8(17-4)11-2-1-5(13)10-9(11)16/h1-2,4,6-8,12,14-15H,3H2,(H,10,13,16)/t4-,6-,7-,8-/m1/s1
INCHIAUX=N/A
PUBMED=N/A
SUBMITUSER=mwang87
TAGS=
LIBRARYQUALITY=3
SPECTRUMID=CCMSLIB00000426616
SCANS=1588
112.991 100.0 
END IONS

BEGIN IONS
PEPMASS=269.063
CHARGE=1+
MSLEVEL=2
SOURCE_INSTRUMENT=Positive-Quattro_QQQ:40eV
FILENAME=hmdb_intermediate.mgf
SEQ=*..*
IONMODE=Positive
ORGANISM=HMDB
NAME=HMDB:HMDB00676-938 L-Homocystine M+H
PI=HMDB
DATACOLLECTOR=HMDB
SMILES=NC(CCSSCC[C@H](N)C(O)=O)C(O)=O
INCHI=InChI=1S/C8H16N2O4S2/c9-5(7(11)12)1-3-15-16-4-2-6(10)8(13)14/h5-6H,1-4,9-10H2,(H,11,12)(H,13,14)/t5-,6?/m0/s1
INCHIAUX=N/A
PUBMED=N/A
SUBMITUSER=mwang87
TAGS=
LIBRARYQUALITY=3
SPECTRUMID=CCMSLIB00000426617
SCANS=1589
87.0 100.0 
88.0 89.641 
END IONS

BEGIN IONS
PEPMASS=163.061
CHARGE=1+
MSLEVEL=2
SOURCE_INSTRUMENT=Positive-Quattro_QQQ:25eV
FILENAME=hmdb_intermediate.mgf
SEQ=*..*
IONMODE=Positive
ORGANISM=HMDB
NAME=HMDB:HMDB00640-877 Levoglucosan M+H
PI=HMDB
DATACOLLECTOR=HMDB
SMILES=[H][C@@]12OC[C@@H](O1)[C@@H](O)[C@H](O)[C@H]2O
INCHI=InChI=1S/C6H10O5/c7-3-2-1-10-6(11-2)5(9)4(3)8/h2-9H,1H2/t2-,3-,4+,5-,6-/m1/s1
INCHIAUX=N/A
PUBMED=N/A
SUBMITUSER=mwang87
TAGS=
LIBRARYQUALITY=3
SPECTRUMID=CCMSLIB00000426618
SCANS=1590
43.348 51.736 
57.237 60.764 
69.158 93.056 
85.093 100.0 
END IONS

BEGIN IONS
PEPMASS=121.065
CHARGE=1+
MSLEVEL=2
SOURCE_INSTRUMENT=Positive-Quattro_QQQ:10eV
FILENAME=hmdb_intermediate.mgf
SEQ=*..*
IONMODE=Positive
ORGANISM=HMDB
NAME=HMDB:HMDB06236-2478 Phenylacetaldehyde M+H
PI=HMDB
DATACOLLECTOR=HMDB
SMILES=O=CCC1=CC=CC=C1
INCHI=InChI=1S/C8H8O/c9-7-6-8-4-2-1-3-5-8/h1-5,7H,6H2
INCHIAUX=N/A
PUBMED=N/A
SUBMITUSER=mwang87
TAGS=
LIBRARYQUALITY=3
SPECTRUMID=CCMSLIB00000426619
SCANS=1591
103.0 100.0 
104.0 71.635 
END IONS

BEGIN IONS
PEPMASS=343.124
CHARGE=1+
MSLEVEL=2
SOURCE_INSTRUMENT=Positive-Quattro_QQQ:40eV
FILENAME=hmdb_intermediate.mgf
SEQ=*..*
IONMODE=Positive
ORGANISM=HMDB
NAME=HMDB:HMDB02923-2165 Isomaltose M+H
PI=HMDB
DATACOLLECTOR=HMDB
SMILES=OC[C@H]1O[C@H](OC[C@H]2OC(O)[C@H](O)[C@@H](O)[C@@H]2O)[C@H](O)[C@@H](O)[C@@H]1O
INCHI=InChI=1S/C12H22O11/c13-1-3-5(14)8(17)10(19)12(23-3)21-2-4-6(15)7(16)9(18)11(20)22-4/h3-20H,1-2H2/t3-,4-,5-,6-,7+,8+,9-,10-,11?,12+/m1/s1
INCHIAUX=N/A
PUBMED=N/A
SUBMITUSER=mwang87
TAGS=
LIBRARYQUALITY=3
SPECTRUMID=CCMSLIB00000426620
SCANS=1592
85.0 100.0 
END IONS

BEGIN IONS
PEPMASS=163.04
CHARGE=1+
MSLEVEL=2
SOURCE_INSTRUMENT=Negative-Quattro_QQQ:25eV
FILENAME=hmdb_intermediate.mgf
SEQ=*..*
IONMODE=Negative
ORGANISM=HMDB
NAME=HMDB:HMDB01713-1676 m-Coumaric acid M-H
PI=HMDB
DATACOLLECTOR=HMDB
SMILES=OC(=O)\C=C\C1=CC=CC(O)=C1
INCHI=InChI=1S/C9H8O3/c10-8-3-1-2-7(6-8)4-5-9(11)12/h1-6,10H,(H,11,12)/b5-4+
INCHIAUX=N/A
PUBMED=N/A
SUBMITUSER=mwang87
TAGS=
LIBRARYQUALITY=3
SPECTRUMID=CCMSLIB00000426621
SCANS=1593
119.196 100.0 
END IONS

BEGIN IONS
PEPMASS=151.061
CHARGE=1+
MSLEVEL=2
SOURCE_INSTRUMENT=Positive-Quattro_QQQ:10eV
FILENAME=hmdb_intermediate.mgf
SEQ=*..*
IONMODE=Positive
ORGANISM=HMDB
NAME=HMDB:HMDB00621-840 D-Ribulose M+H
PI=HMDB
DATACOLLECTOR=HMDB
SMILES=OC[C@@H](O)[C@@H](O)C(=O)CO
INCHI=InChI=1S/C5H10O5/c6-1-3(8)5(10)4(9)2-7/h3,5-8,10H,1-2H2/t3-,5-/m1/s1
INCHIAUX=N/A
PUBMED=N/A
SUBMITUSER=mwang87
TAGS=
LIBRARYQUALITY=3
SPECTRUMID=CCMSLIB00000426622
SCANS=1594
89.5 100.0 
END IONS

BEGIN IONS
PEPMASS=192.102
CHARGE=1+
MSLEVEL=2
SOURCE_INSTRUMENT=Positive-Quattro_QQQ:25eV
FILENAME=hmdb_intermediate.mgf
SEQ=*..*
IONMODE=Positive
ORGANISM=HMDB
NAME=HMDB:HMDB01896-1814 5-Methoxytryptophol M+H
PI=HMDB
DATACOLLECTOR=HMDB
SMILES=COC1=CC=C2NC=C(CCO)C2=C1
INCHI=InChI=1S/C11H13NO2/c1-14-9-2-3-11-10(6-9)8(4-5-13)7-12-11/h2-3,6-7,12-13H,4-5H2,1H3
INCHIAUX=N/A
PUBMED=N/A
SUBMITUSER=mwang87
TAGS=
LIBRARYQUALITY=3
SPECTRUMID=CCMSLIB00000426623
SCANS=1595
130.0 53.317 
131.0 60.278 
143.0 54.358 
159.0 100.0 
END IONS

BEGIN IONS
PEPMASS=109.065
CHARGE=1+
MSLEVEL=2
SOURCE_INSTRUMENT=Positive-Quattro_QQQ:25eV
FILENAME=hmdb_intermediate.mgf
SEQ=*..*
IONMODE=Positive
ORGANISM=HMDB
NAME=HMDB:HMDB02048-1969 m-Cresol M+H
PI=HMDB
DATACOLLECTOR=HMDB
SMILES=CC1=CC(O)=CC=C1
INCHI=InChI=1S/C7H8O/c1-6-3-2-4-7(8)5-6/h2-5,8H,1H3
INCHIAUX=N/A
PUBMED=N/A
SUBMITUSER=mwang87
TAGS=
LIBRARYQUALITY=3
SPECTRUMID=CCMSLIB00000426624
SCANS=1596
65.0 62.979 
66.0 52.83 
94.0 100.0 
END IONS

BEGIN IONS
PEPMASS=163.108
CHARGE=1+
MSLEVEL=2
SOURCE_INSTRUMENT=Positive-Quattro_QQQ:40eV
FILENAME=hmdb_intermediate.mgf
SEQ=*..*
IONMODE=Positive
ORGANISM=HMDB
NAME=HMDB:HMDB00450-658 5-Hydroxylysine M+H
PI=HMDB
DATACOLLECTOR=HMDB
SMILES=NC[C@H](O)CC[C@H](N)C(O)=O
INCHI=InChI=1S/C6H14N2O3/c7-3-4(9)1-2-5(8)6(10)11/h4-5,9H,1-3,7-8H2,(H,10,11)/t4-,5+/m1/s1
INCHIAUX=N/A
PUBMED=N/A
SUBMITUSER=mwang87
TAGS=
LIBRARYQUALITY=3
SPECTRUMID=CCMSLIB00000426625
SCANS=1597
82.0 100.0 
END IONS

BEGIN IONS
PEPMASS=87.0446
CHARGE=1+
MSLEVEL=2
SOURCE_INSTRUMENT=Positive-Quattro_QQQ:10eV
FILENAME=hmdb_intermediate.mgf
SEQ=*..*
IONMODE=Positive
ORGANISM=HMDB
NAME=HMDB:HMDB00549-773 Gamma-Butyrolactone M+H
PI=HMDB
DATACOLLECTOR=HMDB
SMILES=O=C1CCCO1
INCHI=InChI=1S/C4H6O2/c5-4-2-1-3-6-4/h1-3H2
INCHIAUX=N/A
PUBMED=N/A
SUBMITUSER=mwang87
TAGS=
LIBRARYQUALITY=3
SPECTRUMID=CCMSLIB00000426626
SCANS=1598
87.1 100.0 
END IONS

BEGIN IONS
PEPMASS=130.109
CHARGE=1+
MSLEVEL=2
SOURCE_INSTRUMENT=Positive-Quattro_QQQ:40eV
FILENAME=hmdb_intermediate.mgf
SEQ=*..*
IONMODE=Positive
ORGANISM=HMDB
NAME=HMDB:HMDB01921-1845 1,1-Dimethylbiguanide M+H
PI=HMDB
DATACOLLECTOR=HMDB
SMILES=CN(C)C(=N)NC(N)=N
INCHI=InChI=1S/C4H11N5/c1-9(2)4(7)8-3(5)6/h1-2H3,(H5,5,6,7,8)
INCHIAUX=N/A
PUBMED=N/A
SUBMITUSER=mwang87
TAGS=
LIBRARYQUALITY=3
SPECTRUMID=CCMSLIB00000426627
SCANS=1599
71.04 100.0 
END IONS

BEGIN IONS
PEPMASS=32.05
CHARGE=1+
MSLEVEL=2
SOURCE_INSTRUMENT=Positive-Quattro_QQQ:40eV
FILENAME=hmdb_intermediate.mgf
SEQ=*..*
IONMODE=Positive
ORGANISM=HMDB
NAME=HMDB:HMDB60291-262 Methylammonium M+H
PI=HMDB
DATACOLLECTOR=HMDB
SMILES=CN
INCHI=InChI=1S/CH5N/c1-2/h2H2,1H3
INCHIAUX=N/A
PUBMED=N/A
SUBMITUSER=mwang87
TAGS=
LIBRARYQUALITY=3
SPECTRUMID=CCMSLIB00000426628
SCANS=1600
32.0 100.0 
END IONS

BEGIN IONS
PEPMASS=109.065
CHARGE=1+
MSLEVEL=2
SOURCE_INSTRUMENT=Positive-Quattro_QQQ:40eV
FILENAME=hmdb_intermediate.mgf
SEQ=*..*
IONMODE=Positive
ORGANISM=HMDB
NAME=HMDB:HMDB01858-1731 p-Cresol M+H
PI=HMDB
DATACOLLECTOR=HMDB
SMILES=CC1=CC=C(O)C=C1
INCHI=InChI=1S/C7H8O/c1-6-2-4-7(8)5-3-6/h2-5,8H,1H3
INCHIAUX=N/A
PUBMED=N/A
SUBMITUSER=mwang87
TAGS=
LIBRARYQUALITY=3
SPECTRUMID=CCMSLIB00000426629
SCANS=1601
39.0 85.212 
64.0 89.2 
65.0 100.0 
END IONS

BEGIN IONS
PEPMASS=142.098
CHARGE=1+
MSLEVEL=2
SOURCE_INSTRUMENT=Positive-Quattro_QQQ:40eV
FILENAME=hmdb_intermediate.mgf
SEQ=*..*
IONMODE=Positive
ORGANISM=HMDB
NAME=HMDB:HMDB03431-2309 L-Histidinol M+H
PI=HMDB
DATACOLLECTOR=HMDB
SMILES=N[C@H](CO)CC1=CN=CN1
INCHI=InChI=1S/C6H11N3O/c7-5(3-10)1-6-2-8-4-9-6/h2,4-5,10H,1,3,7H2,(H,8,9)/t5-/m0/s1
INCHIAUX=N/A
PUBMED=N/A
SUBMITUSER=mwang87
TAGS=
LIBRARYQUALITY=3
SPECTRUMID=CCMSLIB00000426630
SCANS=1602
81.0 100.0 
END IONS

BEGIN IONS
PEPMASS=161.108
CHARGE=1+
MSLEVEL=2
SOURCE_INSTRUMENT=Positive-Quattro_QQQ:25eV
FILENAME=hmdb_intermediate.mgf
SEQ=*..*
IONMODE=Positive
ORGANISM=HMDB
NAME=HMDB:HMDB60064-517 Tryptamine M+H
PI=HMDB
DATACOLLECTOR=HMDB
SMILES=NCCC1=CNC2=CC=CC=C12
INCHI=InChI=1S/C10H12N2/c11-6-5-8-7-12-10-4-2-1-3-9(8)10/h1-4,7,12H,5-6,11H2
INCHIAUX=N/A
PUBMED=N/A
SUBMITUSER=mwang87
TAGS=
LIBRARYQUALITY=3
SPECTRUMID=CCMSLIB00000426631
SCANS=1603
143.643 100.0 
END IONS

BEGIN IONS
PEPMASS=310.114
CHARGE=1+
MSLEVEL=2
SOURCE_INSTRUMENT=Positive-Quattro_QQQ:40eV
FILENAME=hmdb_intermediate.mgf
SEQ=*..*
IONMODE=Positive
ORGANISM=HMDB
NAME=HMDB:HMDB00230-387 N-Acetylneuraminic acid M+H
PI=HMDB
DATACOLLECTOR=HMDB
SMILES=CC(=O)N[C@@H]1[C@@H](O)C[C@](O)(O[C@H]1[C@H](O)[C@H](O)CO)C(O)=O
INCHI=InChI=1S/C11H19NO9/c1-4(14)12-7-5(15)2-11(20,10(18)19)21-9(7)8(17)6(16)3-13/h5-9,13,15-17,20H,2-3H2,1H3,(H,12,14)(H,18,19)/t5-,6+,7+,8+,9+,11-/m0/s1
INCHIAUX=N/A
PUBMED=N/A
SUBMITUSER=mwang87
TAGS=
LIBRARYQUALITY=3
SPECTRUMID=CCMSLIB00000426632
SCANS=1604
84.048 63.421 
120.857 100.0 
END IONS

BEGIN IONS
PEPMASS=112.04
CHARGE=1+
MSLEVEL=2
SOURCE_INSTRUMENT=Positive-Quattro_QQQ:10eV
FILENAME=hmdb_intermediate.mgf
SEQ=*..*
IONMODE=Positive
ORGANISM=HMDB
NAME=HMDB:HMDB04230-2376 Pyrrole-2-carboxylic acid M+H
PI=HMDB
DATACOLLECTOR=HMDB
SMILES=OC(=O)C1=CC=CN1
INCHI=InChI=1S/C5H5NO2/c7-5(8)4-2-1-3-6-4/h1-3,6H,(H,7,8)
INCHIAUX=N/A
PUBMED=N/A
SUBMITUSER=mwang87
TAGS=
LIBRARYQUALITY=3
SPECTRUMID=CCMSLIB00000426633
SCANS=1605
68.0 100.0 
END IONS

BEGIN IONS
PEPMASS=61.0402
CHARGE=1+
MSLEVEL=2
SOURCE_INSTRUMENT=Positive-Quattro_QQQ:25eV
FILENAME=hmdb_intermediate.mgf
SEQ=*..*
IONMODE=Positive
ORGANISM=HMDB
NAME=HMDB:HMDB00294-499 Urea M+H
PI=HMDB
DATACOLLECTOR=HMDB
SMILES=NC(N)=O
INCHI=InChI=1S/CH4N2O/c2-1(3)4/h(H4,2,3,4)
INCHIAUX=N/A
PUBMED=N/A
SUBMITUSER=mwang87
TAGS=
LIBRARYQUALITY=3
SPECTRUMID=CCMSLIB00000426634
SCANS=1606
44.0 72.173 
61.0 100.0 
END IONS

BEGIN IONS
PEPMASS=154.05
CHARGE=1+
MSLEVEL=2
SOURCE_INSTRUMENT=Positive-Quattro_QQQ:40eV
FILENAME=hmdb_intermediate.mgf
SEQ=*..*
IONMODE=Positive
ORGANISM=HMDB
NAME=HMDB:HMDB01972-1916 3-Aminosalicylic acid M+H
PI=HMDB
DATACOLLECTOR=HMDB
SMILES=NC1=CC=CC(C(O)=O)=C1O
INCHI=InChI=1S/C7H7NO3/c8-5-3-1-2-4(6(5)9)7(10)11/h1-3,9H,8H2,(H,10,11)
INCHIAUX=N/A
PUBMED=N/A
SUBMITUSER=mwang87
TAGS=
LIBRARYQUALITY=3
SPECTRUMID=CCMSLIB00000426635
SCANS=1607
63.0 100.0 
80.0 69.934 
END IONS

BEGIN IONS
PEPMASS=289.217
CHARGE=1+
MSLEVEL=2
SOURCE_INSTRUMENT=Positive-Quattro_QQQ:10eV
FILENAME=hmdb_intermediate.mgf
SEQ=*..*
IONMODE=Positive
ORGANISM=HMDB
NAME=HMDB:HMDB00234-391 Testosterone M+H
PI=HMDB
DATACOLLECTOR=HMDB
SMILES=[H][C@@]12CC[C@H](O)[C@@]1(C)CC[C@@]1([H])[C@@]2([H])CCC2=CC(=O)CC[C@]12C
INCHI=InChI=1S/C19H28O2/c1-18-9-7-13(20)11-12(18)3-4-14-15-5-6-17(21)19(15,2)10-8-16(14)18/h11,14-17,21H,3-10H2,1-2H3/t14-,15-,16-,17-,18-,19-/m0/s1
INCHIAUX=N/A
PUBMED=N/A
SUBMITUSER=mwang87
TAGS=
LIBRARYQUALITY=3
SPECTRUMID=CCMSLIB00000426636
SCANS=1608
289.198 100.0 
END IONS

BEGIN IONS
PEPMASS=184.985
CHARGE=1+
MSLEVEL=2
SOURCE_INSTRUMENT=Negative-Quattro_QQQ:40eV
FILENAME=hmdb_intermediate.mgf
SEQ=*..*
IONMODE=Negative
ORGANISM=HMDB
NAME=HMDB:HMDB00807-1154 3-Phosphoglyceric acid M-H
PI=HMDB
DATACOLLECTOR=HMDB
SMILES=OC(COP(O)(O)=O)C(O)=O
INCHI=InChI=1S/C3H7O7P/c4-2(3(5)6)1-10-11(7,8)9/h2,4H,1H2,(H,5,6)(H2,7,8,9)
INCHIAUX=N/A
PUBMED=N/A
SUBMITUSER=mwang87
TAGS=
LIBRARYQUALITY=3
SPECTRUMID=CCMSLIB00000426637
SCANS=1609
79.0 100.0 
END IONS

BEGIN IONS
PEPMASS=104.071
CHARGE=1+
MSLEVEL=2
SOURCE_INSTRUMENT=Positive-Quattro_QQQ:25eV
FILENAME=hmdb_intermediate.mgf
SEQ=*..*
IONMODE=Positive
ORGANISM=HMDB
NAME=HMDB:HMDB03911-2350 3-Aminoisobutanoic acid M+H
PI=HMDB
DATACOLLECTOR=HMDB
SMILES=CC(CN)C(O)=O
INCHI=InChI=1S/C4H9NO2/c1-3(2-5)4(6)7/h3H,2,5H2,1H3,(H,6,7)
INCHIAUX=N/A
PUBMED=N/A
SUBMITUSER=mwang87
TAGS=
LIBRARYQUALITY=3
SPECTRUMID=CCMSLIB00000426638
SCANS=1610
86.0 55.023 
104.0 100.0 
END IONS

BEGIN IONS
PEPMASS=148.076
CHARGE=1+
MSLEVEL=2
SOURCE_INSTRUMENT=Positive-Quattro_QQQ:10eV
FILENAME=hmdb_intermediate.mgf
SEQ=*..*
IONMODE=Positive
ORGANISM=HMDB
NAME=HMDB:HMDB05785-2442 Indole-3-carbinol M+H
PI=HMDB
DATACOLLECTOR=HMDB
SMILES=OCC1=CNC2=CC=CC=C12
INCHI=InChI=1S/C9H9NO/c11-6-7-5-10-9-4-2-1-3-8(7)9/h1-5,10-11H,6H2
INCHIAUX=N/A
PUBMED=N/A
SUBMITUSER=mwang87
TAGS=
LIBRARYQUALITY=3
SPECTRUMID=CCMSLIB00000426639
SCANS=1611
90.0 66.466 
119.0 100.0 
120.0 77.091 
147.0 82.9 
148.0 67.687 
END IONS

BEGIN IONS
PEPMASS=210.077
CHARGE=1+
MSLEVEL=2
SOURCE_INSTRUMENT=Positive-Quattro_QQQ:10eV
FILENAME=hmdb_intermediate.mgf
SEQ=*..*
IONMODE=Positive
ORGANISM=HMDB
NAME=HMDB:HMDB00735-1041 Hydroxyphenylacetylglycine M+H
PI=HMDB
DATACOLLECTOR=HMDB
SMILES=OC(=O)CNC(=O)CC1=CC=C(O)C=C1
INCHI=InChI=1S/C10H11NO4/c12-8-3-1-7(2-4-8)5-9(13)11-6-10(14)15/h1-4,12H,5-6H2,(H,11,13)(H,14,15)
INCHIAUX=N/A
PUBMED=N/A
SUBMITUSER=mwang87
TAGS=
LIBRARYQUALITY=3
SPECTRUMID=CCMSLIB00000426640
SCANS=1612
75.0 100.0 
106.0 66.341 
END IONS

BEGIN IONS
PEPMASS=196.061
CHARGE=1+
MSLEVEL=2
SOURCE_INSTRUMENT=Positive-Quattro_QQQ:40eV
FILENAME=hmdb_intermediate.mgf
SEQ=*..*
IONMODE=Positive
ORGANISM=HMDB
NAME=HMDB:HMDB00840-1186 Salicyluric acid M+H
PI=HMDB
DATACOLLECTOR=HMDB
SMILES=OC(=O)CNC(=O)C1=CC=CC=C1O
INCHI=InChI=1S/C9H9NO4/c11-7-4-2-1-3-6(7)9(14)10-5-8(12)13/h1-4,11H,5H2,(H,10,14)(H,12,13)
INCHIAUX=N/A
PUBMED=N/A
SUBMITUSER=mwang87
TAGS=
LIBRARYQUALITY=3
SPECTRUMID=CCMSLIB00000426641
SCANS=1613
65.149 100.0 
93.013 55.108 
120.893 51.075 
END IONS

BEGIN IONS
PEPMASS=183.066
CHARGE=1+
MSLEVEL=2
SOURCE_INSTRUMENT=Negative-Quattro_QQQ:40eV
FILENAME=hmdb_intermediate.mgf
SEQ=*..*
IONMODE=Negative
ORGANISM=HMDB
NAME=HMDB:HMDB01490-1609 Vanylglycol M-H
PI=HMDB
DATACOLLECTOR=HMDB
SMILES=COC1=CC(=CC=C1O)C(O)CO
INCHI=InChI=1S/C9H12O4/c1-13-9-4-6(8(12)5-10)2-3-7(9)11/h2-4,8,10-12H,5H2,1H3
INCHIAUX=N/A
PUBMED=N/A
SUBMITUSER=mwang87
TAGS=
LIBRARYQUALITY=3
SPECTRUMID=CCMSLIB00000426642
SCANS=1614
93.0 100.0 
121.0 73.377 
END IONS

BEGIN IONS
PEPMASS=143.107
CHARGE=1+
MSLEVEL=2
SOURCE_INSTRUMENT=Negative-Quattro_QQQ:10eV
FILENAME=hmdb_intermediate.mgf
SEQ=*..*
IONMODE=Negative
ORGANISM=HMDB
NAME=HMDB:HMDB00482-698 Caprylic acid M-H
PI=HMDB
DATACOLLECTOR=HMDB
SMILES=CCCCCCCC(O)=O
INCHI=InChI=1S/C8H16O2/c1-2-3-4-5-6-7-8(9)10/h2-7H2,1H3,(H,9,10)
INCHIAUX=N/A
PUBMED=N/A
SUBMITUSER=mwang87
TAGS=
LIBRARYQUALITY=3
SPECTRUMID=CCMSLIB00000426643
SCANS=1615
143.232 100.0 
END IONS

BEGIN IONS
PEPMASS=260.186
CHARGE=1+
MSLEVEL=2
SOURCE_INSTRUMENT=Positive-Quattro_QQQ:25eV
FILENAME=hmdb_intermediate.mgf
SEQ=*..*
IONMODE=Positive
ORGANISM=HMDB
NAME=HMDB:HMDB00756-1087 L-Hexanoylcarnitine M+H
PI=HMDB
DATACOLLECTOR=HMDB
SMILES=CCCCCC(=O)O[C@H](CC([O-])=O)C[N+](C)(C)C
INCHI=InChI=1S/C13H25NO4/c1-5-6-7-8-13(17)18-11(9-12(15)16)10-14(2,3)4/h11H,5-10H2,1-4H3/t11-/m1/s1
INCHIAUX=N/A
PUBMED=N/A
SUBMITUSER=mwang87
TAGS=
LIBRARYQUALITY=3
SPECTRUMID=CCMSLIB00000426644
SCANS=1616
85.193 100.0 
END IONS

BEGIN IONS
PEPMASS=222.098
CHARGE=1+
MSLEVEL=2
SOURCE_INSTRUMENT=Positive-Quattro_QQQ:10eV
FILENAME=hmdb_intermediate.mgf
SEQ=*..*
IONMODE=Positive
ORGANISM=HMDB
NAME=HMDB:HMDB00803-1144 Beta-N-Acetylglucosamine M+H
PI=HMDB
DATACOLLECTOR=HMDB
SMILES=CC(=O)N[C@H]1[C@H](O)O[C@H](CO)[C@@H](O)[C@@H]1O
INCHI=InChI=1S/C8H15NO6/c1-3(11)9-5-7(13)6(12)4(2-10)15-8(5)14/h4-8,10,12-14H,2H2,1H3,(H,9,11)/t4-,5-,6-,7-,8-/m1/s1
INCHIAUX=N/A
PUBMED=N/A
SUBMITUSER=mwang87
TAGS=
LIBRARYQUALITY=3
SPECTRUMID=CCMSLIB00000426645
SCANS=1617
137.995 54.592 
203.968 100.0 
END IONS

BEGIN IONS
PEPMASS=106.087
CHARGE=1+
MSLEVEL=2
SOURCE_INSTRUMENT=Positive-Quattro_QQQ:10eV
FILENAME=hmdb_intermediate.mgf
SEQ=*..*
IONMODE=Positive
ORGANISM=HMDB
NAME=HMDB:HMDB04437-2385 Diethanolamine M+H
PI=HMDB
DATACOLLECTOR=HMDB
SMILES=OCCNCCO
INCHI=InChI=1S/C4H11NO2/c6-3-1-5-2-4-7/h5-7H,1-4H2
INCHIAUX=N/A
PUBMED=N/A
SUBMITUSER=mwang87
TAGS=
LIBRARYQUALITY=3
SPECTRUMID=CCMSLIB00000426646
SCANS=1618
88.0 75.982 
106.0 100.0 
END IONS

BEGIN IONS
PEPMASS=119.071
CHARGE=1+
MSLEVEL=2
SOURCE_INSTRUMENT=Positive-Quattro_QQQ:25eV
FILENAME=hmdb_intermediate.mgf
SEQ=*..*
IONMODE=Positive
ORGANISM=HMDB
NAME=HMDB:HMDB00351-565 3-Hydroxy-2-methyl-[R-(R,S)]-butanoic acid M+H
PI=HMDB
DATACOLLECTOR=HMDB
SMILES=C[C@@H](O)[C@H](C)C(O)=O
INCHI=InChI=1S/C5H10O3/c1-3(4(2)6)5(7)8/h3-4,6H,1-2H3,(H,7,8)/t3-,4+/m0/s1
INCHIAUX=N/A
PUBMED=N/A
SUBMITUSER=mwang87
TAGS=
LIBRARYQUALITY=3
SPECTRUMID=CCMSLIB00000426647
SCANS=1619
45.0 93.902 
55.0 100.0 
63.0 67.349 
END IONS

BEGIN IONS
PEPMASS=123.056
CHARGE=1+
MSLEVEL=2
SOURCE_INSTRUMENT=Positive-Quattro_QQQ:40eV
FILENAME=hmdb_intermediate.mgf
SEQ=*..*
IONMODE=Positive
ORGANISM=HMDB
NAME=HMDB:HMDB01406-1561 Niacinamide M+H
PI=HMDB
DATACOLLECTOR=HMDB
SMILES=NC(=O)C1=CN=CC=C1
INCHI=InChI=1S/C6H6N2O/c7-6(9)5-2-1-3-8-4-5/h1-4H,(H2,7,9)
INCHIAUX=N/A
PUBMED=N/A
SUBMITUSER=mwang87
TAGS=
LIBRARYQUALITY=3
SPECTRUMID=CCMSLIB00000426648
SCANS=1620
80.072 100.0 
END IONS

BEGIN IONS
PEPMASS=32.05
CHARGE=1+
MSLEVEL=2
SOURCE_INSTRUMENT=Positive-Quattro_QQQ:10eV
FILENAME=hmdb_intermediate.mgf
SEQ=*..*
IONMODE=Positive
ORGANISM=HMDB
NAME=HMDB:HMDB00164-260 Methylamine M+H
PI=HMDB
DATACOLLECTOR=HMDB
SMILES=CN
INCHI=InChI=1S/CH5N/c1-2/h2H2,1H3
INCHIAUX=N/A
PUBMED=N/A
SUBMITUSER=mwang87
TAGS=
LIBRARYQUALITY=3
SPECTRUMID=CCMSLIB00000426649
SCANS=1621
32.0 100.0 
END IONS

BEGIN IONS
PEPMASS=112.087
CHARGE=1+
MSLEVEL=2
SOURCE_INSTRUMENT=Positive-Quattro_QQQ:40eV
FILENAME=hmdb_intermediate.mgf
SEQ=*..*
IONMODE=Positive
ORGANISM=HMDB
NAME=HMDB:HMDB60263-1225 Histamium M+H
PI=HMDB
DATACOLLECTOR=HMDB
SMILES=NCCC1=CN=CN1
INCHI=InChI=1S/C5H9N3/c6-2-1-5-3-7-4-8-5/h3-4H,1-2,6H2,(H,7,8)
INCHIAUX=N/A
PUBMED=N/A
SUBMITUSER=mwang87
TAGS=
LIBRARYQUALITY=3
SPECTRUMID=CCMSLIB00000426650
SCANS=1622
41.316 100.0 
54.229 51.736 
67.854 50.0 
81.111 68.403 
END IONS

BEGIN IONS
PEPMASS=732.615
CHARGE=1+
MSLEVEL=2
SOURCE_INSTRUMENT=Positive-Quattro_QQQ:10eV
FILENAME=hmdb_intermediate.mgf
SEQ=*..*
IONMODE=Positive
ORGANISM=HMDB
NAME=HMDB:HMDB01348-1528 SM(d18:1/18:0) M+H
PI=HMDB
DATACOLLECTOR=HMDB
SMILES=CCCCCCCCCCCCCCCCCC(=O)N[C@@]([H])(COP(O)(=O)OCC[N+](C)(C)C)[C@]([H])(O)\C=C\CCCCCCCCCCCCC
INCHI=InChI=1S/C41H83N2O6P/c1-6-8-10-12-14-16-18-20-21-23-25-27-29-31-33-35-41(45)42-39(38-49-50(46,47)48-37-36-43(3,4)5)40(44)34-32-30-28-26-24-22-19-17-15-13-11-9-7-2/h32,34,39-40,44H,6-31,33,35-38H2,1-5H3,(H-,42,45,46,47)/p+1/b34-32+/t39-,40+/m0/s1
INCHIAUX=N/A
PUBMED=N/A
SUBMITUSER=mwang87
TAGS=
LIBRARYQUALITY=3
SPECTRUMID=CCMSLIB00000426651
SCANS=1623
732.0 100.0 
733.0 67.823 
END IONS

BEGIN IONS
PEPMASS=179.071
CHARGE=1+
MSLEVEL=2
SOURCE_INSTRUMENT=Positive-Quattro_QQQ:40eV
FILENAME=hmdb_intermediate.mgf
SEQ=*..*
IONMODE=Positive
ORGANISM=HMDB
NAME=HMDB:HMDB02040-1964 4-Methoxycinnamic acid M+H
PI=HMDB
DATACOLLECTOR=HMDB
SMILES=COC1=CC=C(\C=C\C(O)=O)C=C1
INCHI=InChI=1S/C10H10O3/c1-13-9-5-2-8(3-6-9)4-7-10(11)12/h2-7H,1H3,(H,11,12)/b7-4+
INCHIAUX=N/A
PUBMED=N/A
SUBMITUSER=mwang87
TAGS=
LIBRARYQUALITY=3
SPECTRUMID=CCMSLIB00000426652
SCANS=1624
77.0 100.0 
89.0 82.14 
90.0 88.685 
END IONS

BEGIN IONS
PEPMASS=505.177
CHARGE=1+
MSLEVEL=2
SOURCE_INSTRUMENT=Positive-Quattro_QQQ:10eV
FILENAME=hmdb_intermediate.mgf
SEQ=*..*
IONMODE=Positive
ORGANISM=HMDB
NAME=HMDB:HMDB01262-1494 Maltotriose M+H
PI=HMDB
DATACOLLECTOR=HMDB
SMILES=OC[C@H]1O[C@H](O[C@H]2[C@H](O)[C@@H](O)[C@@H](O[C@H]3[C@H](O)[C@@H](O)C(O)O[C@@H]3CO)O[C@@H]2CO)[C@H](O)[C@@H](O)[C@@H]1O
INCHI=InChI=1S/C18H32O16/c19-1-4-7(22)8(23)12(27)17(31-4)34-15-6(3-21)32-18(13(28)10(15)25)33-14-5(2-20)30-16(29)11(26)9(14)24/h4-29H,1-3H2/t4-,5-,6-,7-,8+,9-,10-,11-,12-,13-,14-,15-,16?,17-,18-/m1/s1
INCHIAUX=N/A
PUBMED=N/A
SUBMITUSER=mwang87
TAGS=
LIBRARYQUALITY=3
SPECTRUMID=CCMSLIB00000426653
SCANS=1625
325.0 100.0 
END IONS

BEGIN IONS
PEPMASS=307.978
CHARGE=1+
MSLEVEL=2
SOURCE_INSTRUMENT=Positive-Quattro_QQQ:10eV
FILENAME=hmdb_intermediate.mgf
SEQ=*..*
IONMODE=Positive
ORGANISM=HMDB
NAME=HMDB:HMDB00021-36 Iodotyrosine M+H
PI=HMDB
DATACOLLECTOR=HMDB
SMILES=N[C@@H](CC1=CC=C(O)C(I)=C1)C(O)=O
INCHI=InChI=1S/C9H10INO3/c10-6-3-5(1-2-8(6)12)4-7(11)9(13)14/h1-3,7,12H,4,11H2,(H,13,14)/t7-/m0/s1
INCHIAUX=N/A
PUBMED=N/A
SUBMITUSER=mwang87
TAGS=
LIBRARYQUALITY=3
SPECTRUMID=CCMSLIB00000426654
SCANS=1626
261.86 100.0 
290.859 86.17 
307.902 93.617 
END IONS

BEGIN IONS
PEPMASS=777.695
CHARGE=1+
MSLEVEL=2
SOURCE_INSTRUMENT=Positive-Quattro_QQQ:40eV
FILENAME=hmdb_intermediate.mgf
SEQ=*..*
IONMODE=Positive
ORGANISM=HMDB
NAME=HMDB:HMDB00248-426 Thyroxine M+H
PI=HMDB
DATACOLLECTOR=HMDB
SMILES=N[C@@H](CC1=CC(I)=C(OC2=CC(I)=C(O)C(I)=C2)C(I)=C1)C(O)=O
INCHI=InChI=1S/C15H11I4NO4/c16-8-4-7(5-9(17)13(8)21)24-14-10(18)1-6(2-11(14)19)3-12(20)15(22)23/h1-2,4-5,12,21H,3,20H2,(H,22,23)/t12-/m0/s1
INCHIAUX=N/A
PUBMED=N/A
SUBMITUSER=mwang87
TAGS=
LIBRARYQUALITY=3
SPECTRUMID=CCMSLIB00000426655
SCANS=1627
72.809 100.0 
468.049 58.548 
470.063 66.837 
551.497 60.625 
559.301 75.125 
586.362 56.471 
694.862 66.837 
END IONS

BEGIN IONS
PEPMASS=101.024
CHARGE=1+
MSLEVEL=2
SOURCE_INSTRUMENT=Negative-Quattro_QQQ:10eV
FILENAME=hmdb_intermediate.mgf
SEQ=*..*
IONMODE=Negative
ORGANISM=HMDB
NAME=HMDB:HMDB00005-7 2-Ketobutyric acid M-H
PI=HMDB
DATACOLLECTOR=HMDB
SMILES=CCC(=O)C(O)=O
INCHI=InChI=1S/C4H6O3/c1-2-3(5)4(6)7/h2H2,1H3,(H,6,7)
INCHIAUX=N/A
PUBMED=N/A
SUBMITUSER=mwang87
TAGS=
LIBRARYQUALITY=3
SPECTRUMID=CCMSLIB00000426656
SCANS=1628
57.516 100.0 
101.26 69.485 
END IONS

BEGIN IONS
PEPMASS=153.076
CHARGE=1+
MSLEVEL=2
SOURCE_INSTRUMENT=Positive-Quattro_QQQ:25eV
FILENAME=hmdb_intermediate.mgf
SEQ=*..*
IONMODE=Positive
ORGANISM=HMDB
NAME=HMDB:HMDB00508-726 Ribitol M+H
PI=HMDB
DATACOLLECTOR=HMDB
SMILES=OC[C@H](O)[C@H](O)[C@H](O)CO
INCHI=InChI=1S/C5H12O5/c6-1-3(8)5(10)4(9)2-7/h3-10H,1-2H2/t3-,4+,5-
INCHIAUX=N/A
PUBMED=N/A
SUBMITUSER=mwang87
TAGS=
LIBRARYQUALITY=3
SPECTRUMID=CCMSLIB00000426657
SCANS=1629
43.341 90.769 
57.23 71.154 
69.152 100.0 
END IONS

BEGIN IONS
PEPMASS=137.024
CHARGE=1+
MSLEVEL=2
SOURCE_INSTRUMENT=Negative-Quattro_QQQ:25eV
FILENAME=hmdb_intermediate.mgf
SEQ=*..*
IONMODE=Negative
ORGANISM=HMDB
NAME=HMDB:HMDB00500-717 4-Hydroxybenzoic acid M-H
PI=HMDB
DATACOLLECTOR=HMDB
SMILES=OC(=O)C1=CC=C(O)C=C1
INCHI=InChI=1S/C7H6O3/c8-6-3-1-5(2-4-6)7(9)10/h1-4,8H,(H,9,10)
INCHIAUX=N/A
PUBMED=N/A
SUBMITUSER=mwang87
TAGS=
LIBRARYQUALITY=3
SPECTRUMID=CCMSLIB00000426658
SCANS=1630
93.011 100.0 
END IONS

BEGIN IONS
PEPMASS=308.065
CHARGE=1+
MSLEVEL=2
SOURCE_INSTRUMENT=Positive-Quattro_QQQ:40eV
FILENAME=hmdb_intermediate.mgf
SEQ=*..*
IONMODE=Positive
ORGANISM=HMDB
NAME=HMDB:HMDB01202-1465 dCMP M+H
PI=HMDB
DATACOLLECTOR=HMDB
SMILES=NC1=NC(=O)N(C=C1)[C@H]1C[C@H](O)[C@@H](COP(O)(O)=O)O1
INCHI=InChI=1S/C9H14N3O7P/c10-7-1-2-12(9(14)11-7)8-3-5(13)6(19-8)4-18-20(15,16)17/h1-2,5-6,8,13H,3-4H2,(H2,10,11,14)(H2,15,16,17)/t5-,6+,8+/m0/s1
INCHIAUX=N/A
PUBMED=N/A
SUBMITUSER=mwang87
TAGS=
LIBRARYQUALITY=3
SPECTRUMID=CCMSLIB00000426659
SCANS=1631
112.0 100.0 
END IONS

BEGIN IONS
PEPMASS=216.043
CHARGE=1+
MSLEVEL=2
SOURCE_INSTRUMENT=Positive-Quattro_QQQ:25eV
FILENAME=hmdb_intermediate.mgf
SEQ=*..*
IONMODE=Positive
ORGANISM=HMDB
NAME=HMDB:HMDB01885-1784 3-Chlorotyrosine M+H
PI=HMDB
DATACOLLECTOR=HMDB
SMILES=NC(CC1=CC(Cl)=C(O)C=C1)C(O)=O
INCHI=InChI=1S/C9H10ClNO3/c10-6-3-5(1-2-8(6)12)4-7(11)9(13)14/h1-3,7,12H,4,11H2,(H,13,14)
INCHIAUX=N/A
PUBMED=N/A
SUBMITUSER=mwang87
TAGS=
LIBRARYQUALITY=3
SPECTRUMID=CCMSLIB00000426660
SCANS=1632
170.1 100.0 
END IONS

BEGIN IONS
PEPMASS=145.014
CHARGE=1+
MSLEVEL=2
SOURCE_INSTRUMENT=Negative-Quattro_QQQ:25eV
FILENAME=hmdb_intermediate.mgf
SEQ=*..*
IONMODE=Negative
ORGANISM=HMDB
NAME=HMDB:HMDB00208-338 Oxoglutaric acid M-H
PI=HMDB
DATACOLLECTOR=HMDB
SMILES=OC(=O)CCC(=O)C(O)=O
INCHI=InChI=1S/C5H6O5/c6-3(5(9)10)1-2-4(7)8/h1-2H2,(H,7,8)(H,9,10)
INCHIAUX=N/A
PUBMED=N/A
SUBMITUSER=mwang87
TAGS=
LIBRARYQUALITY=3
SPECTRUMID=CCMSLIB00000426661
SCANS=1633
57.143 100.0 
END IONS

BEGIN IONS
PEPMASS=132.102
CHARGE=1+
MSLEVEL=2
SOURCE_INSTRUMENT=Positive-Quattro_QQQ:25eV
FILENAME=hmdb_intermediate.mgf
SEQ=*..*
IONMODE=Positive
ORGANISM=HMDB
NAME=HMDB:HMDB00557-780 L-Alloisoleucine M+H
PI=HMDB
DATACOLLECTOR=HMDB
SMILES=CC[C@@H](C)[C@H](N)C(O)=O
INCHI=InChI=1S/C6H13NO2/c1-3-4(2)5(7)6(8)9/h4-5H,3,7H2,1-2H3,(H,8,9)/t4-,5+/m1/s1
INCHIAUX=N/A
PUBMED=N/A
SUBMITUSER=mwang87
TAGS=
LIBRARYQUALITY=3
SPECTRUMID=CCMSLIB00000426662
SCANS=1634
41.368 65.556 
44.288 68.889 
69.194 100.0 
86.12 92.222 
END IONS

BEGIN IONS
PEPMASS=133.098
CHARGE=1+
MSLEVEL=2
SOURCE_INSTRUMENT=Positive-Quattro_QQQ:40eV
FILENAME=hmdb_intermediate.mgf
SEQ=*..*
IONMODE=Positive
ORGANISM=HMDB
NAME=HMDB:HMDB00214-351 Ornithine M+H
PI=HMDB
DATACOLLECTOR=HMDB
SMILES=NCCC[C@H](N)C(O)=O
INCHI=InChI=1S/C5H12N2O2/c6-3-1-2-4(7)5(8)9/h4H,1-3,6-7H2,(H,8,9)/t4-/m0/s1
INCHIAUX=N/A
PUBMED=N/A
SUBMITUSER=mwang87
TAGS=
LIBRARYQUALITY=3
SPECTRUMID=CCMSLIB00000426663
SCANS=1635
70.11 100.0 
END IONS

BEGIN IONS
PEPMASS=149.06
CHARGE=1+
MSLEVEL=2
SOURCE_INSTRUMENT=Positive-Quattro_QQQ:40eV
FILENAME=hmdb_intermediate.mgf
SEQ=*..*
IONMODE=Positive
ORGANISM=HMDB
NAME=HMDB:HMDB00930-1326 trans-Cinnamic acid M+H
PI=HMDB
DATACOLLECTOR=HMDB
SMILES=OC(=O)\C=C\C1=CC=CC=C1
INCHI=InChI=1S/C9H8O2/c10-9(11)7-6-8-4-2-1-3-5-8/h1-7H,(H,10,11)/b7-6+
INCHIAUX=N/A
PUBMED=N/A
SUBMITUSER=mwang87
TAGS=
LIBRARYQUALITY=3
SPECTRUMID=CCMSLIB00000426664
SCANS=1636
102.0 100.0 
END IONS

BEGIN IONS
PEPMASS=195.066
CHARGE=1+
MSLEVEL=2
SOURCE_INSTRUMENT=Positive-Quattro_QQQ:25eV
FILENAME=hmdb_intermediate.mgf
SEQ=*..*
IONMODE=Positive
ORGANISM=HMDB
NAME=HMDB:HMDB00954-1349 trans-Ferulic acid M+H
PI=HMDB
DATACOLLECTOR=HMDB
SMILES=COC1=C(O)C=CC(\C=C\C(O)=O)=C1
INCHI=InChI=1S/C10H10O4/c1-14-9-6-7(2-4-8(9)11)3-5-10(12)13/h2-6,11H,1H3,(H,12,13)/b5-3+
INCHIAUX=N/A
PUBMED=N/A
SUBMITUSER=mwang87
TAGS=
LIBRARYQUALITY=3
SPECTRUMID=CCMSLIB00000426665
SCANS=1637
88.0 99.01 
89.0 55.53 
116.0 100.0 
END IONS

BEGIN IONS
PEPMASS=212.044
CHARGE=1+
MSLEVEL=2
SOURCE_INSTRUMENT=Positive-Quattro_QQQ:10eV
FILENAME=hmdb_intermediate.mgf
SEQ=*..*
IONMODE=Positive
ORGANISM=HMDB
NAME=HMDB:HMDB01511-1616 Phosphocreatine M+H
PI=HMDB
DATACOLLECTOR=HMDB
SMILES=CN(CC(O)=O)C(=N)NP(O)(O)=O
INCHI=InChI=1S/C4H10N3O5P/c1-7(2-3(8)9)4(5)6-13(10,11)12/h2H2,1H3,(H,8,9)(H4,5,6,10,11,12)
INCHIAUX=N/A
PUBMED=N/A
SUBMITUSER=mwang87
TAGS=
LIBRARYQUALITY=3
SPECTRUMID=CCMSLIB00000426666
SCANS=1638
140.0 60.551 
211.0 100.0 
END IONS

BEGIN IONS
PEPMASS=183.087
CHARGE=1+
MSLEVEL=2
SOURCE_INSTRUMENT=Positive-Quattro_QQQ:40eV
FILENAME=hmdb_intermediate.mgf
SEQ=*..*
IONMODE=Positive
ORGANISM=HMDB
NAME=HMDB:HMDB00247-423 Sorbitol M+H
PI=HMDB
DATACOLLECTOR=HMDB
SMILES=OC[C@H](O)[C@@H](O)[C@H](O)[C@H](O)CO
INCHI=InChI=1S/C6H14O6/c7-1-3(9)5(11)6(12)4(10)2-8/h3-12H,1-2H2/t3-,4+,5-,6-/m1/s1
INCHIAUX=N/A
PUBMED=N/A
SUBMITUSER=mwang87
TAGS=
LIBRARYQUALITY=3
SPECTRUMID=CCMSLIB00000426667
SCANS=1639
43.307 100.0 
57.196 54.198 
61.169 54.962 
69.133 67.176 
END IONS

BEGIN IONS
PEPMASS=291.232
CHARGE=1+
MSLEVEL=2
SOURCE_INSTRUMENT=Positive-Quattro_QQQ:25eV
FILENAME=hmdb_intermediate.mgf
SEQ=*..*
IONMODE=Positive
ORGANISM=HMDB
NAME=HMDB:HMDB00490-708 Etiocholanolone M+H
PI=HMDB
DATACOLLECTOR=HMDB
SMILES=[H][C@@]12CCC(=O)[C@@]1(C)CC[C@@]1([H])[C@@]2([H])CC[C@]2([H])C[C@H](O)CC[C@]12C
INCHI=InChI=1S/C19H30O2/c1-18-9-7-13(20)11-12(18)3-4-14-15-5-6-17(21)19(15,2)10-8-16(14)18/h12-16,20H,3-11H2,1-2H3/t12-,13-,14+,15+,16+,18+,19+/m1/s1
INCHIAUX=N/A
PUBMED=N/A
SUBMITUSER=mwang87
TAGS=
LIBRARYQUALITY=3
SPECTRUMID=CCMSLIB00000426668
SCANS=1640
147.512 100.0 
159.501 92.851 
175.199 72.35 
188.92 99.764 
200.416 68.064 
END IONS

BEGIN IONS
PEPMASS=189.135
CHARGE=1+
MSLEVEL=2
SOURCE_INSTRUMENT=Positive-Quattro_QQQ:25eV
FILENAME=hmdb_intermediate.mgf
SEQ=*..*
IONMODE=Positive
ORGANISM=HMDB
NAME=HMDB:HMDB00670-922 Homo-L-arginine M+H
PI=HMDB
DATACOLLECTOR=HMDB
SMILES=N[C@@H](CCCCNC(N)=N)C(O)=O
INCHI=InChI=1S/C7H16N4O2/c8-5(6(12)13)3-1-2-4-11-7(9)10/h5H,1-4,8H2,(H,12,13)(H4,9,10,11)/t5-/m0/s1
INCHIAUX=N/A
PUBMED=N/A
SUBMITUSER=mwang87
TAGS=
LIBRARYQUALITY=3
SPECTRUMID=CCMSLIB00000426669
SCANS=1641
84.132 100.0 
END IONS

BEGIN IONS
PEPMASS=115.076
CHARGE=1+
MSLEVEL=2
SOURCE_INSTRUMENT=Positive-Quattro_QQQ:40eV
FILENAME=hmdb_intermediate.mgf
SEQ=*..*
IONMODE=Positive
ORGANISM=HMDB
NAME=HMDB:HMDB03843-2348 Gamma-Caprolactone M+H
PI=HMDB
DATACOLLECTOR=HMDB
SMILES=CCC1CCC(=O)O1
INCHI=InChI=1S/C6H10O2/c1-2-5-3-4-6(7)8-5/h5H,2-4H2,1H3
INCHIAUX=N/A
PUBMED=N/A
SUBMITUSER=mwang87
TAGS=
LIBRARYQUALITY=3
SPECTRUMID=CCMSLIB00000426670
SCANS=1642
43.31 100.0 
END IONS

BEGIN IONS
PEPMASS=104.071
CHARGE=1+
MSLEVEL=2
SOURCE_INSTRUMENT=Positive-Quattro_QQQ:25eV
FILENAME=hmdb_intermediate.mgf
SEQ=*..*
IONMODE=Positive
ORGANISM=HMDB
NAME=HMDB:HMDB00112-163 Gamma-Aminobutyric acid M+H
PI=HMDB
DATACOLLECTOR=HMDB
SMILES=NCCCC(O)=O
INCHI=InChI=1S/C4H9NO2/c5-3-1-2-4(6)7/h1-3,5H2,(H,6,7)
INCHIAUX=N/A
PUBMED=N/A
SUBMITUSER=mwang87
TAGS=
LIBRARYQUALITY=3
SPECTRUMID=CCMSLIB00000426671
SCANS=1643
45.258 100.0 
END IONS

BEGIN IONS
PEPMASS=154.073
CHARGE=1+
MSLEVEL=2
SOURCE_INSTRUMENT=Positive-Quattro_QQQ:40eV
FILENAME=hmdb_intermediate.mgf
SEQ=*..*
IONMODE=Positive
ORGANISM=HMDB
NAME=HMDB:HMDB04816-2414 FAPy-adenine M+H
PI=HMDB
DATACOLLECTOR=HMDB
SMILES=NC1=NC=NC(N)=C1NC=O
INCHI=InChI=1S/C5H7N5O/c6-4-3(10-2-11)5(7)9-1-8-4/h1-2H,(H,10,11)(H4,6,7,8,9)
INCHIAUX=N/A
PUBMED=N/A
SUBMITUSER=mwang87
TAGS=
LIBRARYQUALITY=3
SPECTRUMID=CCMSLIB00000426672
SCANS=1644
71.0 75.844 
82.0 100.0 
END IONS

BEGIN IONS
PEPMASS=190.087
CHARGE=1+
MSLEVEL=2
SOURCE_INSTRUMENT=Positive-Quattro_QQQ:10eV
FILENAME=hmdb_intermediate.mgf
SEQ=*..*
IONMODE=Positive
ORGANISM=HMDB
NAME=HMDB:HMDB02302-2049 3-Indolepropionic acid M+H
PI=HMDB
DATACOLLECTOR=HMDB
SMILES=OC(=O)CCC1=CNC2=CC=CC=C12
INCHI=InChI=1S/C11H11NO2/c13-11(14)6-5-8-7-12-10-4-2-1-3-9(8)10/h1-4,7,12H,5-6H2,(H,13,14)
INCHIAUX=N/A
PUBMED=N/A
SUBMITUSER=mwang87
TAGS=
LIBRARYQUALITY=3
SPECTRUMID=CCMSLIB00000426673
SCANS=1645
129.894 100.0 
END IONS

BEGIN IONS
PEPMASS=149.045
CHARGE=1+
MSLEVEL=2
SOURCE_INSTRUMENT=Positive-Quattro_QQQ:40eV
FILENAME=hmdb_intermediate.mgf
SEQ=*..*
IONMODE=Positive
ORGANISM=HMDB
NAME=HMDB:HMDB01900-1818 Ribonolactone M+H
PI=HMDB
DATACOLLECTOR=HMDB
SMILES=OC[C@H]1OC(=O)[C@H](O)[C@@H]1O
INCHI=InChI=1S/C5H8O5/c6-1-2-3(7)4(8)5(9)10-2/h2-4,6-8H,1H2/t2-,3-,4-/m1/s1
INCHIAUX=N/A
PUBMED=N/A
SUBMITUSER=mwang87
TAGS=
LIBRARYQUALITY=3
SPECTRUMID=CCMSLIB00000426674
SCANS=1646
77.243 100.0 
END IONS

BEGIN IONS
PEPMASS=166.073
CHARGE=1+
MSLEVEL=2
SOURCE_INSTRUMENT=Positive-Quattro_QQQ:40eV
FILENAME=hmdb_intermediate.mgf
SEQ=*..*
IONMODE=Positive
ORGANISM=HMDB
NAME=HMDB:HMDB03282-2229 1-Methylguanine M+H
PI=HMDB
DATACOLLECTOR=HMDB
SMILES=CN1C(N)=NC2=C(NC=N2)C1=O
INCHI=InChI=1S/C6H7N5O/c1-11-5(12)3-4(9-2-8-3)10-6(11)7/h2H,1H3,(H2,7,10)(H,8,9)
INCHIAUX=N/A
PUBMED=N/A
SUBMITUSER=mwang87
TAGS=
LIBRARYQUALITY=3
SPECTRUMID=CCMSLIB00000426675
SCANS=1647
67.133 100.0 
79.929 98.506 
END IONS

BEGIN IONS
PEPMASS=289.217
CHARGE=1+
MSLEVEL=2
SOURCE_INSTRUMENT=Positive-Quattro_QQQ:40eV
FILENAME=hmdb_intermediate.mgf
SEQ=*..*
IONMODE=Positive
ORGANISM=HMDB
NAME=HMDB:HMDB00234-393 Testosterone M+H
PI=HMDB
DATACOLLECTOR=HMDB
SMILES=[H][C@@]12CC[C@H](O)[C@@]1(C)CC[C@@]1([H])[C@@]2([H])CCC2=CC(=O)CC[C@]12C
INCHI=InChI=1S/C19H28O2/c1-18-9-7-13(20)11-12(18)3-4-14-15-5-6-17(21)19(15,2)10-8-16(14)18/h11,14-17,21H,3-10H2,1-2H3/t14-,15-,16-,17-,18-,19-/m0/s1
INCHIAUX=N/A
PUBMED=N/A
SUBMITUSER=mwang87
TAGS=
LIBRARYQUALITY=3
SPECTRUMID=CCMSLIB00000426676
SCANS=1648
97.081 100.0 
109.042 86.061 
END IONS

BEGIN IONS
PEPMASS=185.045
CHARGE=1+
MSLEVEL=2
SOURCE_INSTRUMENT=Positive-Quattro_QQQ:40eV
FILENAME=hmdb_intermediate.mgf
SEQ=*..*
IONMODE=Positive
ORGANISM=HMDB
NAME=HMDB:HMDB01866-1749 3,4-Dihydroxymandelic acid M+H
PI=HMDB
DATACOLLECTOR=HMDB
SMILES=OC(C(O)=O)C1=CC=C(O)C(O)=C1
INCHI=InChI=1S/C8H8O5/c9-5-2-1-4(3-6(5)10)7(11)8(12)13/h1-3,7,9-11H,(H,12,13)
INCHIAUX=N/A
PUBMED=N/A
SUBMITUSER=mwang87
TAGS=
LIBRARYQUALITY=3
SPECTRUMID=CCMSLIB00000426677
SCANS=1649
56.087 100.0 
END IONS

BEGIN IONS
PEPMASS=303.196
CHARGE=1+
MSLEVEL=2
SOURCE_INSTRUMENT=Positive-Quattro_QQQ:25eV
FILENAME=hmdb_intermediate.mgf
SEQ=*..*
IONMODE=Positive
ORGANISM=HMDB
NAME=HMDB:HMDB00405-616 2-Methoxyestradiol M+H
PI=HMDB
DATACOLLECTOR=HMDB
SMILES=[H][C@@]12CC[C@H](O)[C@@]1(C)CC[C@]1([H])C3=C(CC[C@@]21[H])C=C(O)C(OC)=C3
INCHI=InChI=1S/C19H26O3/c1-19-8-7-12-13(15(19)5-6-18(19)21)4-3-11-9-16(20)17(22-2)10-14(11)12/h9-10,12-13,15,18,20-21H,3-8H2,1-2H3/t12-,13+,15-,18-,19-/m0/s1
INCHIAUX=N/A
PUBMED=N/A
SUBMITUSER=mwang87
TAGS=
LIBRARYQUALITY=3
SPECTRUMID=CCMSLIB00000426678
SCANS=1650
151.0 100.0 
END IONS

BEGIN IONS
PEPMASS=193.035
CHARGE=1+
MSLEVEL=2
SOURCE_INSTRUMENT=Negative-Quattro_QQQ:10eV
FILENAME=hmdb_intermediate.mgf
SEQ=*..*
IONMODE=Negative
ORGANISM=HMDB
NAME=HMDB:HMDB00127-192 D-Glucuronic acid M-H
PI=HMDB
DATACOLLECTOR=HMDB
SMILES=O[C@H]1O[C@@H]([C@@H](O)[C@H](O)[C@H]1O)C(O)=O
INCHI=InChI=1S/C6H10O7/c7-1-2(8)4(5(10)11)13-6(12)3(1)9/h1-4,6-9,12H,(H,10,11)/t1-,2-,3+,4-,6-/m0/s1
INCHIAUX=N/A
PUBMED=N/A
SUBMITUSER=mwang87
TAGS=
LIBRARYQUALITY=3
SPECTRUMID=CCMSLIB00000426679
SCANS=1651
73.359 100.0 
89.315 60.6829268293 
103.239 57.2855093257 
113.22 76.700143472 
193.121 64.56241033 
END IONS

BEGIN IONS
PEPMASS=194.082
CHARGE=1+
MSLEVEL=2
SOURCE_INSTRUMENT=Positive-Quattro_QQQ:40eV
FILENAME=hmdb_intermediate.mgf
SEQ=*..*
IONMODE=Positive
ORGANISM=HMDB
NAME=HMDB:HMDB00859-1213 Methylhippuric acid M+H
PI=HMDB
DATACOLLECTOR=HMDB
SMILES=COC(=O)CNC(=O)C1=CC=CC=C1
INCHI=InChI=1S/C10H11NO3/c1-14-9(12)7-11-10(13)8-5-3-2-4-6-8/h2-6H,7H2,1H3,(H,11,13)
INCHIAUX=N/A
PUBMED=N/A
SUBMITUSER=mwang87
TAGS=
LIBRARYQUALITY=3
SPECTRUMID=CCMSLIB00000426680
SCANS=1652
105.256 100.0 
END IONS

BEGIN IONS
PEPMASS=241.032
CHARGE=1+
MSLEVEL=2
SOURCE_INSTRUMENT=Positive-Quattro_QQQ:25eV
FILENAME=hmdb_intermediate.mgf
SEQ=*..*
IONMODE=Positive
ORGANISM=HMDB
NAME=HMDB:HMDB00192-308 L-Cystine M+H
PI=HMDB
DATACOLLECTOR=HMDB
SMILES=N[C@@H](CSSC[C@H](N)C(O)=O)C(O)=O
INCHI=InChI=1S/C6H12N2O4S2/c7-3(5(9)10)1-13-14-2-4(8)6(11)12/h3-4H,1-2,7-8H2,(H,9,10)(H,11,12)/t3-,4-/m0/s1
INCHIAUX=N/A
PUBMED=N/A
SUBMITUSER=mwang87
TAGS=
LIBRARYQUALITY=3
SPECTRUMID=CCMSLIB00000426681
SCANS=1653
74.014 100.0 
119.896 54.452 
END IONS

BEGIN IONS
PEPMASS=212.002
CHARGE=1+
MSLEVEL=2
SOURCE_INSTRUMENT=Negative-Quattro_QQQ:25eV
FILENAME=hmdb_intermediate.mgf
SEQ=*..*
IONMODE=Negative
ORGANISM=HMDB
NAME=HMDB:HMDB00682-946 Indoxyl sulfate M-H
PI=HMDB
DATACOLLECTOR=HMDB
SMILES=OS(=O)(=O)OC1=CNC2=CC=CC=C12
INCHI=InChI=1S/C8H7NO4S/c10-14(11,12)13-8-5-9-7-4-2-1-3-6(7)8/h1-5,9H,(H,10,11,12)
INCHIAUX=N/A
PUBMED=N/A
SUBMITUSER=mwang87
TAGS=
LIBRARYQUALITY=3
SPECTRUMID=CCMSLIB00000426682
SCANS=1654
80.329 100.0 
END IONS

BEGIN IONS
PEPMASS=151.112
CHARGE=1+
MSLEVEL=2
SOURCE_INSTRUMENT=Positive-Quattro_QQQ:25eV
FILENAME=hmdb_intermediate.mgf
SEQ=*..*
IONMODE=Positive
ORGANISM=HMDB
NAME=HMDB:HMDB04487-2395 (+)-(S)-Carvone M+H
PI=HMDB
DATACOLLECTOR=HMDB
SMILES=CC(=C)[C@H]1CC=C(C)C(=O)C1
INCHI=InChI=1S/C10H14O/c1-7(2)9-5-4-8(3)10(11)6-9/h4,9H,1,5-6H2,2-3H3/t9-/m0/s1
INCHIAUX=N/A
PUBMED=N/A
SUBMITUSER=mwang87
TAGS=
LIBRARYQUALITY=3
SPECTRUMID=CCMSLIB00000426683
SCANS=1655
109.0 100.0 
END IONS

BEGIN IONS
PEPMASS=168.066
CHARGE=1+
MSLEVEL=2
SOURCE_INSTRUMENT=Positive-Quattro_QQQ:40eV
FILENAME=hmdb_intermediate.mgf
SEQ=*..*
IONMODE=Positive
ORGANISM=HMDB
NAME=HMDB:HMDB01545-1645 Pyridoxal M+H
PI=HMDB
DATACOLLECTOR=HMDB
SMILES=CC1=C(O)C(C=O)=C(CO)C=N1
INCHI=InChI=1S/C8H9NO3/c1-5-8(12)7(4-11)6(3-10)2-9-5/h2,4,10,12H,3H2,1H3
INCHIAUX=N/A
PUBMED=N/A
SUBMITUSER=mwang87
TAGS=
LIBRARYQUALITY=3
SPECTRUMID=CCMSLIB00000426684
SCANS=1656
41.38 58.333 
53.254 53.472 
67.159 100.0 
93.821 65.972 
END IONS

BEGIN IONS
PEPMASS=121.065
CHARGE=1+
MSLEVEL=2
SOURCE_INSTRUMENT=Positive-Quattro_QQQ:25eV
FILENAME=hmdb_intermediate.mgf
SEQ=*..*
IONMODE=Positive
ORGANISM=HMDB
NAME=HMDB:HMDB06236-2479 Phenylacetaldehyde M+H
PI=HMDB
DATACOLLECTOR=HMDB
SMILES=O=CCC1=CC=CC=C1
INCHI=InChI=1S/C8H8O/c9-7-6-8-4-2-1-3-5-8/h1-5,7H,6H2
INCHIAUX=N/A
PUBMED=N/A
SUBMITUSER=mwang87
TAGS=
LIBRARYQUALITY=3
SPECTRUMID=CCMSLIB00000426685
SCANS=1657
77.0 100.0 
END IONS

BEGIN IONS
PEPMASS=133.065
CHARGE=1+
MSLEVEL=2
SOURCE_INSTRUMENT=Positive-Quattro_QQQ:25eV
FILENAME=hmdb_intermediate.mgf
SEQ=*..*
IONMODE=Positive
ORGANISM=HMDB
NAME=HMDB:HMDB03441-2311 Cinnamaldehyde M+H
PI=HMDB
DATACOLLECTOR=HMDB
SMILES=O=C\C=C\C1=CC=CC=C1
INCHI=InChI=1S/C9H8O/c10-8-4-7-9-5-2-1-3-6-9/h1-8H/b7-4+
INCHIAUX=N/A
PUBMED=N/A
SUBMITUSER=mwang87
TAGS=
LIBRARYQUALITY=3
SPECTRUMID=CCMSLIB00000426686
SCANS=1658
55.0 67.998 
77.0 100.0 
END IONS

BEGIN IONS
PEPMASS=307.264
CHARGE=1+
MSLEVEL=2
SOURCE_INSTRUMENT=Positive-Quattro_QQQ:40eV
FILENAME=hmdb_intermediate.mgf
SEQ=*..*
IONMODE=Positive
ORGANISM=HMDB
NAME=HMDB:HMDB02925-2168 8,11,14-Eicosatrienoic acid M+H
PI=HMDB
DATACOLLECTOR=HMDB
SMILES=CCCCC\C=C/C\C=C/C\C=C/CCCCCCC(O)=O
INCHI=InChI=1S/C20H34O2/c1-2-3-4-5-6-7-8-9-10-11-12-13-14-15-16-17-18-19-20(21)22/h6-7,9-10,12-13H,2-5,8,11,14-19H2,1H3,(H,21,22)/b7-6-,10-9-,13-12-
INCHIAUX=N/A
PUBMED=N/A
SUBMITUSER=mwang87
TAGS=
LIBRARYQUALITY=3
SPECTRUMID=CCMSLIB00000426687
SCANS=1659
54.0 51.006 
55.0 100.0 
66.0 69.625 
78.0 76.724 
80.0 81.764 
END IONS

BEGIN IONS
PEPMASS=167.071
CHARGE=1+
MSLEVEL=2
SOURCE_INSTRUMENT=Positive-Quattro_QQQ:10eV
FILENAME=hmdb_intermediate.mgf
SEQ=*..*
IONMODE=Positive
ORGANISM=HMDB
NAME=HMDB:HMDB02199-2025 Desaminotyrosine M+H
PI=HMDB
DATACOLLECTOR=HMDB
SMILES=OC(=O)CCC1=CC=C(O)C=C1
INCHI=InChI=1S/C9H10O3/c10-8-4-1-7(2-5-8)3-6-9(11)12/h1-2,4-5,10H,3,6H2,(H,11,12)
INCHIAUX=N/A
PUBMED=N/A
SUBMITUSER=mwang87
TAGS=
LIBRARYQUALITY=3
SPECTRUMID=CCMSLIB00000426688
SCANS=1660
89.0 77.587 
91.0 98.516 
117.0 52.257 
135.0 67.183 
149.0 100.0 
END IONS

BEGIN IONS
PEPMASS=215.165
CHARGE=1+
MSLEVEL=2
SOURCE_INSTRUMENT=Negative-Quattro_QQQ:25eV
FILENAME=hmdb_intermediate.mgf
SEQ=*..*
IONMODE=Negative
ORGANISM=HMDB
NAME=HMDB:HMDB00387-595 3-Hydroxydodecanoic acid M-H
PI=HMDB
DATACOLLECTOR=HMDB
SMILES=CCCCCCCCCC(O)CC(O)=O
INCHI=InChI=1S/C12H24O3/c1-2-3-4-5-6-7-8-9-11(13)10-12(14)15/h11,13H,2-10H2,1H3,(H,14,15)
INCHIAUX=N/A
PUBMED=N/A
SUBMITUSER=mwang87
TAGS=
LIBRARYQUALITY=3
SPECTRUMID=CCMSLIB00000426689
SCANS=1661
59.436 100.0 
END IONS

BEGIN IONS
PEPMASS=34.0293
CHARGE=1+
MSLEVEL=2
SOURCE_INSTRUMENT=Positive-Quattro_QQQ:40eV
FILENAME=hmdb_intermediate.mgf
SEQ=*..*
IONMODE=Positive
ORGANISM=HMDB
NAME=HMDB:HMDB03338-2253 Hydroxylamine M+H
PI=HMDB
DATACOLLECTOR=HMDB
SMILES=NO
INCHI=InChI=1S/H3NO/c1-2/h2H,1H2
INCHIAUX=N/A
PUBMED=N/A
SUBMITUSER=mwang87
TAGS=
LIBRARYQUALITY=3
SPECTRUMID=CCMSLIB00000426690
SCANS=1662
34.0 100.0 
END IONS

BEGIN IONS
PEPMASS=274.108
CHARGE=1+
MSLEVEL=2
SOURCE_INSTRUMENT=Positive-Quattro_QQQ:10eV
FILENAME=hmdb_intermediate.mgf
SEQ=*..*
IONMODE=Positive
ORGANISM=HMDB
NAME=HMDB:HMDB00667-912 L-Thyronine M+H
PI=HMDB
DATACOLLECTOR=HMDB
SMILES=N[C@@H](CC1=CC=C(OC2=CC=C(O)C=C2)C=C1)C(O)=O
INCHI=InChI=1S/C15H15NO4/c16-14(15(18)19)9-10-1-5-12(6-2-10)20-13-7-3-11(17)4-8-13/h1-8,14,17H,9,16H2,(H,18,19)/t14-/m0/s1
INCHIAUX=N/A
PUBMED=N/A
SUBMITUSER=mwang87
TAGS=
LIBRARYQUALITY=3
SPECTRUMID=CCMSLIB00000426691
SCANS=1663
228.0 50.997 
257.0 100.0 
274.0 61.267 
END IONS

BEGIN IONS
PEPMASS=788.181
CHARGE=1+
MSLEVEL=2
SOURCE_INSTRUMENT=Positive-Quattro_QQQ:40eV
FILENAME=hmdb_intermediate.mgf
SEQ=*..*
IONMODE=Positive
ORGANISM=HMDB
NAME=HMDB:HMDB01197-1459 FADH M+H
PI=HMDB
DATACOLLECTOR=HMDB
SMILES=CC1=CC2=C(C=C1C)N(C[C@H](O)[C@H](O)[C@H](O)COP(O)(=O)OP(O)(=O)OC[C@H]1O[C@H]([C@H](O)[C@@H]1O)N1C=NC3=C1N=CN=C3N)C1=C(N2)C(=O)NC(=O)N1
INCHI=InChI=1S/C27H35N9O15P2/c1-10-3-12-13(4-11(10)2)35(24-18(32-12)25(42)34-27(43)33-24)5-14(37)19(39)15(38)6-48-52(44,45)51-53(46,47)49-7-16-20(40)21(41)26(50-16)36-9-31-17-22(28)29-8-30-23(17)36/h3-4,8-9,14-16,19-21,26,32,37-41H,5-7H2,1-2H3,(H,44,45)(H,46,47)(H2,28,29,30)(H2,33,34,42,43)/t14-,15+,16+,19-,20+,21+,26+/m0/s1
INCHIAUX=N/A
PUBMED=N/A
SUBMITUSER=mwang87
TAGS=
LIBRARYQUALITY=3
SPECTRUMID=CCMSLIB00000426692
SCANS=1664
135.0 100.0 
136.0 84.163 
439.0 80.013 
440.0 56.038 
END IONS

BEGIN IONS
PEPMASS=665.125
CHARGE=1+
MSLEVEL=2
SOURCE_INSTRUMENT=Positive-Quattro_QQQ:40eV
FILENAME=hmdb_intermediate.mgf
SEQ=*..*
IONMODE=Positive
ORGANISM=HMDB
NAME=HMDB:HMDB00902-1282 NAD M+H
PI=HMDB
DATACOLLECTOR=HMDB
SMILES=NC(=O)C1=C[N+](=CC=C1)[C@@H]1O[C@H](COP(O)(=O)OP(O)(=O)OC[C@H]2O[C@H]([C@H](O)[C@@H]2O)N2C=NC3=C2N=CN=C3N)[C@@H](O)[C@H]1O
INCHI=InChI=1S/C21H27N7O14P2/c22-17-12-19(25-7-24-17)28(8-26-12)21-16(32)14(30)11(41-21)6-39-44(36,37)42-43(34,35)38-5-10-13(29)15(31)20(40-10)27-3-1-2-9(4-27)18(23)33/h1-4,7-8,10-11,13-16,20-21,29-32H,5-6H2,(H5-,22,23,24,25,33,34,35,36,37)/p+1/t10-,11-,13-,14-,15-,16-,20-,21-/m1/s1
INCHIAUX=N/A
PUBMED=N/A
SUBMITUSER=mwang87
TAGS=
LIBRARYQUALITY=3
SPECTRUMID=CCMSLIB00000426693
SCANS=1665
136.0 100.0 
END IONS

BEGIN IONS
PEPMASS=124.04
CHARGE=1+
MSLEVEL=2
SOURCE_INSTRUMENT=Positive-Quattro_QQQ:40eV
FILENAME=hmdb_intermediate.mgf
SEQ=*..*
IONMODE=Positive
ORGANISM=HMDB
NAME=HMDB:HMDB01488-1606 Nicotinic acid M+H
PI=HMDB
DATACOLLECTOR=HMDB
SMILES=OC(=O)C1=CN=CC=C1
INCHI=InChI=1S/C6H5NO2/c8-6(9)5-2-1-3-7-4-5/h1-4H,(H,8,9)
INCHIAUX=N/A
PUBMED=N/A
SUBMITUSER=mwang87
TAGS=
LIBRARYQUALITY=3
SPECTRUMID=CCMSLIB00000426694
SCANS=1666
52.003 100.0 
53.323 79.605 
78.096 88.816 
END IONS

BEGIN IONS
PEPMASS=60.98
CHARGE=1+
MSLEVEL=2
SOURCE_INSTRUMENT=Negative-Quattro_QQQ:25eV
FILENAME=hmdb_intermediate.mgf
SEQ=*..*
IONMODE=Negative
ORGANISM=HMDB
NAME=HMDB:HMDB02878-2153 Nitrate M-H
PI=HMDB
DATACOLLECTOR=HMDB
SMILES=[O-][N+]([O-])=O
INCHI=InChI=1S/NO3/c2-1(3)4/q-1
INCHIAUX=N/A
PUBMED=N/A
SUBMITUSER=mwang87
TAGS=
LIBRARYQUALITY=3
SPECTRUMID=CCMSLIB00000426695
SCANS=1667
45.0 89.45 
61.0 100.0 
END IONS

BEGIN IONS
PEPMASS=60.0562
CHARGE=1+
MSLEVEL=2
SOURCE_INSTRUMENT=Positive-Quattro_QQQ:25eV
FILENAME=hmdb_intermediate.mgf
SEQ=*..*
IONMODE=Positive
ORGANISM=HMDB
NAME=HMDB:HMDB01842-1691 Guanidine M+H
PI=HMDB
DATACOLLECTOR=HMDB
SMILES=NC(N)=N
INCHI=InChI=1S/CH5N3/c2-1(3)4/h(H5,2,3,4)
INCHIAUX=N/A
PUBMED=N/A
SUBMITUSER=mwang87
TAGS=
LIBRARYQUALITY=3
SPECTRUMID=CCMSLIB00000426696
SCANS=1668
43.0 100.0 
END IONS

BEGIN IONS
PEPMASS=313.311
CHARGE=1+
MSLEVEL=2
SOURCE_INSTRUMENT=Positive-Quattro_QQQ:40eV
FILENAME=hmdb_intermediate.mgf
SEQ=*..*
IONMODE=Positive
ORGANISM=HMDB
NAME=HMDB:HMDB02212-2036 Arachidic acid M+H
PI=HMDB
DATACOLLECTOR=HMDB
SMILES=CCCCCCCCCCCCCCCCCCCC(O)=O
INCHI=InChI=1S/C20H40O2/c1-2-3-4-5-6-7-8-9-10-11-12-13-14-15-16-17-18-19-20(21)22/h2-19H2,1H3,(H,21,22)
INCHIAUX=N/A
PUBMED=N/A
SUBMITUSER=mwang87
TAGS=
LIBRARYQUALITY=3
SPECTRUMID=CCMSLIB00000426697
SCANS=1669
56.0 100.0 
57.0 69.518 
END IONS

BEGIN IONS
PEPMASS=154.087
CHARGE=1+
MSLEVEL=2
SOURCE_INSTRUMENT=Positive-Quattro_QQQ:40eV
FILENAME=hmdb_intermediate.mgf
SEQ=*..*
IONMODE=Positive
ORGANISM=HMDB
NAME=HMDB:HMDB00073-122 Dopamine M+H
PI=HMDB
DATACOLLECTOR=HMDB
SMILES=NCCC1=CC=C(O)C(O)=C1
INCHI=InChI=1S/C8H11NO2/c9-4-3-6-1-2-7(10)8(11)5-6/h1-2,5,10-11H,3-4,9H2
INCHIAUX=N/A
PUBMED=N/A
SUBMITUSER=mwang87
TAGS=
LIBRARYQUALITY=3
SPECTRUMID=CCMSLIB00000426698
SCANS=1670
65.186 100.0 
91.075 54.942 
END IONS

BEGIN IONS
PEPMASS=450.322
CHARGE=1+
MSLEVEL=2
SOURCE_INSTRUMENT=Positive-Quattro_QQQ:40eV
FILENAME=hmdb_intermediate.mgf
SEQ=*..*
IONMODE=Positive
ORGANISM=HMDB
NAME=HMDB:HMDB00631-863 Deoxycholic acid glycine conjugate M+H
PI=HMDB
DATACOLLECTOR=HMDB
SMILES=[H][C@]12CCC3C4CC[C@H]([C@H](C)CCC(=O)NCC(O)=O)[C@@]4(C)[C@@H](O)CC3[C@@]1(C)CC[C@@H](O)C2
INCHI=InChI=1S/C26H43NO5/c1-15(4-9-23(30)27-14-24(31)32)19-7-8-20-18-6-5-16-12-17(28)10-11-25(16,2)21(18)13-22(29)26(19,20)3/h15-22,28-29H,4-14H2,1-3H3,(H,27,30)(H,31,32)/t15-,16-,17-,18?,19-,20?,21?,22+,25+,26-/m1/s1
INCHIAUX=N/A
PUBMED=N/A
SUBMITUSER=mwang87
TAGS=
LIBRARYQUALITY=3
SPECTRUMID=CCMSLIB00000426699
SCANS=1671
76.121 100.0 
81.14 54.688 
END IONS

BEGIN IONS
PEPMASS=175.12
CHARGE=1+
MSLEVEL=2
SOURCE_INSTRUMENT=Positive-Quattro_QQQ:25eV
FILENAME=hmdb_intermediate.mgf
SEQ=*..*
IONMODE=Positive
ORGANISM=HMDB
NAME=HMDB:HMDB00517-741 L-Arginine M+H
PI=HMDB
DATACOLLECTOR=HMDB
SMILES=N[C@@H](CCCN=C(N)N)C(O)=O
INCHI=InChI=1S/C6H14N4O2/c7-4(5(11)12)2-1-3-10-6(8)9/h4H,1-3,7H2,(H,11,12)(H4,8,9,10)/t4-/m0/s1
INCHIAUX=N/A
PUBMED=N/A
SUBMITUSER=mwang87
TAGS=
LIBRARYQUALITY=3
SPECTRUMID=CCMSLIB00000426700
SCANS=1672
70.143 100.0 
END IONS

BEGIN IONS
PEPMASS=330.06
CHARGE=1+
MSLEVEL=2
SOURCE_INSTRUMENT=Positive-Quattro_QQQ:25eV
FILENAME=hmdb_intermediate.mgf
SEQ=*..*
IONMODE=Positive
ORGANISM=HMDB
NAME=HMDB:HMDB00058-94 Cyclic AMP M+H
PI=HMDB
DATACOLLECTOR=HMDB
SMILES=NC1=NC=NC2=C1N=CN2[C@@H]1O[C@@H]2COP(O)(=O)O[C@H]2[C@H]1O
INCHI=InChI=1S/C10H12N5O6P/c11-8-5-9(13-2-12-8)15(3-14-5)10-6(16)7-4(20-10)1-19-22(17,18)21-7/h2-4,6-7,10,16H,1H2,(H,17,18)(H2,11,12,13)/t4-,6-,7-,10-/m1/s1
INCHIAUX=N/A
PUBMED=N/A
SUBMITUSER=mwang87
TAGS=
LIBRARYQUALITY=3
SPECTRUMID=CCMSLIB00000426701
SCANS=1673
329.49 63.918 
329.52 100.0 
330.51 76.243 
END IONS

BEGIN IONS
PEPMASS=299.295
CHARGE=1+
MSLEVEL=2
SOURCE_INSTRUMENT=Positive-Quattro_QQQ:25eV
FILENAME=hmdb_intermediate.mgf
SEQ=*..*
IONMODE=Positive
ORGANISM=HMDB
NAME=HMDB:HMDB00795-1133 Pristanic acid M+H
PI=HMDB
DATACOLLECTOR=HMDB
SMILES=CC(C)CCCC(C)CCCC(C)CCCC(C)C(O)=O
INCHI=InChI=1S/C19H38O2/c1-15(2)9-6-10-16(3)11-7-12-17(4)13-8-14-18(5)19(20)21/h15-18H,6-14H2,1-5H3,(H,20,21)
INCHIAUX=N/A
PUBMED=N/A
SUBMITUSER=mwang87
TAGS=
LIBRARYQUALITY=3
SPECTRUMID=CCMSLIB00000426702
SCANS=1674
136.023 100.0 
144.37 51.069 
148.789 53.964 
END IONS

BEGIN IONS
PEPMASS=405.01
CHARGE=1+
MSLEVEL=2
SOURCE_INSTRUMENT=Positive-Quattro_QQQ:40eV
FILENAME=hmdb_intermediate.mgf
SEQ=*..*
IONMODE=Positive
ORGANISM=HMDB
NAME=HMDB:HMDB00295-503 Uridine 5'-diphosphate M+H
PI=HMDB
DATACOLLECTOR=HMDB
SMILES=O[C@H]1[C@@H](O)[C@@H](O[C@@H]1COP(O)(=O)OP(O)(O)=O)N1C=CC(=O)NC1=O
INCHI=InChI=1S/C9H14N2O12P2/c12-5-1-2-11(9(15)10-5)8-7(14)6(13)4(22-8)3-21-25(19,20)23-24(16,17)18/h1-2,4,6-8,13-14H,3H2,(H,19,20)(H,10,12,15)(H2,16,17,18)/t4-,6-,7-,8-/m1/s1
INCHIAUX=N/A
PUBMED=N/A
SUBMITUSER=mwang87
TAGS=
LIBRARYQUALITY=3
SPECTRUMID=CCMSLIB00000426703
SCANS=1675
97.1 100.0 
END IONS

BEGIN IONS
PEPMASS=165.019
CHARGE=1+
MSLEVEL=2
SOURCE_INSTRUMENT=Negative-Quattro_QQQ:10eV
FILENAME=hmdb_intermediate.mgf
SEQ=*..*
IONMODE=Negative
ORGANISM=HMDB
NAME=HMDB:HMDB02428-2104 Terephthalic acid M-H
PI=HMDB
DATACOLLECTOR=HMDB
SMILES=OC(=O)C1=CC=C(C=C1)C(O)=O
INCHI=InChI=1S/C8H6O4/c9-7(10)5-1-2-6(4-3-5)8(11)12/h1-4H,(H,9,10)(H,11,12)
INCHIAUX=N/A
PUBMED=N/A
SUBMITUSER=mwang87
TAGS=
LIBRARYQUALITY=3
SPECTRUMID=CCMSLIB00000426704
SCANS=1676
120.0 100.0 
END IONS

BEGIN IONS
PEPMASS=426.053
CHARGE=1+
MSLEVEL=2
SOURCE_INSTRUMENT=Positive-Quattro_QQQ:25eV
FILENAME=hmdb_intermediate.mgf
SEQ=*..*
IONMODE=Positive
ORGANISM=HMDB
NAME=HMDB:HMDB01372-1542 Thiamine pyrophosphate M+H
PI=HMDB
DATACOLLECTOR=HMDB
SMILES=CC1=C(CCO[P@](O)(=O)OP(O)(O)=O)SC=[N+]1CC1=CN=C(C)N=C1N
INCHI=InChI=1S/C12H18N4O7P2S/c1-8-11(3-4-22-25(20,21)23-24(17,18)19)26-7-16(8)6-10-5-14-9(2)15-12(10)13/h5,7H,3-4,6H2,1-2H3,(H4-,13,14,15,17,18,19,20,21)/p+1
INCHIAUX=N/A
PUBMED=N/A
SUBMITUSER=mwang87
TAGS=
LIBRARYQUALITY=3
SPECTRUMID=CCMSLIB00000426705
SCANS=1677
122.0 100.0 
END IONS

BEGIN IONS
PEPMASS=130.998
CHARGE=1+
MSLEVEL=2
SOURCE_INSTRUMENT=Negative-Quattro_QQQ:40eV
FILENAME=hmdb_intermediate.mgf
SEQ=*..*
IONMODE=Negative
ORGANISM=HMDB
NAME=HMDB:HMDB00223-369 Oxalacetic acid M-H
PI=HMDB
DATACOLLECTOR=HMDB
SMILES=OC(=O)CC(=O)C(O)=O
INCHI=InChI=1S/C4H4O5/c5-2(4(8)9)1-3(6)7/h1H2,(H,6,7)(H,8,9)
INCHIAUX=N/A
PUBMED=N/A
SUBMITUSER=mwang87
TAGS=
LIBRARYQUALITY=3
SPECTRUMID=CCMSLIB00000426706
SCANS=1678
41.619 100.0 
43.581 74.39 
87.311 79.268 
END IONS

BEGIN IONS
PEPMASS=78.0377
CHARGE=1+
MSLEVEL=2
SOURCE_INSTRUMENT=Positive-Quattro_QQQ:25eV
FILENAME=hmdb_intermediate.mgf
SEQ=*..*
IONMODE=Positive
ORGANISM=HMDB
NAME=HMDB:HMDB02991-2177 Cysteamine M+H
PI=HMDB
DATACOLLECTOR=HMDB
SMILES=NCCS
INCHI=InChI=1S/C2H7NS/c3-1-2-4/h4H,1-3H2
INCHIAUX=N/A
PUBMED=N/A
SUBMITUSER=mwang87
TAGS=
LIBRARYQUALITY=3
SPECTRUMID=CCMSLIB00000426707
SCANS=1679
61.0 100.0 
END IONS

BEGIN IONS
PEPMASS=229.144
CHARGE=1+
MSLEVEL=2
SOURCE_INSTRUMENT=Negative-Quattro_QQQ:25eV
FILENAME=hmdb_intermediate.mgf
SEQ=*..*
IONMODE=Negative
ORGANISM=HMDB
NAME=HMDB:HMDB00623-847 Dodecanedioic acid M-H
PI=HMDB
DATACOLLECTOR=HMDB
SMILES=OC(=O)CCCCCCCCCCC(O)=O
INCHI=InChI=1S/C12H22O4/c13-11(14)9-7-5-3-1-2-4-6-8-10-12(15)16/h1-10H2,(H,13,14)(H,15,16)
INCHIAUX=N/A
PUBMED=N/A
SUBMITUSER=mwang87
TAGS=
LIBRARYQUALITY=3
SPECTRUMID=CCMSLIB00000426708
SCANS=1680
211.165 100.0 
END IONS

BEGIN IONS
PEPMASS=191.103
CHARGE=1+
MSLEVEL=2
SOURCE_INSTRUMENT=Positive-Quattro_QQQ:25eV
FILENAME=hmdb_intermediate.mgf
SEQ=*..*
IONMODE=Positive
ORGANISM=HMDB
NAME=HMDB:HMDB01370-1539 Diaminopimelic acid M+H
PI=HMDB
DATACOLLECTOR=HMDB
SMILES=N[C@@H](CCC[C@H](N)C(O)=O)C(O)=O
INCHI=InChI=1S/C7H14N2O4/c8-4(6(10)11)2-1-3-5(9)7(12)13/h4-5H,1-3,8-9H2,(H,10,11)(H,12,13)/t4-,5-/m0/s1
INCHIAUX=N/A
PUBMED=N/A
SUBMITUSER=mwang87
TAGS=
LIBRARYQUALITY=3
SPECTRUMID=CCMSLIB00000426709
SCANS=1681
82.0 100.0 
END IONS

BEGIN IONS
PEPMASS=166.087
CHARGE=1+
MSLEVEL=2
SOURCE_INSTRUMENT=Positive-Quattro_QQQ:10eV
FILENAME=hmdb_intermediate.mgf
SEQ=*..*
IONMODE=Positive
ORGANISM=HMDB
NAME=HMDB:HMDB00159-248 L-Phenylalanine M+H
PI=HMDB
DATACOLLECTOR=HMDB
SMILES=N[C@@H](CC1=CC=CC=C1)C(O)=O
INCHI=InChI=1S/C9H11NO2/c10-8(9(11)12)6-7-4-2-1-3-5-7/h1-5,8H,6,10H2,(H,11,12)/t8-/m0/s1
INCHIAUX=N/A
PUBMED=N/A
SUBMITUSER=mwang87
TAGS=
LIBRARYQUALITY=3
SPECTRUMID=CCMSLIB00000426710
SCANS=1682
119.964 100.0 
END IONS

BEGIN IONS
PEPMASS=254.089
CHARGE=1+
MSLEVEL=2
SOURCE_INSTRUMENT=Positive-Quattro_QQQ:10eV
FILENAME=hmdb_intermediate.mgf
SEQ=*..*
IONMODE=Positive
ORGANISM=HMDB
NAME=HMDB:HMDB00845-1190 Neopterin M+H
PI=HMDB
DATACOLLECTOR=HMDB
SMILES=NC1=NC2=C(N=C(C=N2)C(O)C(O)CO)C(=O)N1
INCHI=InChI=1S/C9H11N5O4/c10-9-13-7-5(8(18)14-9)12-3(1-11-7)6(17)4(16)2-15/h1,4,6,15-17H,2H2,(H3,10,11,13,14,18)
INCHIAUX=N/A
PUBMED=N/A
SUBMITUSER=mwang87
TAGS=
LIBRARYQUALITY=3
SPECTRUMID=CCMSLIB00000426711
SCANS=1683
254.004 100.0 
END IONS

BEGIN IONS
PEPMASS=141.066
CHARGE=1+
MSLEVEL=2
SOURCE_INSTRUMENT=Positive-Quattro_QQQ:10eV
FILENAME=hmdb_intermediate.mgf
SEQ=*..*
IONMODE=Positive
ORGANISM=HMDB
NAME=HMDB:HMDB02820-2140 Methylimidazoleacetic acid M+H
PI=HMDB
DATACOLLECTOR=HMDB
SMILES=CN1C=NC(CC(O)=O)=C1
INCHI=InChI=1S/C6H8N2O2/c1-8-3-5(7-4-8)2-6(9)10/h3-4H,2H2,1H3,(H,9,10)
INCHIAUX=N/A
PUBMED=N/A
SUBMITUSER=mwang87
TAGS=
LIBRARYQUALITY=3
SPECTRUMID=CCMSLIB00000426712
SCANS=1684
95.0 100.0 
141.0 68.104 
END IONS

BEGIN IONS
PEPMASS=647.465
CHARGE=1+
MSLEVEL=2
SOURCE_INSTRUMENT=Negative-Quattro_QQQ:25eV
FILENAME=hmdb_intermediate.mgf
SEQ=*..*
IONMODE=Negative
ORGANISM=HMDB
NAME=HMDB:HMDB00674-934 PA(16:0/16:0) M-H
PI=HMDB
DATACOLLECTOR=HMDB
SMILES=CCCCCCCCCCCCCCCC(=O)OC[C@H](COP(O)(O)=O)OC(=O)CCCCCCCCCCCCCCC
INCHI=InChI=1S/C35H69O8P/c1-3-5-7-9-11-13-15-17-19-21-23-25-27-29-34(36)41-31-33(32-42-44(38,39)40)43-35(37)30-28-26-24-22-20-18-16-14-12-10-8-6-4-2/h33H,3-32H2,1-2H3,(H2,38,39,40)/t33-/m1/s1
INCHIAUX=N/A
PUBMED=N/A
SUBMITUSER=mwang87
TAGS=
LIBRARYQUALITY=3
SPECTRUMID=CCMSLIB00000426713
SCANS=1685
255.0 100.0 
END IONS

BEGIN IONS
PEPMASS=255.066
CHARGE=1+
MSLEVEL=2
SOURCE_INSTRUMENT=Positive-Quattro_QQQ:40eV
FILENAME=hmdb_intermediate.mgf
SEQ=*..*
IONMODE=Positive
ORGANISM=HMDB
NAME=HMDB:HMDB03312-2238 Daidzein M+H
PI=HMDB
DATACOLLECTOR=HMDB
SMILES=OC1=CC=C(C=C1)C1=COC2=C(C=CC(O)=C2)C1=O
INCHI=InChI=1S/C15H10O4/c16-10-3-1-9(2-4-10)13-8-19-14-7-11(17)5-6-12(14)15(13)18/h1-8,16-17H
INCHIAUX=N/A
PUBMED=N/A
SUBMITUSER=mwang87
TAGS=
LIBRARYQUALITY=3
SPECTRUMID=CCMSLIB00000426714
SCANS=1686
90.99 100.0 
END IONS

BEGIN IONS
PEPMASS=153.041
CHARGE=1+
MSLEVEL=2
SOURCE_INSTRUMENT=Positive-Quattro_QQQ:25eV
FILENAME=hmdb_intermediate.mgf
SEQ=*..*
IONMODE=Positive
ORGANISM=HMDB
NAME=HMDB:HMDB00786-1123 Oxypurinol M+H
PI=HMDB
DATACOLLECTOR=HMDB
SMILES=O=C1NC2=C(C=NN2)C(=O)N1
INCHI=InChI=1S/C5H4N4O2/c10-4-2-1-6-9-3(2)7-5(11)8-4/h1H,(H3,6,7,8,9,10,11)
INCHIAUX=N/A
PUBMED=N/A
SUBMITUSER=mwang87
TAGS=
LIBRARYQUALITY=3
SPECTRUMID=CCMSLIB00000426715
SCANS=1687
70.716 68.29 
109.75 86.838 
110.635 79.256 
136.406 100.0 
END IONS

BEGIN IONS
PEPMASS=129.019
CHARGE=1+
MSLEVEL=2
SOURCE_INSTRUMENT=Negative-Quattro_QQQ:40eV
FILENAME=hmdb_intermediate.mgf
SEQ=*..*
IONMODE=Negative
ORGANISM=HMDB
NAME=HMDB:HMDB00620-839 Glutaconic acid M-H
PI=HMDB
DATACOLLECTOR=HMDB
SMILES=OC(=O)C\C=C\C(O)=O
INCHI=InChI=1S/C5H6O4/c6-4(7)2-1-3-5(8)9/h1-2H,3H2,(H,6,7)(H,8,9)/b2-1+
INCHIAUX=N/A
PUBMED=N/A
SUBMITUSER=mwang87
TAGS=
LIBRARYQUALITY=3
SPECTRUMID=CCMSLIB00000426716
SCANS=1688
41.286 100.0 
85.083 67.47 
END IONS

BEGIN IONS
PEPMASS=308.092
CHARGE=1+
MSLEVEL=2
SOURCE_INSTRUMENT=Positive-Quattro_QQQ:25eV
FILENAME=hmdb_intermediate.mgf
SEQ=*..*
IONMODE=Positive
ORGANISM=HMDB
NAME=HMDB:HMDB00125-187 Glutathione M+H
PI=HMDB
DATACOLLECTOR=HMDB
SMILES=N[C@@H](CCC(=O)N[C@@H](CS)C(=O)NCC(O)=O)C(O)=O
INCHI=InChI=1S/C10H17N3O6S/c11-5(10(18)19)1-2-7(14)13-6(4-20)9(17)12-3-8(15)16/h5-6,20H,1-4,11H2,(H,12,17)(H,13,14)(H,15,16)(H,18,19)/t5-,6-/m0/s1
INCHIAUX=N/A
PUBMED=N/A
SUBMITUSER=mwang87
TAGS=
LIBRARYQUALITY=3
SPECTRUMID=CCMSLIB00000426717
SCANS=1689
76.056 66.0 
84.081 100.0 
END IONS

BEGIN IONS
PEPMASS=184.028
CHARGE=1+
MSLEVEL=2
SOURCE_INSTRUMENT=Positive-Quattro_QQQ:10eV
FILENAME=hmdb_intermediate.mgf
SEQ=*..*
IONMODE=Positive
ORGANISM=HMDB
NAME=HMDB:HMDB02205-2028 L-Homocysteic acid M+H
PI=HMDB
DATACOLLECTOR=HMDB
SMILES=N[C@@H](CCS(O)(=O)=O)C(O)=O
INCHI=InChI=1S/C4H9NO5S/c5-3(4(6)7)1-2-11(8,9)10/h3H,1-2,5H2,(H,6,7)(H,8,9,10)/t3-/m0/s1
INCHIAUX=N/A
PUBMED=N/A
SUBMITUSER=mwang87
TAGS=
LIBRARYQUALITY=3
SPECTRUMID=CCMSLIB00000426718
SCANS=1690
137.81 100.0 
183.8 65.851 
END IONS

BEGIN IONS
PEPMASS=198.077
CHARGE=1+
MSLEVEL=2
SOURCE_INSTRUMENT=Positive-Quattro_QQQ:40eV
FILENAME=hmdb_intermediate.mgf
SEQ=*..*
IONMODE=Positive
ORGANISM=HMDB
NAME=HMDB:HMDB00609-827 DL-Dopa M+H
PI=HMDB
DATACOLLECTOR=HMDB
SMILES=NC(CC1=CC=C(O)C(O)=C1)C(O)=O
INCHI=InChI=1S/C9H11NO4/c10-6(9(13)14)3-5-1-2-7(11)8(12)4-5/h1-2,4,6,11-12H,3,10H2,(H,13,14)
INCHIAUX=N/A
PUBMED=N/A
SUBMITUSER=mwang87
TAGS=
LIBRARYQUALITY=3
SPECTRUMID=CCMSLIB00000426719
SCANS=1691
65.125 86.022 
77.06 100.0 
79.074 66.667 
END IONS

BEGIN IONS
PEPMASS=291.232
CHARGE=1+
MSLEVEL=2
SOURCE_INSTRUMENT=Positive-Quattro_QQQ:25eV
FILENAME=hmdb_intermediate.mgf
SEQ=*..*
IONMODE=Positive
ORGANISM=HMDB
NAME=HMDB:HMDB00365-583 Epiandrosterone M+H
PI=HMDB
DATACOLLECTOR=HMDB
SMILES=[H][C@@]12CCC(=O)[C@@]1(C)CC[C@@]1([H])[C@@]2([H])CCC2C[C@@H](O)CC[C@]12C
INCHI=InChI=1S/C19H30O2/c1-18-9-7-13(20)11-12(18)3-4-14-15-5-6-17(21)19(15,2)10-8-16(14)18/h12-16,20H,3-11H2,1-2H3/t12?,13-,14-,15-,16-,18-,19-/m0/s1
INCHIAUX=N/A
PUBMED=N/A
SUBMITUSER=mwang87
TAGS=
LIBRARYQUALITY=3
SPECTRUMID=CCMSLIB00000426720
SCANS=1692
81.297 78.723 
107.261 100.0 
159.134 60.284 
END IONS

BEGIN IONS
PEPMASS=176.071
CHARGE=1+
MSLEVEL=2
SOURCE_INSTRUMENT=Positive-Quattro_QQQ:25eV
FILENAME=hmdb_intermediate.mgf
SEQ=*..*
IONMODE=Positive
ORGANISM=HMDB
NAME=HMDB:HMDB00197-320 Indoleacetic acid M+H
PI=HMDB
DATACOLLECTOR=HMDB
SMILES=OC(=O)CC1=CNC2=C1C=CC=C2
INCHI=InChI=1S/C10H9NO2/c12-10(13)5-7-6-11-9-4-2-1-3-8(7)9/h1-4,6,11H,5H2,(H,12,13)
INCHIAUX=N/A
PUBMED=N/A
SUBMITUSER=mwang87
TAGS=
LIBRARYQUALITY=3
SPECTRUMID=CCMSLIB00000426721
SCANS=1693
129.9 100.0 
END IONS

BEGIN IONS
PEPMASS=191.019
CHARGE=1+
MSLEVEL=2
SOURCE_INSTRUMENT=Negative-Quattro_QQQ:25eV
FILENAME=hmdb_intermediate.mgf
SEQ=*..*
IONMODE=Negative
ORGANISM=HMDB
NAME=HMDB:HMDB00094-145 Citric acid M-H
PI=HMDB
DATACOLLECTOR=HMDB
SMILES=OC(=O)CC(O)(CC(O)=O)C(O)=O
INCHI=InChI=1S/C6H8O7/c7-3(8)1-6(13,5(11)12)2-4(9)10/h13H,1-2H2,(H,7,8)(H,9,10)(H,11,12)
INCHIAUX=N/A
PUBMED=N/A
SUBMITUSER=mwang87
TAGS=
LIBRARYQUALITY=3
SPECTRUMID=CCMSLIB00000426722
SCANS=1694
87.059 100.0 
110.958 51.724 
END IONS

BEGIN IONS
PEPMASS=132.102
CHARGE=1+
MSLEVEL=2
SOURCE_INSTRUMENT=Positive-Quattro_QQQ:25eV
FILENAME=hmdb_intermediate.mgf
SEQ=*..*
IONMODE=Positive
ORGANISM=HMDB
NAME=HMDB:HMDB00172-272 L-Isoleucine M+H
PI=HMDB
DATACOLLECTOR=HMDB
SMILES=CC[C@H](C)[C@H](N)C(O)=O
INCHI=InChI=1S/C6H13NO2/c1-3-4(2)5(7)6(8)9/h4-5H,3,7H2,1-2H3,(H,8,9)/t4-,5-/m0/s1
INCHIAUX=N/A
PUBMED=N/A
SUBMITUSER=mwang87
TAGS=
LIBRARYQUALITY=3
SPECTRUMID=CCMSLIB00000426723
SCANS=1695
41.321 57.5 
44.247 65.5 
69.134 98.5 
86.048 100.0 
END IONS

BEGIN IONS
PEPMASS=163.061
CHARGE=1+
MSLEVEL=2
SOURCE_INSTRUMENT=Positive-Quattro_QQQ:25eV
FILENAME=hmdb_intermediate.mgf
SEQ=*..*
IONMODE=Positive
ORGANISM=HMDB
NAME=HMDB:HMDB00355-568 3-Hydroxymethylglutaric acid M+H
PI=HMDB
DATACOLLECTOR=HMDB
SMILES=CC(O)(CC(O)=O)CC(O)=O
INCHI=InChI=1S/C6H10O5/c1-6(11,2-4(7)8)3-5(9)10/h11H,2-3H2,1H3,(H,7,8)(H,9,10)
INCHIAUX=N/A
PUBMED=N/A
SUBMITUSER=mwang87
TAGS=
LIBRARYQUALITY=3
SPECTRUMID=CCMSLIB00000426724
SCANS=1696
77.31 63.972 
77.684 100.0 
79.055 74.228 
98.621 71.179 
104.603 55.568 
105.974 80.97 
122.051 58.801 
END IONS

BEGIN IONS
PEPMASS=248.032
CHARGE=1+
MSLEVEL=2
SOURCE_INSTRUMENT=Positive-Quattro_QQQ:40eV
FILENAME=hmdb_intermediate.mgf
SEQ=*..*
IONMODE=Positive
ORGANISM=HMDB
NAME=HMDB:HMDB01491-1612 Pyridoxal 5'-phosphate M+H
PI=HMDB
DATACOLLECTOR=HMDB
SMILES=CC1=NC=C(COP(O)(O)=O)C(C=O)=C1O
INCHI=InChI=1S/C8H10NO6P/c1-5-8(11)7(3-10)6(2-9-5)4-15-16(12,13)14/h2-3,11H,4H2,1H3,(H2,12,13,14)
INCHIAUX=N/A
PUBMED=N/A
SUBMITUSER=mwang87
TAGS=
LIBRARYQUALITY=3
SPECTRUMID=CCMSLIB00000426725
SCANS=1697
67.0 100.0 
94.0 81.261 
END IONS

BEGIN IONS
PEPMASS=348.071
CHARGE=1+
MSLEVEL=2
SOURCE_INSTRUMENT=Positive-Quattro_QQQ:10eV
FILENAME=hmdb_intermediate.mgf
SEQ=*..*
IONMODE=Positive
ORGANISM=HMDB
NAME=HMDB:HMDB01044-1396 2'-Deoxyguanosine 5'-monophosphate M+H
PI=HMDB
DATACOLLECTOR=HMDB
SMILES=NC1=NC2=C(N=CN2[C@H]2C[C@H](O)[C@@H](COP(O)(O)=O)O2)C(=O)N1
INCHI=InChI=1S/C10H14N5O7P/c11-10-13-8-7(9(17)14-10)12-3-15(8)6-1-4(16)5(22-6)2-21-23(18,19)20/h3-6,16H,1-2H2,(H2,18,19,20)(H3,11,13,14,17)/t4-,5+,6+/m0/s1
INCHIAUX=N/A
PUBMED=N/A
SUBMITUSER=mwang87
TAGS=
LIBRARYQUALITY=3
SPECTRUMID=CCMSLIB00000426726
SCANS=1698
269.0 100.0 
347.0 74.127 
348.0 54.435 
END IONS

BEGIN IONS
PEPMASS=150.059
CHARGE=1+
MSLEVEL=2
SOURCE_INSTRUMENT=Positive-Quattro_QQQ:40eV
FILENAME=hmdb_intermediate.mgf
SEQ=*..*
IONMODE=Positive
ORGANISM=HMDB
NAME=HMDB:HMDB00696-971 L-Methionine M+H
PI=HMDB
DATACOLLECTOR=HMDB
SMILES=CSCC[C@H](N)C(O)=O
INCHI=InChI=1S/C5H11NO2S/c1-9-3-2-4(6)5(7)8/h4H,2-3,6H2,1H3,(H,7,8)/t4-/m0/s1
INCHIAUX=N/A
PUBMED=N/A
SUBMITUSER=mwang87
TAGS=
LIBRARYQUALITY=3
SPECTRUMID=CCMSLIB00000426727
SCANS=1699
56.187 67.081 
61.12 100.0 
END IONS

BEGIN IONS
PEPMASS=147.066
CHARGE=1+
MSLEVEL=2
SOURCE_INSTRUMENT=Positive-Quattro_QQQ:40eV
FILENAME=hmdb_intermediate.mgf
SEQ=*..*
IONMODE=Positive
ORGANISM=HMDB
NAME=HMDB:HMDB00752-1076 Methylglutaric acid M+H
PI=HMDB
DATACOLLECTOR=HMDB
SMILES=CC(CC(O)=O)CC(O)=O
INCHI=InChI=1S/C6H10O4/c1-4(2-5(7)8)3-6(9)10/h4H,2-3H2,1H3,(H,7,8)(H,9,10)
INCHIAUX=N/A
PUBMED=N/A
SUBMITUSER=mwang87
TAGS=
LIBRARYQUALITY=3
SPECTRUMID=CCMSLIB00000426728
SCANS=1700
51.888 100.0 
55.627 99.785 
57.745 68.872 
64.475 64.821 
65.222 84.011 
65.721 78.039 
106.472 67.167 
END IONS

BEGIN IONS
PEPMASS=746.099
CHARGE=1+
MSLEVEL=2
SOURCE_INSTRUMENT=Positive-Quattro_QQQ:25eV
FILENAME=hmdb_intermediate.mgf
SEQ=*..*
IONMODE=Positive
ORGANISM=HMDB
NAME=HMDB:HMDB00221-362 NADPH M+H
PI=HMDB
DATACOLLECTOR=HMDB
SMILES=NC(=O)C1=CN(C=CC1)[C@H]1O[C@@H](COP(O)(=O)OP(O)(=O)OC[C@@H]2O[C@@H]([C@@H](OP(O)(O)=O)[C@H]2O)N2C=NC3=C(N)N=CN=C23)[C@H](O)[C@@H]1O
INCHI=InChI=1S/C21H30N7O17P3/c22-17-12-19(25-7-24-17)28(8-26-12)21-16(44-46(33,34)35)14(30)11(43-21)6-41-48(38,39)45-47(36,37)40-5-10-13(29)15(31)20(42-10)27-3-1-2-9(4-27)18(23)32/h1,3-4,7-8,10-11,13-16,20-21,29-31H,2,5-6H2,(H2,23,32)(H,36,37)(H,38,39)(H2,22,24,25)(H2,33,34,35)/t10-,11-,13-,14-,15-,16-,20-,21-/m0/s1
INCHIAUX=N/A
PUBMED=N/A
SUBMITUSER=mwang87
TAGS=
LIBRARYQUALITY=3
SPECTRUMID=CCMSLIB00000426729
SCANS=1701
135.889 96.11 
509.097 100.0 
END IONS

BEGIN IONS
PEPMASS=131.118
CHARGE=1+
MSLEVEL=2
SOURCE_INSTRUMENT=Positive-Quattro_QQQ:25eV
FILENAME=hmdb_intermediate.mgf
SEQ=*..*
IONMODE=Positive
ORGANISM=HMDB
NAME=HMDB:HMDB02064-1976 N-Acetylputrescine M+H
PI=HMDB
DATACOLLECTOR=HMDB
SMILES=CC(=O)NCCCCN
INCHI=InChI=1S/C6H14N2O/c1-6(9)8-5-3-2-4-7/h2-5,7H2,1H3,(H,8,9)
INCHIAUX=N/A
PUBMED=N/A
SUBMITUSER=mwang87
TAGS=
LIBRARYQUALITY=3
SPECTRUMID=CCMSLIB00000426730
SCANS=1702
72.0 100.0 
END IONS

BEGIN IONS
PEPMASS=212.044
CHARGE=1+
MSLEVEL=2
SOURCE_INSTRUMENT=Positive-Quattro_QQQ:40eV
FILENAME=hmdb_intermediate.mgf
SEQ=*..*
IONMODE=Positive
ORGANISM=HMDB
NAME=HMDB:HMDB01511-1618 Phosphocreatine M+H
PI=HMDB
DATACOLLECTOR=HMDB
SMILES=CN(CC(O)=O)C(=N)NP(O)(O)=O
INCHI=InChI=1S/C4H10N3O5P/c1-7(2-3(8)9)4(5)6-13(10,11)12/h2H2,1H3,(H,8,9)(H4,5,6,10,11,12)
INCHIAUX=N/A
PUBMED=N/A
SUBMITUSER=mwang87
TAGS=
LIBRARYQUALITY=3
SPECTRUMID=CCMSLIB00000426731
SCANS=1703
76.0 100.0 
77.0 87.309 
END IONS

BEGIN IONS
PEPMASS=103.04
CHARGE=1+
MSLEVEL=2
SOURCE_INSTRUMENT=Negative-Quattro_QQQ:25eV
FILENAME=hmdb_intermediate.mgf
SEQ=*..*
IONMODE=Negative
ORGANISM=HMDB
NAME=HMDB:HMDB00357-574 3-Hydroxybutyric acid M-H
PI=HMDB
DATACOLLECTOR=HMDB
SMILES=CC(O)CC(O)=O
INCHI=InChI=1S/C4H8O3/c1-3(5)2-4(6)7/h3,5H,2H2,1H3,(H,6,7)
INCHIAUX=N/A
PUBMED=N/A
SUBMITUSER=mwang87
TAGS=
LIBRARYQUALITY=3
SPECTRUMID=CCMSLIB00000426732
SCANS=1704
59.07 100.0 
END IONS

BEGIN IONS
PEPMASS=301.217
CHARGE=1+
MSLEVEL=2
SOURCE_INSTRUMENT=Positive-Quattro_QQQ:10eV
FILENAME=hmdb_intermediate.mgf
SEQ=*..*
IONMODE=Positive
ORGANISM=HMDB
NAME=HMDB:HMDB06219-2475 13-cis-Retinoic acid M+H
PI=HMDB
DATACOLLECTOR=HMDB
SMILES=C\C(\C=C\C1=C(C)CCCC1(C)C)=C/C=C/C(/C)=C\C(O)=O
INCHI=InChI=1S/C20H28O2/c1-15(8-6-9-16(2)14-19(21)22)11-12-18-17(3)10-7-13-20(18,4)5/h6,8-9,11-12,14H,7,10,13H2,1-5H3,(H,21,22)/b9-6+,12-11+,15-8+,16-14-
INCHIAUX=N/A
PUBMED=N/A
SUBMITUSER=mwang87
TAGS=
LIBRARYQUALITY=3
SPECTRUMID=CCMSLIB00000426733
SCANS=1705
301.05 100.0 
END IONS

BEGIN IONS
PEPMASS=208.097
CHARGE=1+
MSLEVEL=2
SOURCE_INSTRUMENT=Positive-Quattro_QQQ:10eV
FILENAME=hmdb_intermediate.mgf
SEQ=*..*
IONMODE=Positive
ORGANISM=HMDB
NAME=HMDB:HMDB00860-1214 Phenylpropionylglycine M+H
PI=HMDB
DATACOLLECTOR=HMDB
SMILES=OC(=O)CNC(=O)CCC1=CC=CC=C1
INCHI=InChI=1S/C11H13NO3/c13-10(12-8-11(14)15)7-6-9-4-2-1-3-5-9/h1-5H,6-8H2,(H,12,13)(H,14,15)
INCHIAUX=N/A
PUBMED=N/A
SUBMITUSER=mwang87
TAGS=
LIBRARYQUALITY=3
SPECTRUMID=CCMSLIB00000426734
SCANS=1706
76.314 100.0 
END IONS

BEGIN IONS
PEPMASS=302.306
CHARGE=1+
MSLEVEL=2
SOURCE_INSTRUMENT=Positive-Quattro_QQQ:25eV
FILENAME=hmdb_intermediate.mgf
SEQ=*..*
IONMODE=Positive
ORGANISM=HMDB
NAME=HMDB:HMDB00269-470 Sphinganine M+H
PI=HMDB
DATACOLLECTOR=HMDB
SMILES=CCCCCCCCCCCCCCC[C@@H](O)[C@@H](N)CO
INCHI=InChI=1S/C18H39NO2/c1-2-3-4-5-6-7-8-9-10-11-12-13-14-15-18(21)17(19)16-20/h17-18,20-21H,2-16,19H2,1H3/t17-,18+/m0/s1
INCHIAUX=N/A
PUBMED=N/A
SUBMITUSER=mwang87
TAGS=
LIBRARYQUALITY=3
SPECTRUMID=CCMSLIB00000426735
SCANS=1707
60.217 100.0 
60.597 63.038 
END IONS

BEGIN IONS
PEPMASS=611.161
CHARGE=1+
MSLEVEL=2
SOURCE_INSTRUMENT=Positive-Quattro_QQQ:40eV
FILENAME=hmdb_intermediate.mgf
SEQ=*..*
IONMODE=Positive
ORGANISM=HMDB
NAME=HMDB:HMDB03249-2223 Rutin M+H
PI=HMDB
DATACOLLECTOR=HMDB
SMILES=C[C@@H]1O[C@@H](OC[C@H]2O[C@@H](OC3=C(OC4=CC(O)=CC(O)=C4C3=O)C3=CC(O)=C(O)C=C3)[C@H](O)[C@@H](O)[C@@H]2O)[C@H](O)[C@H](O)[C@H]1O
INCHI=InChI=1S/C27H30O16/c1-8-17(32)20(35)22(37)26(40-8)39-7-15-18(33)21(36)23(38)27(42-15)43-25-19(34)16-13(31)5-10(28)6-14(16)41-24(25)9-2-3-11(29)12(30)4-9/h2-6,8,15,17-18,20-23,26-33,35-38H,7H2,1H3/t8-,15+,17-,18+,20+,21-,22+,23+,26+,27-/m0/s1
INCHIAUX=N/A
PUBMED=N/A
SUBMITUSER=mwang87
TAGS=
LIBRARYQUALITY=3
SPECTRUMID=CCMSLIB00000426736
SCANS=1708
302.0 78.223 
303.0 100.0 
611.0 89.658 
END IONS

BEGIN IONS
PEPMASS=243.098
CHARGE=1+
MSLEVEL=2
SOURCE_INSTRUMENT=Positive-Quattro_QQQ:10eV
FILENAME=hmdb_intermediate.mgf
SEQ=*..*
IONMODE=Positive
ORGANISM=HMDB
NAME=HMDB:HMDB00273-478 Thymidine M+H
PI=HMDB
DATACOLLECTOR=HMDB
SMILES=CC1=CN([C@H]2C[C@H](O)[C@@H](CO)O2)C(=O)NC1=O
INCHI=InChI=1S/C10H14N2O5/c1-5-3-12(10(16)11-9(5)15)8-2-6(14)7(4-13)17-8/h3,6-8,13-14H,2,4H2,1H3,(H,11,15,16)/t6-,7+,8+/m0/s1
INCHIAUX=N/A
PUBMED=N/A
SUBMITUSER=mwang87
TAGS=
LIBRARYQUALITY=3
SPECTRUMID=CCMSLIB00000426737
SCANS=1709
127.115 100.0 
128.099 80.247 
END IONS

BEGIN IONS
PEPMASS=181.071
CHARGE=1+
MSLEVEL=2
SOURCE_INSTRUMENT=Positive-Quattro_QQQ:10eV
FILENAME=hmdb_intermediate.mgf
SEQ=*..*
IONMODE=Positive
ORGANISM=HMDB
NAME=HMDB:HMDB00660-900 D-Fructose M+H
PI=HMDB
DATACOLLECTOR=HMDB
SMILES=OC[C@H]1O[C@](O)(CO)[C@@H](O)[C@@H]1O
INCHI=InChI=1S/C6H12O6/c7-1-3-4(9)5(10)6(11,2-8)12-3/h3-5,7-11H,1-2H2/t3-,4-,5+,6-/m1/s1
INCHIAUX=N/A
PUBMED=N/A
SUBMITUSER=mwang87
TAGS=
LIBRARYQUALITY=3
SPECTRUMID=CCMSLIB00000426738
SCANS=1710
149.0 100.0 
END IONS

BEGIN IONS
PEPMASS=133.061
CHARGE=1+
MSLEVEL=2
SOURCE_INSTRUMENT=Positive-Quattro_QQQ:25eV
FILENAME=hmdb_intermediate.mgf
SEQ=*..*
IONMODE=Positive
ORGANISM=HMDB
NAME=HMDB:HMDB00168-267 L-Asparagine M+H
PI=HMDB
DATACOLLECTOR=HMDB
SMILES=N[C@@H](CC(N)=O)C(O)=O
INCHI=InChI=1S/C4H8N2O3/c5-2(4(8)9)1-3(6)7/h2H,1,5H2,(H2,6,7)(H,8,9)/t2-/m0/s1
INCHIAUX=N/A
PUBMED=N/A
SUBMITUSER=mwang87
TAGS=
LIBRARYQUALITY=3
SPECTRUMID=CCMSLIB00000426739
SCANS=1711
74.02 100.0 
END IONS

BEGIN IONS
PEPMASS=289.18
CHARGE=1+
MSLEVEL=2
SOURCE_INSTRUMENT=Positive-Quattro_QQQ:25eV
FILENAME=hmdb_intermediate.mgf
SEQ=*..*
IONMODE=Positive
ORGANISM=HMDB
NAME=HMDB:HMDB00338-544 2-Hydroxyestradiol M+H
PI=HMDB
DATACOLLECTOR=HMDB
SMILES=[H][C@@]12CC[C@H](O)[C@@]1(C)CC[C@]1([H])C3=C(CC[C@@]21[H])C=C(O)C(O)=C3
INCHI=InChI=1S/C18H24O3/c1-18-7-6-11-12(14(18)4-5-17(18)21)3-2-10-8-15(19)16(20)9-13(10)11/h8-9,11-12,14,17,19-21H,2-7H2,1H3/t11-,12+,14-,17-,18-/m0/s1
INCHIAUX=N/A
PUBMED=N/A
SUBMITUSER=mwang87
TAGS=
LIBRARYQUALITY=3
SPECTRUMID=CCMSLIB00000426740
SCANS=1712
95.519 53.315 
123.013 100.0 
123.994 79.454 
174.935 59.801 
END IONS

BEGIN IONS
PEPMASS=508.988
CHARGE=1+
MSLEVEL=2
SOURCE_INSTRUMENT=Positive-Quattro_QQQ:25eV
FILENAME=hmdb_intermediate.mgf
SEQ=*..*
IONMODE=Positive
ORGANISM=HMDB
NAME=HMDB:HMDB00189-299 Inosine triphosphate M+H
PI=HMDB
DATACOLLECTOR=HMDB
SMILES=O[C@@H]1[C@@H](COP(O)(=O)OP(O)(=O)OP(O)(O)=O)O[C@H]([C@@H]1O)N1C=NC2=C1N=CN=C2O
INCHI=InChI=1S/C10H15N4O14P3/c15-6-4(1-25-30(21,22)28-31(23,24)27-29(18,19)20)26-10(7(6)16)14-3-13-5-8(14)11-2-12-9(5)17/h2-4,6-7,10,15-16H,1H2,(H,21,22)(H,23,24)(H,11,12,17)(H2,18,19,20)/t4-,6-,7-,10-/m1/s1
INCHIAUX=N/A
PUBMED=N/A
SUBMITUSER=mwang87
TAGS=
LIBRARYQUALITY=3
SPECTRUMID=CCMSLIB00000426741
SCANS=1713
137.0 100.0 
END IONS

BEGIN IONS
PEPMASS=269.063
CHARGE=1+
MSLEVEL=2
SOURCE_INSTRUMENT=Positive-Quattro_QQQ:40eV
FILENAME=hmdb_intermediate.mgf
SEQ=*..*
IONMODE=Positive
ORGANISM=HMDB
NAME=HMDB:HMDB00575-805 DL-Homocystine M+H
PI=HMDB
DATACOLLECTOR=HMDB
SMILES=NC(CCSSCCC(N)C(O)=O)C(O)=O
INCHI=InChI=1S/C8H16N2O4S2/c9-5(7(11)12)1-3-15-16-4-2-6(10)8(13)14/h5-6H,1-4,9-10H2,(H,11,12)(H,13,14)
INCHIAUX=N/A
PUBMED=N/A
SUBMITUSER=mwang87
TAGS=
LIBRARYQUALITY=3
SPECTRUMID=CCMSLIB00000426742
SCANS=1714
87.0 100.0 
88.0 97.395 
END IONS

BEGIN IONS
PEPMASS=209.03
CHARGE=1+
MSLEVEL=2
SOURCE_INSTRUMENT=Negative-Quattro_QQQ:25eV
FILENAME=hmdb_intermediate.mgf
SEQ=*..*
IONMODE=Negative
ORGANISM=HMDB
NAME=HMDB:HMDB00639-874 Galactaric acid M-H
PI=HMDB
DATACOLLECTOR=HMDB
SMILES=O[C@@H]([C@@H](O)[C@H](O)C(O)=O)[C@@H](O)C(O)=O
INCHI=InChI=1S/C6H10O8/c7-1(3(9)5(11)12)2(8)4(10)6(13)14/h1-4,7-10H,(H,11,12)(H,13,14)/t1-,2+,3+,4-
INCHIAUX=N/A
PUBMED=N/A
SUBMITUSER=mwang87
TAGS=
LIBRARYQUALITY=3
SPECTRUMID=CCMSLIB00000426743
SCANS=1715
57.493 59.596 
59.457 52.778 
71.365 100.0 
85.294 73.737 
END IONS

BEGIN IONS
PEPMASS=219.113
CHARGE=1+
MSLEVEL=2
SOURCE_INSTRUMENT=Positive-Quattro_QQQ:40eV
FILENAME=hmdb_intermediate.mgf
SEQ=*..*
IONMODE=Positive
ORGANISM=HMDB
NAME=HMDB:HMDB01238-1480 N-Acetylserotonin M+H
PI=HMDB
DATACOLLECTOR=HMDB
SMILES=CC(=O)NCCC1=CNC2=C1C=C(O)C=C2
INCHI=InChI=1S/C12H14N2O2/c1-8(15)13-5-4-9-7-14-12-3-2-10(16)6-11(9)12/h2-3,6-7,14,16H,4-5H2,1H3,(H,13,15)
INCHIAUX=N/A
PUBMED=N/A
SUBMITUSER=mwang87
TAGS=
LIBRARYQUALITY=3
SPECTRUMID=CCMSLIB00000426744
SCANS=1716
115.0 100.0 
117.0 57.821 
END IONS

BEGIN IONS
PEPMASS=193.05
CHARGE=1+
MSLEVEL=2
SOURCE_INSTRUMENT=Negative-Quattro_QQQ:40eV
FILENAME=hmdb_intermediate.mgf
SEQ=*..*
IONMODE=Negative
ORGANISM=HMDB
NAME=HMDB:HMDB00955-1353 Isoferulic acid M-H
PI=HMDB
DATACOLLECTOR=HMDB
SMILES=COC1=C(O)C=C(\C=C\C(O)=O)C=C1
INCHI=InChI=1S/C10H10O4/c1-14-9-4-2-7(6-8(9)11)3-5-10(12)13/h2-6,11H,1H3,(H,12,13)/b5-3+
INCHIAUX=N/A
PUBMED=N/A
SUBMITUSER=mwang87
TAGS=
LIBRARYQUALITY=3
SPECTRUMID=CCMSLIB00000426745
SCANS=1717
132.982 100.0 
END IONS

BEGIN IONS
PEPMASS=301.217
CHARGE=1+
MSLEVEL=2
SOURCE_INSTRUMENT=Positive-Quattro_QQQ:40eV
FILENAME=hmdb_intermediate.mgf
SEQ=*..*
IONMODE=Positive
ORGANISM=HMDB
NAME=HMDB:HMDB01852-1719 All-trans-retinoic acid M+H
PI=HMDB
DATACOLLECTOR=HMDB
SMILES=C\C(\C=C\C1=C(C)CCCC1(C)C)=C/C=C/C(/C)=C/C(O)=O
INCHI=InChI=1S/C20H28O2/c1-15(8-6-9-16(2)14-19(21)22)11-12-18-17(3)10-7-13-20(18,4)5/h6,8-9,11-12,14H,7,10,13H2,1-5H3,(H,21,22)/b9-6+,12-11+,15-8+,16-14+
INCHIAUX=N/A
PUBMED=N/A
SUBMITUSER=mwang87
TAGS=
LIBRARYQUALITY=3
SPECTRUMID=CCMSLIB00000426746
SCANS=1718
68.874 75.922 
72.478 68.556 
81.798 53.259 
86.893 74.222 
109.262 62.323 
134.614 100.0 
END IONS

BEGIN IONS
PEPMASS=223.075
CHARGE=1+
MSLEVEL=2
SOURCE_INSTRUMENT=Positive-Quattro_QQQ:10eV
FILENAME=hmdb_intermediate.mgf
SEQ=*..*
IONMODE=Positive
ORGANISM=HMDB
NAME=HMDB:HMDB00455-665 Allocystathionine M+H
PI=HMDB
DATACOLLECTOR=HMDB
SMILES=N[C@@H](CCSCC(N)C(O)=O)C(O)=O
INCHI=InChI=1S/C7H14N2O4S/c8-4(6(10)11)1-2-14-3-5(9)7(12)13/h4-5H,1-3,8-9H2,(H,10,11)(H,12,13)/t4-,5?/m0/s1
INCHIAUX=N/A
PUBMED=N/A
SUBMITUSER=mwang87
TAGS=
LIBRARYQUALITY=3
SPECTRUMID=CCMSLIB00000426747
SCANS=1719
133.989 100.0 
222.975 85.446 
END IONS

BEGIN IONS
PEPMASS=152.071
CHARGE=1+
MSLEVEL=2
SOURCE_INSTRUMENT=Positive-Quattro_QQQ:25eV
FILENAME=hmdb_intermediate.mgf
SEQ=*..*
IONMODE=Positive
ORGANISM=HMDB
NAME=HMDB:HMDB01859-1733 Acetaminophen M+H
PI=HMDB
DATACOLLECTOR=HMDB
SMILES=CC(=O)NC1=CC=C(O)C=C1
INCHI=InChI=1S/C8H9NO2/c1-6(10)9-7-2-4-8(11)5-3-7/h2-5,11H,1H3,(H,9,10)
INCHIAUX=N/A
PUBMED=N/A
SUBMITUSER=mwang87
TAGS=
LIBRARYQUALITY=3
SPECTRUMID=CCMSLIB00000426748
SCANS=1720
110.492 100.0 
110.617 88.083 
152.098 62.749 
END IONS

BEGIN IONS
PEPMASS=153.076
CHARGE=1+
MSLEVEL=2
SOURCE_INSTRUMENT=Positive-Quattro_QQQ:10eV
FILENAME=hmdb_intermediate.mgf
SEQ=*..*
IONMODE=Positive
ORGANISM=HMDB
NAME=HMDB:HMDB00508-725 Ribitol M+H
PI=HMDB
DATACOLLECTOR=HMDB
SMILES=OC[C@H](O)[C@H](O)[C@H](O)CO
INCHI=InChI=1S/C5H12O5/c6-1-3(8)5(10)4(9)2-7/h3-10H,1-2H2/t3-,4+,5-
INCHIAUX=N/A
PUBMED=N/A
SUBMITUSER=mwang87
TAGS=
LIBRARYQUALITY=3
SPECTRUMID=CCMSLIB00000426749
SCANS=1721
99.086 100.0 
END IONS

BEGIN IONS
PEPMASS=170.082
CHARGE=1+
MSLEVEL=2
SOURCE_INSTRUMENT=Positive-Quattro_QQQ:10eV
FILENAME=hmdb_intermediate.mgf
SEQ=*..*
IONMODE=Positive
ORGANISM=HMDB
NAME=HMDB:HMDB00239-403 Pyridoxine M+H
PI=HMDB
DATACOLLECTOR=HMDB
SMILES=CC1=NC=C(CO)C(CO)=C1O
INCHI=InChI=1S/C8H11NO3/c1-5-8(12)7(4-11)6(3-10)2-9-5/h2,10-12H,3-4H2,1H3
INCHIAUX=N/A
PUBMED=N/A
SUBMITUSER=mwang87
TAGS=
LIBRARYQUALITY=3
SPECTRUMID=CCMSLIB00000426750
SCANS=1722
151.982 100.0 
169.988 100.0 
END IONS

BEGIN IONS
PEPMASS=148.061
CHARGE=1+
MSLEVEL=2
SOURCE_INSTRUMENT=Positive-Quattro_QQQ:10eV
FILENAME=hmdb_intermediate.mgf
SEQ=*..*
IONMODE=Positive
ORGANISM=HMDB
NAME=HMDB:HMDB02393-2098 N-Methyl-D-aspartic acid M+H
PI=HMDB
DATACOLLECTOR=HMDB
SMILES=CN[C@H](CC(O)=O)C(O)=O
INCHI=InChI=1S/C5H9NO4/c1-6-3(5(9)10)2-4(7)8/h3,6H,2H2,1H3,(H,7,8)(H,9,10)/t3-/m1/s1
INCHIAUX=N/A
PUBMED=N/A
SUBMITUSER=mwang87
TAGS=
LIBRARYQUALITY=3
SPECTRUMID=CCMSLIB00000426751
SCANS=1723
88.0 100.0 
END IONS

BEGIN IONS
PEPMASS=173.021
CHARGE=1+
MSLEVEL=2
SOURCE_INSTRUMENT=Positive-Quattro_QQQ:10eV
FILENAME=hmdb_intermediate.mgf
SEQ=*..*
IONMODE=Positive
ORGANISM=HMDB
NAME=HMDB:HMDB00126-189 Glycerol 3-phosphate M+H
PI=HMDB
DATACOLLECTOR=HMDB
SMILES=OC[C@@H](O)COP(O)(O)=O
INCHI=InChI=1S/C3H9O6P/c4-1-3(5)2-9-10(6,7)8/h3-5H,1-2H2,(H2,6,7,8)/t3-/m1/s1
INCHIAUX=N/A
PUBMED=N/A
SUBMITUSER=mwang87
TAGS=
LIBRARYQUALITY=3
SPECTRUMID=CCMSLIB00000426752
SCANS=1724
99.0 100.0 
END IONS

BEGIN IONS
PEPMASS=464.082
CHARGE=1+
MSLEVEL=2
SOURCE_INSTRUMENT=Positive-Quattro_QQQ:40eV
FILENAME=hmdb_intermediate.mgf
SEQ=*..*
IONMODE=Positive
ORGANISM=HMDB
NAME=HMDB:HMDB00536-760 Adenylsuccinic acid M+H
PI=HMDB
DATACOLLECTOR=HMDB
SMILES=O[C@@H]1[C@@H](COP(O)(O)=O)O[C@H]([C@@H]1O)N1C=NC2=C1N=CN=C2NC(CC(O)=O)C(O)=O
INCHI=InChI=1S/C14H18N5O11P/c20-7(21)1-5(14(24)25)18-11-8-12(16-3-15-11)19(4-17-8)13-10(23)9(22)6(30-13)2-29-31(26,27)28/h3-6,9-10,13,22-23H,1-2H2,(H,20,21)(H,24,25)(H,15,16,18)(H2,26,27,28)/t5?,6-,9-,10-,13-/m1/s1
INCHIAUX=N/A
PUBMED=N/A
SUBMITUSER=mwang87
TAGS=
LIBRARYQUALITY=3
SPECTRUMID=CCMSLIB00000426753
SCANS=1725
135.0 53.749 
161.0 86.658 
162.0 100.0 
191.0 79.367 
END IONS

BEGIN IONS
PEPMASS=130.109
CHARGE=1+
MSLEVEL=2
SOURCE_INSTRUMENT=Positive-Quattro_QQQ:10eV
FILENAME=hmdb_intermediate.mgf
SEQ=*..*
IONMODE=Positive
ORGANISM=HMDB
NAME=HMDB:HMDB01921-1843 1,1-Dimethylbiguanide M+H
PI=HMDB
DATACOLLECTOR=HMDB
SMILES=CN(C)C(=N)NC(N)=N
INCHI=InChI=1S/C4H11N5/c1-9(2)4(7)8-3(5)6/h1-2H3,(H5,5,6,7,8)
INCHIAUX=N/A
PUBMED=N/A
SUBMITUSER=mwang87
TAGS=
LIBRARYQUALITY=3
SPECTRUMID=CCMSLIB00000426754
SCANS=1726
130.14 100.0 
END IONS

BEGIN IONS
PEPMASS=165.092
CHARGE=1+
MSLEVEL=2
SOURCE_INSTRUMENT=Positive-Quattro_QQQ:10eV
FILENAME=hmdb_intermediate.mgf
SEQ=*..*
IONMODE=Positive
ORGANISM=HMDB
NAME=HMDB:HMDB01955-1908 3-Phenylbutyric acid M+H
PI=HMDB
DATACOLLECTOR=HMDB
SMILES=CC(CC(O)=O)C1=CC=CC=C1
INCHI=InChI=1S/C10H12O2/c1-8(7-10(11)12)9-5-3-2-4-6-9/h2-6,8H,7H2,1H3,(H,11,12)
INCHIAUX=N/A
PUBMED=N/A
SUBMITUSER=mwang87
TAGS=
LIBRARYQUALITY=3
SPECTRUMID=CCMSLIB00000426755
SCANS=1727
104.0 100.0 
END IONS

BEGIN IONS
PEPMASS=231.027
CHARGE=1+
MSLEVEL=2
SOURCE_INSTRUMENT=Positive-Quattro_QQQ:25eV
FILENAME=hmdb_intermediate.mgf
SEQ=*..*
IONMODE=Positive
ORGANISM=HMDB
NAME=HMDB:HMDB01548-1650 D-Ribose 5-phosphate M+H
PI=HMDB
DATACOLLECTOR=HMDB
SMILES=OC1O[C@H](COP(O)(O)=O)[C@@H](O)[C@H]1O
INCHI=InChI=1S/C5H11O8P/c6-3-2(1-12-14(9,10)11)13-5(8)4(3)7/h2-8H,1H2,(H2,9,10,11)/t2-,3-,4-,5?/m1/s1
INCHIAUX=N/A
PUBMED=N/A
SUBMITUSER=mwang87
TAGS=
LIBRARYQUALITY=3
SPECTRUMID=CCMSLIB00000426756
SCANS=1728
97.0 100.0 
END IONS

BEGIN IONS
PEPMASS=78.0377
CHARGE=1+
MSLEVEL=2
SOURCE_INSTRUMENT=Positive-Quattro_QQQ:10eV
FILENAME=hmdb_intermediate.mgf
SEQ=*..*
IONMODE=Positive
ORGANISM=HMDB
NAME=HMDB:HMDB02991-2176 Cysteamine M+H
PI=HMDB
DATACOLLECTOR=HMDB
SMILES=NCCS
INCHI=InChI=1S/C2H7NS/c3-1-2-4/h4H,1-3H2
INCHIAUX=N/A
PUBMED=N/A
SUBMITUSER=mwang87
TAGS=
LIBRARYQUALITY=3
SPECTRUMID=CCMSLIB00000426757
SCANS=1729
61.0 100.0 
END IONS

BEGIN IONS
PEPMASS=142.027
CHARGE=1+
MSLEVEL=2
SOURCE_INSTRUMENT=Positive-Quattro_QQQ:40eV
FILENAME=hmdb_intermediate.mgf
SEQ=*..*
IONMODE=Positive
ORGANISM=HMDB
NAME=HMDB:HMDB00224-372 O-Phosphoethanolamine M+H
PI=HMDB
DATACOLLECTOR=HMDB
SMILES=NCCOP(O)(O)=O
INCHI=InChI=1S/C2H8NO4P/c3-1-2-7-8(4,5)6/h1-3H2,(H2,4,5,6)
INCHIAUX=N/A
PUBMED=N/A
SUBMITUSER=mwang87
TAGS=
LIBRARYQUALITY=3
SPECTRUMID=CCMSLIB00000426758
SCANS=1730
44.628 100.0 
END IONS

BEGIN IONS
PEPMASS=104.071
CHARGE=1+
MSLEVEL=2
SOURCE_INSTRUMENT=Positive-Quattro_QQQ:25eV
FILENAME=hmdb_intermediate.mgf
SEQ=*..*
IONMODE=Positive
ORGANISM=HMDB
NAME=HMDB:HMDB00452-660 L-Alpha-aminobutyric acid M+H
PI=HMDB
DATACOLLECTOR=HMDB
SMILES=CC[C@H](N)C(O)=O
INCHI=InChI=1S/C4H9NO2/c1-2-3(5)4(6)7/h3H,2,5H2,1H3,(H,6,7)/t3-/m0/s1
INCHIAUX=N/A
PUBMED=N/A
SUBMITUSER=mwang87
TAGS=
LIBRARYQUALITY=3
SPECTRUMID=CCMSLIB00000426759
SCANS=1731
58.141 100.0 
END IONS

BEGIN IONS
PEPMASS=259.093
CHARGE=1+
MSLEVEL=2
SOURCE_INSTRUMENT=Positive-Quattro_QQQ:10eV
FILENAME=hmdb_intermediate.mgf
SEQ=*..*
IONMODE=Positive
ORGANISM=HMDB
NAME=HMDB:HMDB00884-1247 Ribothymidine M+H
PI=HMDB
DATACOLLECTOR=HMDB
SMILES=CC1=CN([C@@H]2O[C@H](CO)[C@@H](O)[C@H]2O)C(=O)NC1=O
INCHI=InChI=1S/C10H14N2O6/c1-4-2-12(10(17)11-8(4)16)9-7(15)6(14)5(3-13)18-9/h2,5-7,9,13-15H,3H2,1H3,(H,11,16,17)/t5-,6-,7-,9-/m1/s1
INCHIAUX=N/A
PUBMED=N/A
SUBMITUSER=mwang87
TAGS=
LIBRARYQUALITY=3
SPECTRUMID=CCMSLIB00000426760
SCANS=1732
127.019 100.0 
END IONS

BEGIN IONS
PEPMASS=325.311
CHARGE=1+
MSLEVEL=2
SOURCE_INSTRUMENT=Negative-Quattro_QQQ:25eV
FILENAME=hmdb_intermediate.mgf
SEQ=*..*
IONMODE=Negative
ORGANISM=HMDB
NAME=HMDB:HMDB02345-2068 Heneicosanoic acid M-H
PI=HMDB
DATACOLLECTOR=HMDB
SMILES=CCCCCCCCCCCCCCCCCCCCC(O)=O
INCHI=InChI=1S/C21H42O2/c1-2-3-4-5-6-7-8-9-10-11-12-13-14-15-16-17-18-19-20-21(22)23/h2-20H2,1H3,(H,22,23)
INCHIAUX=N/A
PUBMED=N/A
SUBMITUSER=mwang87
TAGS=
LIBRARYQUALITY=3
SPECTRUMID=CCMSLIB00000426761
SCANS=1733
325.0 100.0 
END IONS

BEGIN IONS
PEPMASS=164.057
CHARGE=1+
MSLEVEL=2
SOURCE_INSTRUMENT=Positive-Quattro_QQQ:25eV
FILENAME=hmdb_intermediate.mgf
SEQ=*..*
IONMODE=Positive
ORGANISM=HMDB
NAME=HMDB:HMDB00802-1142 Pterin M+H
PI=HMDB
DATACOLLECTOR=HMDB
SMILES=NC1=NC2=NC=CN=C2C(=O)N1
INCHI=InChI=1S/C6H5N5O/c7-6-10-4-3(5(12)11-6)8-1-2-9-4/h1-2H,(H3,7,9,10,11,12)
INCHIAUX=N/A
PUBMED=N/A
SUBMITUSER=mwang87
TAGS=
LIBRARYQUALITY=3
SPECTRUMID=CCMSLIB00000426762
SCANS=1734
118.986 100.0 
END IONS

BEGIN IONS
PEPMASS=171.139
CHARGE=1+
MSLEVEL=2
SOURCE_INSTRUMENT=Positive-Quattro_QQQ:10eV
FILENAME=hmdb_intermediate.mgf
SEQ=*..*
IONMODE=Positive
ORGANISM=HMDB
NAME=HMDB:HMDB04980-2415 cis-4-Decenoic acid M+H
PI=HMDB
DATACOLLECTOR=HMDB
SMILES=CCCCC\C=C/CCC(O)=O
INCHI=InChI=1S/C10H18O2/c1-2-3-4-5-6-7-8-9-10(11)12/h6-7H,2-5,8-9H2,1H3,(H,11,12)/b7-6-
INCHIAUX=N/A
PUBMED=N/A
SUBMITUSER=mwang87
TAGS=
LIBRARYQUALITY=3
SPECTRUMID=CCMSLIB00000426763
SCANS=1735
142.0 100.0 
170.0 81.387 
END IONS

BEGIN IONS
PEPMASS=238.094
CHARGE=1+
MSLEVEL=2
SOURCE_INSTRUMENT=Positive-Quattro_QQQ:10eV
FILENAME=hmdb_intermediate.mgf
SEQ=*..*
IONMODE=Positive
ORGANISM=HMDB
NAME=HMDB:HMDB00468-680 Biopterin M+H
PI=HMDB
DATACOLLECTOR=HMDB
SMILES=C[C@H](O)[C@H](O)C1=NC2=C(NC(N)=NC2=O)N=C1
INCHI=InChI=1S/C9H11N5O3/c1-3(15)6(16)4-2-11-7-5(12-4)8(17)14-9(10)13-7/h2-3,6,15-16H,1H3,(H3,10,11,13,14,17)/t3-,6-/m0/s1
INCHIAUX=N/A
PUBMED=N/A
SUBMITUSER=mwang87
TAGS=
LIBRARYQUALITY=3
SPECTRUMID=CCMSLIB00000426764
SCANS=1736
237.943 100.0 
END IONS

BEGIN IONS
PEPMASS=85.0653
CHARGE=1+
MSLEVEL=2
SOURCE_INSTRUMENT=Positive-Quattro_QQQ:25eV
FILENAME=hmdb_intermediate.mgf
SEQ=*..*
IONMODE=Positive
ORGANISM=HMDB
NAME=HMDB:HMDB01184-1452 Methyl propenyl ketone M+H
PI=HMDB
DATACOLLECTOR=HMDB
SMILES=C\C=C\C(C)=O
INCHI=InChI=1S/C5H8O/c1-3-4-5(2)6/h3-4H,1-2H3/b4-3+
INCHIAUX=N/A
PUBMED=N/A
SUBMITUSER=mwang87
TAGS=
LIBRARYQUALITY=3
SPECTRUMID=CCMSLIB00000426765
SCANS=1737
43.152 100.0 
END IONS

BEGIN IONS
PEPMASS=169.05
CHARGE=1+
MSLEVEL=2
SOURCE_INSTRUMENT=Positive-Quattro_QQQ:10eV
FILENAME=hmdb_intermediate.mgf
SEQ=*..*
IONMODE=Positive
ORGANISM=HMDB
NAME=HMDB:HMDB01336-1519 3,4-Dihydroxybenzeneacetic acid M+H
PI=HMDB
DATACOLLECTOR=HMDB
SMILES=OC(=O)CC1=CC=C(O)C(O)=C1
INCHI=InChI=1S/C8H8O4/c9-6-2-1-5(3-7(6)10)4-8(11)12/h1-3,9-10H,4H2,(H,11,12)
INCHIAUX=N/A
PUBMED=N/A
SUBMITUSER=mwang87
TAGS=
LIBRARYQUALITY=3
SPECTRUMID=CCMSLIB00000426766
SCANS=1738
123.0 100.0 
END IONS

BEGIN IONS
PEPMASS=173.081
CHARGE=1+
MSLEVEL=2
SOURCE_INSTRUMENT=Positive-Quattro_QQQ:40eV
FILENAME=hmdb_intermediate.mgf
SEQ=*..*
IONMODE=Positive
ORGANISM=HMDB
NAME=HMDB:HMDB00341-551 2-Octenedioic acid M+H
PI=HMDB
DATACOLLECTOR=HMDB
SMILES=OC(=O)CCCC\C=C\C(O)=O
INCHI=InChI=1S/C8H12O4/c9-7(10)5-3-1-2-4-6-8(11)12/h3,5H,1-2,4,6H2,(H,9,10)(H,11,12)/b5-3+
INCHIAUX=N/A
PUBMED=N/A
SUBMITUSER=mwang87
TAGS=
LIBRARYQUALITY=3
SPECTRUMID=CCMSLIB00000426767
SCANS=1739
41.0 100.0 
55.0 67.235 
67.0 73.392 
79.0 93.7 
81.0 70.688 
END IONS

BEGIN IONS
PEPMASS=370.084
CHARGE=1+
MSLEVEL=2
SOURCE_INSTRUMENT=Positive-Quattro_QQQ:40eV
FILENAME=hmdb_intermediate.mgf
SEQ=*..*
IONMODE=Positive
ORGANISM=HMDB
NAME=HMDB:HMDB05008-2441 Lansoprazole M+H
PI=HMDB
DATACOLLECTOR=HMDB
SMILES=CC1=C(OCC(F)(F)F)C=CN=C1CS(=O)C1=NC2=CC=CC=C2N1
INCHI=InChI=1S/C16H14F3N3O2S/c1-10-13(20-7-6-14(10)24-9-16(17,18)19)8-25(23)15-21-11-4-2-3-5-12(11)22-15/h2-7H,8-9H2,1H3,(H,21,22)
INCHIAUX=N/A
PUBMED=N/A
SUBMITUSER=mwang87
TAGS=
LIBRARYQUALITY=3
SPECTRUMID=CCMSLIB00000426768
SCANS=1740
118.88 53.384 
135.48 50.045 
135.71 100.0 
233.5 71.099 
END IONS

BEGIN IONS
PEPMASS=147.077
CHARGE=1+
MSLEVEL=2
SOURCE_INSTRUMENT=Positive-Quattro_QQQ:40eV
FILENAME=hmdb_intermediate.mgf
SEQ=*..*
IONMODE=Positive
ORGANISM=HMDB
NAME=HMDB:HMDB00641-881 L-Glutamine M+H
PI=HMDB
DATACOLLECTOR=HMDB
SMILES=N[C@@H](CCC(N)=O)C(O)=O
INCHI=InChI=1S/C5H10N2O3/c6-3(5(9)10)1-2-4(7)8/h3H,1-2,6H2,(H2,7,8)(H,9,10)/t3-/m0/s1
INCHIAUX=N/A
PUBMED=N/A
SUBMITUSER=mwang87
TAGS=
LIBRARYQUALITY=3
SPECTRUMID=CCMSLIB00000426769
SCANS=1741
56.175 100.0 
84.015 67.416 
END IONS

BEGIN IONS
PEPMASS=391.285
CHARGE=1+
MSLEVEL=2
SOURCE_INSTRUMENT=Negative-Quattro_QQQ:25eV
FILENAME=hmdb_intermediate.mgf
SEQ=*..*
IONMODE=Negative
ORGANISM=HMDB
NAME=HMDB:HMDB00626-853 Deoxycholic acid M-H
PI=HMDB
DATACOLLECTOR=HMDB
SMILES=[H][C@@]12CC[C@H]([C@H](C)CCC(O)=O)[C@@]1(C)[C@@H](O)C[C@@]1([H])[C@@]2([H])CC[C@]2([H])C[C@H](O)CC[C@]12C
INCHI=InChI=1S/C24H40O4/c1-14(4-9-22(27)28)18-7-8-19-17-6-5-15-12-16(25)10-11-23(15,2)20(17)13-21(26)24(18,19)3/h14-21,25-26H,4-13H2,1-3H3,(H,27,28)/t14-,15-,16-,17+,18-,19+,20+,21+,23+,24-/m1/s1
INCHIAUX=N/A
PUBMED=N/A
SUBMITUSER=mwang87
TAGS=
LIBRARYQUALITY=3
SPECTRUMID=CCMSLIB00000426770
SCANS=1742
391.316 100.0 
END IONS

BEGIN IONS
PEPMASS=168.102
CHARGE=1+
MSLEVEL=2
SOURCE_INSTRUMENT=Positive-Quattro_QQQ:25eV
FILENAME=hmdb_intermediate.mgf
SEQ=*..*
IONMODE=Positive
ORGANISM=HMDB
NAME=HMDB:HMDB00022-40 3-Methoxytyramine M+H
PI=HMDB
DATACOLLECTOR=HMDB
SMILES=COC1=C(O)C=CC(CCN)=C1
INCHI=InChI=1S/C9H13NO2/c1-12-9-6-7(4-5-10)2-3-8(9)11/h2-3,6,11H,4-5,10H2,1H3
INCHIAUX=N/A
PUBMED=N/A
SUBMITUSER=mwang87
TAGS=
LIBRARYQUALITY=3
SPECTRUMID=CCMSLIB00000426771
SCANS=1743
91.096 100.0 
END IONS

BEGIN IONS
PEPMASS=181.05
CHARGE=1+
MSLEVEL=2
SOURCE_INSTRUMENT=Positive-Quattro_QQQ:10eV
FILENAME=hmdb_intermediate.mgf
SEQ=*..*
IONMODE=Positive
ORGANISM=HMDB
NAME=HMDB:HMDB01964-1911 Caffeic acid M+H
PI=HMDB
DATACOLLECTOR=HMDB
SMILES=OC(=O)\C=C/C1=CC=C(O)C(O)=C1
INCHI=InChI=1S/C9H8O4/c10-7-3-1-6(5-8(7)11)2-4-9(12)13/h1-5,10-11H,(H,12,13)/b4-2-
INCHIAUX=N/A
PUBMED=N/A
SUBMITUSER=mwang87
TAGS=
LIBRARYQUALITY=3
SPECTRUMID=CCMSLIB00000426772
SCANS=1744
162.0 100.0 
END IONS

BEGIN IONS
PEPMASS=80.9646
CHARGE=1+
MSLEVEL=2
SOURCE_INSTRUMENT=Positive-Quattro_QQQ:25eV
FILENAME=hmdb_intermediate.mgf
SEQ=*..*
IONMODE=Positive
ORGANISM=HMDB
NAME=HMDB:HMDB00240-407 Sulfite M+H
PI=HMDB
DATACOLLECTOR=HMDB
SMILES=[O-]S([O-])=O
INCHI=InChI=1S/H2O3S/c1-4(2)3/h(H2,1,2,3)/p-2
INCHIAUX=N/A
PUBMED=N/A
SUBMITUSER=mwang87
TAGS=
LIBRARYQUALITY=3
SPECTRUMID=CCMSLIB00000426773
SCANS=1745
81.377 100.0 
END IONS

BEGIN IONS
PEPMASS=293.248
CHARGE=1+
MSLEVEL=2
SOURCE_INSTRUMENT=Positive-Quattro_QQQ:40eV
FILENAME=hmdb_intermediate.mgf
SEQ=*..*
IONMODE=Positive
ORGANISM=HMDB
NAME=HMDB:HMDB00493-715 5a-Androstane-3b,17b-diol M+H
PI=HMDB
DATACOLLECTOR=HMDB
SMILES=[H][C@@]12CC[C@H](O)[C@@]1(C)CC[C@@]1([H])[C@@]2([H])CC[C@@]2([H])C[C@@H](O)CC[C@]12C
INCHI=InChI=1S/C19H32O2/c1-18-9-7-13(20)11-12(18)3-4-14-15-5-6-17(21)19(15,2)10-8-16(14)18/h12-17,20-21H,3-11H2,1-2H3/t12-,13-,14-,15-,16-,17-,18-,19-/m0/s1
INCHIAUX=N/A
PUBMED=N/A
SUBMITUSER=mwang87
TAGS=
LIBRARYQUALITY=3
SPECTRUMID=CCMSLIB00000426774
SCANS=1746
55.141 75.756 
97.974 93.506 
155.908 70.992 
165.36 100.0 
END IONS

BEGIN IONS
PEPMASS=229.082
CHARGE=1+
MSLEVEL=2
SOURCE_INSTRUMENT=Positive-Quattro_QQQ:40eV
FILENAME=hmdb_intermediate.mgf
SEQ=*..*
IONMODE=Positive
ORGANISM=HMDB
NAME=HMDB:HMDB00012-21 Deoxyuridine M+H
PI=HMDB
DATACOLLECTOR=HMDB
SMILES=OC[C@H]1O[C@H](C[C@@H]1O)N1C=CC(=O)NC1=O
INCHI=InChI=1S/C9H12N2O5/c12-4-6-5(13)3-8(16-6)11-2-1-7(14)10-9(11)15/h1-2,5-6,8,12-13H,3-4H2,(H,10,14,15)/t5-,6+,8+/m0/s1
INCHIAUX=N/A
PUBMED=N/A
SUBMITUSER=mwang87
TAGS=
LIBRARYQUALITY=3
SPECTRUMID=CCMSLIB00000426775
SCANS=1747
43.356 74.057 
45.323 70.755 
70.086 100.0 
95.997 57.547 
113.017 81.604 
END IONS

BEGIN IONS
PEPMASS=324.06
CHARGE=1+
MSLEVEL=2
SOURCE_INSTRUMENT=Positive-Quattro_QQQ:10eV
FILENAME=hmdb_intermediate.mgf
SEQ=*..*
IONMODE=Positive
ORGANISM=HMDB
NAME=HMDB:HMDB00095-147 Cytidine monophosphate M+H
PI=HMDB
DATACOLLECTOR=HMDB
SMILES=NC1=NC(=O)N(C=C1)[C@@H]1O[C@H](COP(O)(O)=O)[C@@H](O)[C@H]1O
INCHI=InChI=1S/C9H14N3O8P/c10-5-1-2-12(9(15)11-5)8-7(14)6(13)4(20-8)3-19-21(16,17)18/h1-2,4,6-8,13-14H,3H2,(H2,10,11,15)(H2,16,17,18)/t4-,6-,7-,8-/m1/s1
INCHIAUX=N/A
PUBMED=N/A
SUBMITUSER=mwang87
TAGS=
LIBRARYQUALITY=3
SPECTRUMID=CCMSLIB00000426776
SCANS=1748
112.0 100.0 
END IONS

BEGIN IONS
PEPMASS=291.232
CHARGE=1+
MSLEVEL=2
SOURCE_INSTRUMENT=Positive-Quattro_QQQ:40eV
FILENAME=hmdb_intermediate.mgf
SEQ=*..*
IONMODE=Positive
ORGANISM=HMDB
NAME=HMDB:HMDB00490-709 Etiocholanolone M+H
PI=HMDB
DATACOLLECTOR=HMDB
SMILES=[H][C@@]12CCC(=O)[C@@]1(C)CC[C@@]1([H])[C@@]2([H])CC[C@]2([H])C[C@H](O)CC[C@]12C
INCHI=InChI=1S/C19H30O2/c1-18-9-7-13(20)11-12(18)3-4-14-15-5-6-17(21)19(15,2)10-8-16(14)18/h12-16,20H,3-11H2,1-2H3/t12-,13-,14+,15+,16+,18+,19+/m1/s1
INCHIAUX=N/A
PUBMED=N/A
SUBMITUSER=mwang87
TAGS=
LIBRARYQUALITY=3
SPECTRUMID=CCMSLIB00000426777
SCANS=1749
55.683 50.396 
90.41 50.396 
90.658 57.398 
104.994 99.911 
117.353 59.672 
118.96 100.0 
133.668 72.178 
END IONS

BEGIN IONS
PEPMASS=137.024
CHARGE=1+
MSLEVEL=2
SOURCE_INSTRUMENT=Negative-Quattro_QQQ:40eV
FILENAME=hmdb_intermediate.mgf
SEQ=*..*
IONMODE=Negative
ORGANISM=HMDB
NAME=HMDB:HMDB01895-1812 Salicylic acid M-H
PI=HMDB
DATACOLLECTOR=HMDB
SMILES=OC(=O)C1=CC=CC=C1O
INCHI=InChI=1S/C7H6O3/c8-6-4-2-1-3-5(6)7(9)10/h1-4,8H,(H,9,10)
INCHIAUX=N/A
PUBMED=N/A
SUBMITUSER=mwang87
TAGS=
LIBRARYQUALITY=3
SPECTRUMID=CCMSLIB00000426778
SCANS=1750
65.231 100.0 
END IONS

BEGIN IONS
PEPMASS=331.227
CHARGE=1+
MSLEVEL=2
SOURCE_INSTRUMENT=Positive-Quattro_QQQ:10eV
FILENAME=hmdb_intermediate.mgf
SEQ=*..*
IONMODE=Positive
ORGANISM=HMDB
NAME=HMDB:HMDB00374-588 17-Hydroxyprogesterone M+H
PI=HMDB
DATACOLLECTOR=HMDB
SMILES=[H][C@@]12CC[C@](O)(C(C)=O)[C@@]1(C)CC[C@@]1([H])[C@@]2([H])CCC2=CC(=O)CC[C@]12C
INCHI=InChI=1S/C21H30O3/c1-13(22)21(24)11-8-18-16-5-4-14-12-15(23)6-9-19(14,2)17(16)7-10-20(18,21)3/h12,16-18,24H,4-11H2,1-3H3/t16-,17+,18+,19+,20+,21+/m1/s1
INCHIAUX=N/A
PUBMED=N/A
SUBMITUSER=mwang87
TAGS=
LIBRARYQUALITY=3
SPECTRUMID=CCMSLIB00000426779
SCANS=1751
331.289 100.0 
END IONS

BEGIN IONS
PEPMASS=90.0555
CHARGE=1+
MSLEVEL=2
SOURCE_INSTRUMENT=Positive-Quattro_QQQ:10eV
FILENAME=hmdb_intermediate.mgf
SEQ=*..*
IONMODE=Positive
ORGANISM=HMDB
NAME=HMDB:HMDB00161-251 L-Alanine M+H
PI=HMDB
DATACOLLECTOR=HMDB
SMILES=C[C@H](N)C(O)=O
INCHI=InChI=1S/C3H7NO2/c1-2(4)3(5)6/h2H,4H2,1H3,(H,5,6)/t2-/m0/s1
INCHIAUX=N/A
PUBMED=N/A
SUBMITUSER=mwang87
TAGS=
LIBRARYQUALITY=3
SPECTRUMID=CCMSLIB00000426780
SCANS=1752
44.286 100.0 
END IONS

BEGIN IONS
PEPMASS=156.077
CHARGE=1+
MSLEVEL=2
SOURCE_INSTRUMENT=Positive-Quattro_QQQ:10eV
FILENAME=hmdb_intermediate.mgf
SEQ=*..*
IONMODE=Positive
ORGANISM=HMDB
NAME=HMDB:HMDB00177-283 L-Histidine M+H
PI=HMDB
DATACOLLECTOR=HMDB
SMILES=N[C@@H](CC1=CNC=N1)C(O)=O
INCHI=InChI=1S/C6H9N3O2/c7-5(6(10)11)1-4-2-8-3-9-4/h2-3,5H,1,7H2,(H,8,9)(H,10,11)/t5-/m0/s1
INCHIAUX=N/A
PUBMED=N/A
SUBMITUSER=mwang87
TAGS=
LIBRARYQUALITY=3
SPECTRUMID=CCMSLIB00000426781
SCANS=1753
109.974 100.0 
155.903 100.0 
END IONS

BEGIN IONS
PEPMASS=137.045
CHARGE=1+
MSLEVEL=2
SOURCE_INSTRUMENT=Positive-Quattro_QQQ:10eV
FILENAME=hmdb_intermediate.mgf
SEQ=*..*
IONMODE=Positive
ORGANISM=HMDB
NAME=HMDB:HMDB00943-1336 Threonic acid M+H
PI=HMDB
DATACOLLECTOR=HMDB
SMILES=OC[C@@H](O)[C@H](O)C(O)=O
INCHI=InChI=1S/C4H8O5/c5-1-2(6)3(7)4(8)9/h2-3,5-7H,1H2,(H,8,9)/t2-,3+/m1/s1
INCHIAUX=N/A
PUBMED=N/A
SUBMITUSER=mwang87
TAGS=
LIBRARYQUALITY=3
SPECTRUMID=CCMSLIB00000426782
SCANS=1754
67.964 52.888 
68.587 55.906 
94.259 51.607 
94.633 77.503 
95.755 100.0 
120.182 54.245 
137.256 68.746 
END IONS

BEGIN IONS
PEPMASS=220.118
CHARGE=1+
MSLEVEL=2
SOURCE_INSTRUMENT=Positive-Quattro_QQQ:40eV
FILENAME=hmdb_intermediate.mgf
SEQ=*..*
IONMODE=Positive
ORGANISM=HMDB
NAME=HMDB:HMDB00210-342 Pantothenic acid M+H
PI=HMDB
DATACOLLECTOR=HMDB
SMILES=CC(C)(CO)C(O)C(=O)NCCC(O)=O
INCHI=InChI=1S/C9H17NO5/c1-9(2,5-11)7(14)8(15)10-4-3-6(12)13/h7,11,14H,3-5H2,1-2H3,(H,10,15)(H,12,13)
INCHIAUX=N/A
PUBMED=N/A
SUBMITUSER=mwang87
TAGS=
LIBRARYQUALITY=3
SPECTRUMID=CCMSLIB00000426783
SCANS=1755
41.366 62.162 
43.279 66.667 
67.147 71.171 
70.059 100.0 
END IONS

BEGIN IONS
PEPMASS=148.061
CHARGE=1+
MSLEVEL=2
SOURCE_INSTRUMENT=Positive-Quattro_QQQ:40eV
FILENAME=hmdb_intermediate.mgf
SEQ=*..*
IONMODE=Positive
ORGANISM=HMDB
NAME=HMDB:HMDB02393-2100 N-Methyl-D-aspartic acid M+H
PI=HMDB
DATACOLLECTOR=HMDB
SMILES=CN[C@H](CC(O)=O)C(O)=O
INCHI=InChI=1S/C5H9NO4/c1-6-3(5(9)10)2-4(7)8/h3,6H,2H2,1H3,(H,7,8)(H,9,10)/t3-/m1/s1
INCHIAUX=N/A
PUBMED=N/A
SUBMITUSER=mwang87
TAGS=
LIBRARYQUALITY=3
SPECTRUMID=CCMSLIB00000426784
SCANS=1756
42.0 100.0 
END IONS

BEGIN IONS
PEPMASS=118.98
CHARGE=1+
MSLEVEL=2
SOURCE_INSTRUMENT=Negative-Quattro_QQQ:40eV
FILENAME=hmdb_intermediate.mgf
SEQ=*..*
IONMODE=Negative
ORGANISM=HMDB
NAME=HMDB:HMDB01368-1536 3-Mercaptopyruvic acid M-H
PI=HMDB
DATACOLLECTOR=HMDB
SMILES=OC(=O)C(=O)CS
INCHI=InChI=1S/C3H4O3S/c4-2(1-7)3(5)6/h7H,1H2,(H,5,6)
INCHIAUX=N/A
PUBMED=N/A
SUBMITUSER=mwang87
TAGS=
LIBRARYQUALITY=3
SPECTRUMID=CCMSLIB00000426785
SCANS=1757
33.0 100.0 
END IONS

BEGIN IONS
PEPMASS=184.985
CHARGE=1+
MSLEVEL=2
SOURCE_INSTRUMENT=Negative-Quattro_QQQ:25eV
FILENAME=hmdb_intermediate.mgf
SEQ=*..*
IONMODE=Negative
ORGANISM=HMDB
NAME=HMDB:HMDB00807-1153 3-Phosphoglyceric acid M-H
PI=HMDB
DATACOLLECTOR=HMDB
SMILES=OC(COP(O)(O)=O)C(O)=O
INCHI=InChI=1S/C3H7O7P/c4-2(3(5)6)1-10-11(7,8)9/h2,4H,1H2,(H,5,6)(H2,7,8,9)
INCHIAUX=N/A
PUBMED=N/A
SUBMITUSER=mwang87
TAGS=
LIBRARYQUALITY=3
SPECTRUMID=CCMSLIB00000426786
SCANS=1758
79.0 100.0 
97.0 55.793 
END IONS

BEGIN IONS
PEPMASS=146.166
CHARGE=1+
MSLEVEL=2
SOURCE_INSTRUMENT=Positive-Quattro_QQQ:25eV
FILENAME=hmdb_intermediate.mgf
SEQ=*..*
IONMODE=Positive
ORGANISM=HMDB
NAME=HMDB:HMDB01257-1491 Spermidine M+H
PI=HMDB
DATACOLLECTOR=HMDB
SMILES=NCCCCNCCCN
INCHI=InChI=1S/C7H19N3/c8-4-1-2-6-10-7-3-5-9/h10H,1-9H2
INCHIAUX=N/A
PUBMED=N/A
SUBMITUSER=mwang87
TAGS=
LIBRARYQUALITY=3
SPECTRUMID=CCMSLIB00000426787
SCANS=1759
72.0 100.0 
END IONS

BEGIN IONS
PEPMASS=89.0603
CHARGE=1+
MSLEVEL=2
SOURCE_INSTRUMENT=Positive-Quattro_QQQ:25eV
FILENAME=hmdb_intermediate.mgf
SEQ=*..*
IONMODE=Positive
ORGANISM=HMDB
NAME=HMDB:HMDB01873-1763 Isobutyric acid M+H
PI=HMDB
DATACOLLECTOR=HMDB
SMILES=CC(C)C(O)=O
INCHI=InChI=1S/C4H8O2/c1-3(2)4(5)6/h3H,1-2H3,(H,5,6)
INCHIAUX=N/A
PUBMED=N/A
SUBMITUSER=mwang87
TAGS=
LIBRARYQUALITY=3
SPECTRUMID=CCMSLIB00000426788
SCANS=1760
55.146 100.0 
57.135 50.74 
END IONS

BEGIN IONS
PEPMASS=118.087
CHARGE=1+
MSLEVEL=2
SOURCE_INSTRUMENT=Positive-Quattro_QQQ:40eV
FILENAME=hmdb_intermediate.mgf
SEQ=*..*
IONMODE=Positive
ORGANISM=HMDB
NAME=HMDB:HMDB00883-1246 L-Valine M+H
PI=HMDB
DATACOLLECTOR=HMDB
SMILES=CC(C)[C@H](N)C(O)=O
INCHI=InChI=1S/C5H11NO2/c1-3(2)4(6)5(7)8/h3-4H,6H2,1-2H3,(H,7,8)/t4-/m0/s1
INCHIAUX=N/A
PUBMED=N/A
SUBMITUSER=mwang87
TAGS=
LIBRARYQUALITY=3
SPECTRUMID=CCMSLIB00000426789
SCANS=1761
55.227 100.0 
57.162 74.648 
72.013 54.93 
END IONS

BEGIN IONS
PEPMASS=133.05
CHARGE=1+
MSLEVEL=2
SOURCE_INSTRUMENT=Positive-Quattro_QQQ:25eV
FILENAME=hmdb_intermediate.mgf
SEQ=*..*
IONMODE=Positive
ORGANISM=HMDB
NAME=HMDB:HMDB01844-1697 Methylsuccinic acid M+H
PI=HMDB
DATACOLLECTOR=HMDB
SMILES=CC(CC(O)=O)C(O)=O
INCHI=InChI=1S/C5H8O4/c1-3(5(8)9)2-4(6)7/h3H,2H2,1H3,(H,6,7)(H,8,9)
INCHIAUX=N/A
PUBMED=N/A
SUBMITUSER=mwang87
TAGS=
LIBRARYQUALITY=3
SPECTRUMID=CCMSLIB00000426790
SCANS=1762
87.1 100.0 
115.0 75.4686896841 
END IONS

BEGIN IONS
PEPMASS=61.0653
CHARGE=1+
MSLEVEL=2
SOURCE_INSTRUMENT=Positive-Quattro_QQQ:40eV
FILENAME=hmdb_intermediate.mgf
SEQ=*..*
IONMODE=Positive
ORGANISM=HMDB
NAME=HMDB:HMDB00863-1219 Isopropyl alcohol M+H
PI=HMDB
DATACOLLECTOR=HMDB
SMILES=CC(C)O
INCHI=InChI=1S/C3H8O/c1-3(2)4/h3-4H,1-2H3
INCHIAUX=N/A
PUBMED=N/A
SUBMITUSER=mwang87
TAGS=
LIBRARYQUALITY=3
SPECTRUMID=CCMSLIB00000426791
SCANS=1763
59.0 52.32 
60.0 100.0 
61.0 65.502 
END IONS

BEGIN IONS
PEPMASS=157.014
CHARGE=1+
MSLEVEL=2
SOURCE_INSTRUMENT=Positive-Quattro_QQQ:40eV
FILENAME=hmdb_intermediate.mgf
SEQ=*..*
IONMODE=Positive
ORGANISM=HMDB
NAME=HMDB:HMDB04812-2405 2,5-Furandicarboxylic acid M+H
PI=HMDB
DATACOLLECTOR=HMDB
SMILES=OC(=O)C1=CC=C(O1)C(O)=O
INCHI=InChI=1S/C6H4O5/c7-5(8)3-1-2-4(11-3)6(9)10/h1-2H,(H,7,8)(H,9,10)
INCHIAUX=N/A
PUBMED=N/A
SUBMITUSER=mwang87
TAGS=
LIBRARYQUALITY=3
SPECTRUMID=CCMSLIB00000426792
SCANS=1764
39.41 100.0 
END IONS

BEGIN IONS
PEPMASS=177.051
CHARGE=1+
MSLEVEL=2
SOURCE_INSTRUMENT=Positive-Quattro_QQQ:10eV
FILENAME=hmdb_intermediate.mgf
SEQ=*..*
IONMODE=Positive
ORGANISM=HMDB
NAME=HMDB:HMDB00828-1178 Ureidosuccinic acid M+H
PI=HMDB
DATACOLLECTOR=HMDB
SMILES=NC(=O)N[C@@H](CC(O)=O)C(O)=O
INCHI=InChI=1S/C5H8N2O5/c6-5(12)7-2(4(10)11)1-3(8)9/h2H,1H2,(H,8,9)(H,10,11)(H3,6,7,12)/t2-/m0/s1
INCHIAUX=N/A
PUBMED=N/A
SUBMITUSER=mwang87
TAGS=
LIBRARYQUALITY=3
SPECTRUMID=CCMSLIB00000426793
SCANS=1765
133.889 100.0 
END IONS

BEGIN IONS
PEPMASS=373.191
CHARGE=1+
MSLEVEL=2
SOURCE_INSTRUMENT=Positive-Quattro_QQQ:25eV
FILENAME=hmdb_intermediate.mgf
SEQ=*..*
IONMODE=Positive
ORGANISM=HMDB
NAME=HMDB:HMDB03134-2201 Biocytin M+H
PI=HMDB
DATACOLLECTOR=HMDB
SMILES=[H][C@]12CS[C@@H](CCCCC(=O)NCCCC[C@H](N)C(O)=O)[C@@]1([H])NC(=O)N2
INCHI=InChI=1S/C16H28N4O4S/c17-10(15(22)23)5-3-4-8-18-13(21)7-2-1-6-12-14-11(9-25-12)19-16(24)20-14/h10-12,14H,1-9,17H2,(H,18,21)(H,22,23)(H2,19,20,24)/t10-,11-,12-,14-/m0/s1
INCHIAUX=N/A
PUBMED=N/A
SUBMITUSER=mwang87
TAGS=
LIBRARYQUALITY=3
SPECTRUMID=CCMSLIB00000426794
SCANS=1766
83.0 100.0 
226.0 65.805 
END IONS

BEGIN IONS
PEPMASS=181.086
CHARGE=1+
MSLEVEL=2
SOURCE_INSTRUMENT=Positive-Quattro_QQQ:10eV
FILENAME=hmdb_intermediate.mgf
SEQ=*..*
IONMODE=Positive
ORGANISM=HMDB
NAME=HMDB:HMDB11751-2502 3-Methoxybenzenepropanoic acid M+H
PI=HMDB
DATACOLLECTOR=HMDB
SMILES=COC1=CC(CCC(O)=O)=CC=C1
INCHI=InChI=1S/C10H12O3/c1-13-9-4-2-3-8(7-9)5-6-10(11)12/h2-4,7H,5-6H2,1H3,(H,11,12)
INCHIAUX=N/A
PUBMED=N/A
SUBMITUSER=mwang87
TAGS=
LIBRARYQUALITY=3
SPECTRUMID=CCMSLIB00000426795
SCANS=1767
135.12 88.5554371342 
163.08 100.0 
END IONS

BEGIN IONS
PEPMASS=59.0497
CHARGE=1+
MSLEVEL=2
SOURCE_INSTRUMENT=Positive-Quattro_QQQ:25eV
FILENAME=hmdb_intermediate.mgf
SEQ=*..*
IONMODE=Positive
ORGANISM=HMDB
NAME=HMDB:HMDB01659-1673 Acetone M+H
PI=HMDB
DATACOLLECTOR=HMDB
SMILES=CC(C)=O
INCHI=InChI=1S/C3H6O/c1-3(2)4/h1-2H3
INCHIAUX=N/A
PUBMED=N/A
SUBMITUSER=mwang87
TAGS=
LIBRARYQUALITY=3
SPECTRUMID=CCMSLIB00000426796
SCANS=1768
31.0 75.617 
42.0 73.75 
43.0 100.0 
58.0 58.638 
59.0 50.278 
END IONS

BEGIN IONS
PEPMASS=127.051
CHARGE=1+
MSLEVEL=2
SOURCE_INSTRUMENT=Positive-Quattro_QQQ:40eV
FILENAME=hmdb_intermediate.mgf
SEQ=*..*
IONMODE=Positive
ORGANISM=HMDB
NAME=HMDB:HMDB02024-1952 Imidazoleacetic acid M+H
PI=HMDB
DATACOLLECTOR=HMDB
SMILES=OC(=O)CC1=CN=CN1
INCHI=InChI=1S/C5H6N2O2/c8-5(9)1-4-2-6-3-7-4/h2-3H,1H2,(H,6,7)(H,8,9)
INCHIAUX=N/A
PUBMED=N/A
SUBMITUSER=mwang87
TAGS=
LIBRARYQUALITY=3
SPECTRUMID=CCMSLIB00000426797
SCANS=1769
81.0 100.0 
END IONS

BEGIN IONS
PEPMASS=243.16
CHARGE=1+
MSLEVEL=2
SOURCE_INSTRUMENT=Negative-Quattro_QQQ:10eV
FILENAME=hmdb_intermediate.mgf
SEQ=*..*
IONMODE=Negative
ORGANISM=HMDB
NAME=HMDB:HMDB02327-2058 1,11-Undecanedicarboxylic acid M-H
PI=HMDB
DATACOLLECTOR=HMDB
SMILES=OC(=O)CCCCCCCCCCCC(O)=O
INCHI=InChI=1S/C13H24O4/c14-12(15)10-8-6-4-2-1-3-5-7-9-11-13(16)17/h1-11H2,(H,14,15)(H,16,17)
INCHIAUX=N/A
PUBMED=N/A
SUBMITUSER=mwang87
TAGS=
LIBRARYQUALITY=3
SPECTRUMID=CCMSLIB00000426798
SCANS=1770
243.0 100.0 
END IONS

BEGIN IONS
PEPMASS=271.061
CHARGE=1+
MSLEVEL=2
SOURCE_INSTRUMENT=Negative-Quattro_QQQ:40eV
FILENAME=hmdb_intermediate.mgf
SEQ=*..*
IONMODE=Negative
ORGANISM=HMDB
NAME=HMDB:HMDB02670-2124 Naringenin M-H
PI=HMDB
DATACOLLECTOR=HMDB
SMILES=OC1=CC=C(C=C1)[C@@H]1CC(=O)C2=C(O)C=C(O)C=C2O1
INCHI=InChI=1S/C15H12O5/c16-9-3-1-8(2-4-9)13-7-12(19)15-11(18)5-10(17)6-14(15)20-13/h1-6,13,16-18H,7H2/t13-/m0/s1
INCHIAUX=N/A
PUBMED=N/A
SUBMITUSER=mwang87
TAGS=
LIBRARYQUALITY=3
SPECTRUMID=CCMSLIB00000426799
SCANS=1771
64.0 100.0 
65.0 62.866 
118.0 76.59 
119.0 60.089 
END IONS

BEGIN IONS
PEPMASS=126.022
CHARGE=1+
MSLEVEL=2
SOURCE_INSTRUMENT=Positive-Quattro_QQQ:40eV
FILENAME=hmdb_intermediate.mgf
SEQ=*..*
IONMODE=Positive
ORGANISM=HMDB
NAME=HMDB:HMDB00251-432 Taurine M+H
PI=HMDB
DATACOLLECTOR=HMDB
SMILES=NCCS(O)(=O)=O
INCHI=InChI=1S/C2H7NO3S/c3-1-2-7(4,5)6/h1-3H2,(H,4,5,6)
INCHIAUX=N/A
PUBMED=N/A
SUBMITUSER=mwang87
TAGS=
LIBRARYQUALITY=3
SPECTRUMID=CCMSLIB00000426800
SCANS=1772
44.259 100.0 
END IONS

BEGIN IONS
PEPMASS=163.061
CHARGE=1+
MSLEVEL=2
SOURCE_INSTRUMENT=Positive-Quattro_QQQ:40eV
FILENAME=hmdb_intermediate.mgf
SEQ=*..*
IONMODE=Positive
ORGANISM=HMDB
NAME=HMDB:HMDB00640-878 Levoglucosan M+H
PI=HMDB
DATACOLLECTOR=HMDB
SMILES=[H][C@@]12OC[C@@H](O1)[C@@H](O)[C@H](O)[C@H]2O
INCHI=InChI=1S/C6H10O5/c7-3-2-1-10-6(11-2)5(9)4(3)8/h2-9H,1H2/t2-,3-,4+,5-,6-/m1/s1
INCHIAUX=N/A
PUBMED=N/A
SUBMITUSER=mwang87
TAGS=
LIBRARYQUALITY=3
SPECTRUMID=CCMSLIB00000426801
SCANS=1773
41.396 97.03 
43.356 100.0 
45.331 72.277 
57.213 65.347 
69.143 55.941 
77.168 55.941 
85.062 51.98 
END IONS

BEGIN IONS
PEPMASS=477.231
CHARGE=1+
MSLEVEL=2
SOURCE_INSTRUMENT=Positive-Quattro_QQQ:25eV
FILENAME=hmdb_intermediate.mgf
SEQ=*..*
IONMODE=Positive
ORGANISM=HMDB
NAME=HMDB:HMDB04999-2431 Loperamide M+H
PI=HMDB
DATACOLLECTOR=HMDB
SMILES=CN(C)C(=O)C(CCN1CCC(O)(CC1)C1=CC=C(Cl)C=C1)(C1=CC=CC=C1)C1=CC=CC=C1
INCHI=InChI=1S/C29H33ClN2O2/c1-31(2)27(33)29(24-9-5-3-6-10-24,25-11-7-4-8-12-25)19-22-32-20-17-28(34,18-21-32)23-13-15-26(30)16-14-23/h3-16,34H,17-22H2,1-2H3
INCHIAUX=N/A
PUBMED=N/A
SUBMITUSER=mwang87
TAGS=
LIBRARYQUALITY=3
SPECTRUMID=CCMSLIB00000426802
SCANS=1774
266.0 100.0 
END IONS

BEGIN IONS
PEPMASS=261.038
CHARGE=1+
MSLEVEL=2
SOURCE_INSTRUMENT=Positive-Quattro_QQQ:25eV
FILENAME=hmdb_intermediate.mgf
SEQ=*..*
IONMODE=Positive
ORGANISM=HMDB
NAME=HMDB:HMDB00124-184 Fructose 6-phosphate M+H
PI=HMDB
DATACOLLECTOR=HMDB
SMILES=OCC(=O)[C@@H](O)[C@H](O)[C@H](O)COP(O)(O)=O
INCHI=InChI=1S/C6H13O9P/c7-1-3(8)5(10)6(11)4(9)2-15-16(12,13)14/h4-7,9-11H,1-2H2,(H2,12,13,14)/t4-,5-,6-/m1/s1
INCHIAUX=N/A
PUBMED=N/A
SUBMITUSER=mwang87
TAGS=
LIBRARYQUALITY=3
SPECTRUMID=CCMSLIB00000426803
SCANS=1775
90.781 100.0 
END IONS

BEGIN IONS
PEPMASS=104.071
CHARGE=1+
MSLEVEL=2
SOURCE_INSTRUMENT=Positive-Quattro_QQQ:25eV
FILENAME=hmdb_intermediate.mgf
SEQ=*..*
IONMODE=Positive
ORGANISM=HMDB
NAME=HMDB:HMDB00650-886 D-Alpha-aminobutyric acid M+H
PI=HMDB
DATACOLLECTOR=HMDB
SMILES=CC[C@@H](N)C(O)=O
INCHI=InChI=1S/C4H9NO2/c1-2-3(5)4(6)7/h3H,2,5H2,1H3,(H,6,7)/t3-/m1/s1
INCHIAUX=N/A
PUBMED=N/A
SUBMITUSER=mwang87
TAGS=
LIBRARYQUALITY=3
SPECTRUMID=CCMSLIB00000426804
SCANS=1776
58.164 100.0 
END IONS

BEGIN IONS
PEPMASS=132.077
CHARGE=1+
MSLEVEL=2
SOURCE_INSTRUMENT=Positive-Quattro_QQQ:10eV
FILENAME=hmdb_intermediate.mgf
SEQ=*..*
IONMODE=Positive
ORGANISM=HMDB
NAME=HMDB:HMDB00064-105 Creatine M+H
PI=HMDB
DATACOLLECTOR=HMDB
SMILES=CN(CC(O)=O)C(N)=N
INCHI=InChI=1S/C4H9N3O2/c1-7(4(5)6)2-3(8)9/h2H2,1H3,(H3,5,6)(H,8,9)
INCHIAUX=N/A
PUBMED=N/A
SUBMITUSER=mwang87
TAGS=
LIBRARYQUALITY=3
SPECTRUMID=CCMSLIB00000426805
SCANS=1777
90.061 94.737 
131.956 100.0 
END IONS

BEGIN IONS
PEPMASS=126.103
CHARGE=1+
MSLEVEL=2
SOURCE_INSTRUMENT=Positive-Quattro_QQQ:40eV
FILENAME=hmdb_intermediate.mgf
SEQ=*..*
IONMODE=Positive
ORGANISM=HMDB
NAME=HMDB:HMDB00898-1273 1-Methylhistamine M+H
PI=HMDB
DATACOLLECTOR=HMDB
SMILES=CN1C=NC(CCN)=C1
INCHI=InChI=1S/C6H11N3/c1-9-4-6(2-3-7)8-5-9/h4-5H,2-3,7H2,1H3
INCHIAUX=N/A
PUBMED=N/A
SUBMITUSER=mwang87
TAGS=
LIBRARYQUALITY=3
SPECTRUMID=CCMSLIB00000426806
SCANS=1778
84.418 100.0 
84.79 84.968 
85.659 60.562 
END IONS

BEGIN IONS
PEPMASS=113.024
CHARGE=1+
MSLEVEL=2
SOURCE_INSTRUMENT=Positive-Quattro_QQQ:40eV
FILENAME=hmdb_intermediate.mgf
SEQ=*..*
IONMODE=Positive
ORGANISM=HMDB
NAME=HMDB:HMDB00444-649 3-Furoic acid M+H
PI=HMDB
DATACOLLECTOR=HMDB
SMILES=OC(=O)C1=COC=C1
INCHI=InChI=1S/C5H4O3/c6-5(7)4-1-2-8-3-4/h1-3H,(H,6,7)
INCHIAUX=N/A
PUBMED=N/A
SUBMITUSER=mwang87
TAGS=
LIBRARYQUALITY=3
SPECTRUMID=CCMSLIB00000426807
SCANS=1779
67.0 81.27 
94.82 100.0 
112.94 82.156 
END IONS

BEGIN IONS
PEPMASS=194.082
CHARGE=1+
MSLEVEL=2
SOURCE_INSTRUMENT=Positive-Quattro_QQQ:10eV
FILENAME=hmdb_intermediate.mgf
SEQ=*..*
IONMODE=Positive
ORGANISM=HMDB
NAME=HMDB:HMDB00859-1211 Methylhippuric acid M+H
PI=HMDB
DATACOLLECTOR=HMDB
SMILES=COC(=O)CNC(=O)C1=CC=CC=C1
INCHI=InChI=1S/C10H11NO3/c1-14-9(12)7-11-10(13)8-5-3-2-4-6-8/h2-6H,7H2,1H3,(H,11,13)
INCHIAUX=N/A
PUBMED=N/A
SUBMITUSER=mwang87
TAGS=
LIBRARYQUALITY=3
SPECTRUMID=CCMSLIB00000426808
SCANS=1780
105.381 100.0 
105.506 76.663 
END IONS

BEGIN IONS
PEPMASS=132.102
CHARGE=1+
MSLEVEL=2
SOURCE_INSTRUMENT=Positive-Quattro_QQQ:10eV
FILENAME=hmdb_intermediate.mgf
SEQ=*..*
IONMODE=Positive
ORGANISM=HMDB
NAME=HMDB:HMDB00557-779 L-Alloisoleucine M+H
PI=HMDB
DATACOLLECTOR=HMDB
SMILES=CC[C@@H](C)[C@H](N)C(O)=O
INCHI=InChI=1S/C6H13NO2/c1-3-4(2)5(7)6(8)9/h4-5H,3,7H2,1-2H3,(H,8,9)/t4-,5+/m1/s1
INCHIAUX=N/A
PUBMED=N/A
SUBMITUSER=mwang87
TAGS=
LIBRARYQUALITY=3
SPECTRUMID=CCMSLIB00000426809
SCANS=1781
132.054 100.0 
END IONS

BEGIN IONS
PEPMASS=387.363
CHARGE=1+
MSLEVEL=2
SOURCE_INSTRUMENT=Positive-Quattro_QQQ:25eV
FILENAME=hmdb_intermediate.mgf
SEQ=*..*
IONMODE=Positive
ORGANISM=HMDB
NAME=HMDB:HMDB00871-1227 5alpha-Cholestanone M+H
PI=HMDB
DATACOLLECTOR=HMDB
SMILES=[H][C@@]1(CC[C@@]2([H])[C@]3([H])CC[C@@]4([H])CC(=O)CC[C@]4(C)[C@@]3([H])CC[C@]12C)[C@H](C)CCCC(C)C
INCHI=InChI=1S/C27H46O/c1-18(2)7-6-8-19(3)23-11-12-24-22-10-9-20-17-21(28)13-15-26(20,4)25(22)14-16-27(23,24)5/h18-20,22-25H,6-17H2,1-5H3/t19-,20+,22+,23-,24+,25+,26+,27-/m1/s1
INCHIAUX=N/A
PUBMED=N/A
SUBMITUSER=mwang87
TAGS=
LIBRARYQUALITY=3
SPECTRUMID=CCMSLIB00000426810
SCANS=1782
80.75 100.0 
94.76 92.397 
108.81 66.268 
134.63 50.317 
146.69 52.326 
END IONS

BEGIN IONS
PEPMASS=185.082
CHARGE=1+
MSLEVEL=2
SOURCE_INSTRUMENT=Positive-Quattro_QQQ:25eV
FILENAME=hmdb_intermediate.mgf
SEQ=*..*
IONMODE=Positive
ORGANISM=HMDB
NAME=HMDB:HMDB01565-1652 Phosphorylcholine M+H
PI=HMDB
DATACOLLECTOR=HMDB
SMILES=C[N+](C)(C)CCOP(O)(O)=O
INCHI=InChI=1S/C5H14NO4P/c1-6(2,3)4-5-10-11(7,8)9/h4-5H2,1-3H3,(H-,7,8,9)/p+1
INCHIAUX=N/A
PUBMED=N/A
SUBMITUSER=mwang87
TAGS=
LIBRARYQUALITY=3
SPECTRUMID=CCMSLIB00000426811
SCANS=1783
87.0 100.0 
89.0 68.032 
125.0 57.869 
END IONS

BEGIN IONS
PEPMASS=175.061
CHARGE=1+
MSLEVEL=2
SOURCE_INSTRUMENT=Negative-Quattro_QQQ:25eV
FILENAME=hmdb_intermediate.mgf
SEQ=*..*
IONMODE=Negative
ORGANISM=HMDB
NAME=HMDB:HMDB00402-610 2-Isopropylmalic acid M-H
PI=HMDB
DATACOLLECTOR=HMDB
SMILES=CC(C)[C@@](O)(CC(O)=O)C(O)=O
INCHI=InChI=1S/C7H12O5/c1-4(2)7(12,6(10)11)3-5(8)9/h4,12H,3H2,1-2H3,(H,8,9)(H,10,11)/t7-/m0/s1
INCHIAUX=N/A
PUBMED=N/A
SUBMITUSER=mwang87
TAGS=
LIBRARYQUALITY=3
SPECTRUMID=CCMSLIB00000426812
SCANS=1784
85.331 100.0 
115.192 69.937 
END IONS

BEGIN IONS
PEPMASS=397.347
CHARGE=1+
MSLEVEL=2
SOURCE_INSTRUMENT=Positive-Quattro_QQQ:25eV
FILENAME=hmdb_intermediate.mgf
SEQ=*..*
IONMODE=Positive
ORGANISM=HMDB
NAME=HMDB:HMDB00878-1239 Ergosterol M+H
PI=HMDB
DATACOLLECTOR=HMDB
SMILES=CC(C)[C@@H](C)\C=C\[C@@H](C)C1CCC2C3=CC=C4C[C@@H](O)CC[C@]4(C)C3CC[C@]12C
INCHI=InChI=1S/C28H44O/c1-18(2)19(3)7-8-20(4)24-11-12-25-23-10-9-21-17-22(29)13-15-27(21,5)26(23)14-16-28(24,25)6/h7-10,18-20,22,24-26,29H,11-17H2,1-6H3/b8-7+/t19-,20+,22-,24?,25?,26?,27-,28+/m0/s1
INCHIAUX=N/A
PUBMED=N/A
SUBMITUSER=mwang87
TAGS=
LIBRARYQUALITY=3
SPECTRUMID=CCMSLIB00000426813
SCANS=1785
69.189 100.0 
71.102 52.995 
81.14 63.594 
397.205 61.29 
END IONS

BEGIN IONS
PEPMASS=287.165
CHARGE=1+
MSLEVEL=2
SOURCE_INSTRUMENT=Positive-Quattro_QQQ:40eV
FILENAME=hmdb_intermediate.mgf
SEQ=*..*
IONMODE=Positive
ORGANISM=HMDB
NAME=HMDB:HMDB00343-554 2-Hydroxyestrone M+H
PI=HMDB
DATACOLLECTOR=HMDB
SMILES=[H][C@@]12CCC(=O)[C@@]1(C)CC[C@]1([H])C3=C(CC[C@@]21[H])C=C(O)C(O)=C3
INCHI=InChI=1S/C18H22O3/c1-18-7-6-11-12(14(18)4-5-17(18)21)3-2-10-8-15(19)16(20)9-13(10)11/h8-9,11-12,14,19-20H,2-7H2,1H3/t11-,12+,14-,18-/m0/s1
INCHIAUX=N/A
PUBMED=N/A
SUBMITUSER=mwang87
TAGS=
LIBRARYQUALITY=3
SPECTRUMID=CCMSLIB00000426814
SCANS=1786
56.87 55.474 
79.191 68.613 
95.784 59.124 
102.746 71.533 
110.145 51.825 
148.923 54.745 
153.373 59.124 
156.597 81.752 
164.942 64.964 
189.205 63.504 
195.333 67.883 
202.828 56.934 
206.661 100.0 
231.083 51.095 
END IONS

BEGIN IONS
PEPMASS=99.0446
CHARGE=1+
MSLEVEL=2
SOURCE_INSTRUMENT=Negative-Quattro_QQQ:25eV
FILENAME=hmdb_intermediate.mgf
SEQ=*..*
IONMODE=Negative
ORGANISM=HMDB
NAME=HMDB:HMDB01470-1593 Tiglic acid M-H
PI=HMDB
DATACOLLECTOR=HMDB
SMILES=C\C=C(/C)C(O)=O
INCHI=InChI=1S/C5H8O2/c1-3-4(2)5(6)7/h3H,1-2H3,(H,6,7)/b4-3+
INCHIAUX=N/A
PUBMED=N/A
SUBMITUSER=mwang87
TAGS=
LIBRARYQUALITY=3
SPECTRUMID=CCMSLIB00000426815
SCANS=1787
55.501 62.171 
99.313 100.0 
END IONS

BEGIN IONS
PEPMASS=746.099
CHARGE=1+
MSLEVEL=2
SOURCE_INSTRUMENT=Positive-Quattro_QQQ:10eV
FILENAME=hmdb_intermediate.mgf
SEQ=*..*
IONMODE=Positive
ORGANISM=HMDB
NAME=HMDB:HMDB00221-361 NADPH M+H
PI=HMDB
DATACOLLECTOR=HMDB
SMILES=NC(=O)C1=CN(C=CC1)[C@H]1O[C@@H](COP(O)(=O)OP(O)(=O)OC[C@@H]2O[C@@H]([C@@H](OP(O)(O)=O)[C@H]2O)N2C=NC3=C(N)N=CN=C23)[C@H](O)[C@@H]1O
INCHI=InChI=1S/C21H30N7O17P3/c22-17-12-19(25-7-24-17)28(8-26-12)21-16(44-46(33,34)35)14(30)11(43-21)6-41-48(38,39)45-47(36,37)40-5-10-13(29)15(31)20(42-10)27-3-1-2-9(4-27)18(23)32/h1,3-4,7-8,10-11,13-16,20-21,29-31H,2,5-6H2,(H2,23,32)(H,36,37)(H,38,39)(H2,22,24,25)(H2,33,34,35)/t10-,11-,13-,14-,15-,16-,20-,21-/m0/s1
INCHIAUX=N/A
PUBMED=N/A
SUBMITUSER=mwang87
TAGS=
LIBRARYQUALITY=3
SPECTRUMID=CCMSLIB00000426816
SCANS=1788
169.605 100.0 
345.77 93.015 
536.093 75.543 
END IONS

BEGIN IONS
PEPMASS=261.038
CHARGE=1+
MSLEVEL=2
SOURCE_INSTRUMENT=Positive-Quattro_QQQ:40eV
FILENAME=hmdb_intermediate.mgf
SEQ=*..*
IONMODE=Positive
ORGANISM=HMDB
NAME=HMDB:HMDB00124-185 Fructose 6-phosphate M+H
PI=HMDB
DATACOLLECTOR=HMDB
SMILES=OCC(=O)[C@@H](O)[C@H](O)[C@H](O)COP(O)(O)=O
INCHI=InChI=1S/C6H13O9P/c7-1-3(8)5(10)6(11)4(9)2-15-16(12,13)14/h4-7,9-11H,1-2H2,(H2,12,13,14)/t4-,5-,6-/m1/s1
INCHIAUX=N/A
PUBMED=N/A
SUBMITUSER=mwang87
TAGS=
LIBRARYQUALITY=3
SPECTRUMID=CCMSLIB00000426817
SCANS=1789
52.346 78.338 
71.872 71.1 
77.557 72.916 
89.916 74.706 
92.635 72.916 
102.522 74.706 
127.488 81.944 
141.579 83.76 
196.09 74.706 
219.083 72.916 
255.429 100.0 
END IONS

BEGIN IONS
PEPMASS=355.103
CHARGE=1+
MSLEVEL=2
SOURCE_INSTRUMENT=Positive-Quattro_QQQ:40eV
FILENAME=hmdb_intermediate.mgf
SEQ=*..*
IONMODE=Positive
ORGANISM=HMDB
NAME=HMDB:HMDB03164-2211 Chlorogenic acid M+H
PI=HMDB
DATACOLLECTOR=HMDB
SMILES=O[C@@H]1C[C@](O)(C[C@@H](OC(=O)\C=C\C2=CC(O)=C(O)C=C2)[C@@H]1O)C(O)=O
INCHI=InChI=1S/C16H18O9/c17-9-3-1-8(5-10(9)18)2-4-13(20)25-12-7-16(24,15(22)23)6-11(19)14(12)21/h1-5,11-12,14,17-19,21,24H,6-7H2,(H,22,23)/b4-2+/t11-,12-,14-,16+/m1/s1
INCHIAUX=N/A
PUBMED=N/A
SUBMITUSER=mwang87
TAGS=
LIBRARYQUALITY=3
SPECTRUMID=CCMSLIB00000426818
SCANS=1790
117.0 61.299 
135.0 70.236 
145.0 57.662 
163.0 100.0 
END IONS

BEGIN IONS
PEPMASS=182.082
CHARGE=1+
MSLEVEL=2
SOURCE_INSTRUMENT=Positive-Quattro_QQQ:10eV
FILENAME=hmdb_intermediate.mgf
SEQ=*..*
IONMODE=Positive
ORGANISM=HMDB
NAME=HMDB:HMDB00158-245 L-Tyrosine M+H
PI=HMDB
DATACOLLECTOR=HMDB
SMILES=N[C@@H](CC1=CC=C(O)C=C1)C(O)=O
INCHI=InChI=1S/C9H11NO3/c10-8(9(12)13)5-6-1-3-7(11)4-2-6/h1-4,8,11H,5,10H2,(H,12,13)/t8-/m0/s1
INCHIAUX=N/A
PUBMED=N/A
SUBMITUSER=mwang87
TAGS=
LIBRARYQUALITY=3
SPECTRUMID=CCMSLIB00000426819
SCANS=1791
135.948 100.0 
164.907 95.146 
END IONS

BEGIN IONS
PEPMASS=171.066
CHARGE=1+
MSLEVEL=2
SOURCE_INSTRUMENT=Positive-Quattro_QQQ:25eV
FILENAME=hmdb_intermediate.mgf
SEQ=*..*
IONMODE=Positive
ORGANISM=HMDB
NAME=HMDB:HMDB00318-532 3,4-Dihydroxyphenylglycol M+H
PI=HMDB
DATACOLLECTOR=HMDB
SMILES=OCC(O)C1=CC(O)=C(O)C=C1
INCHI=InChI=1S/C8H10O4/c9-4-8(12)5-1-2-6(10)7(11)3-5/h1-3,8-12H,4H2
INCHIAUX=N/A
PUBMED=N/A
SUBMITUSER=mwang87
TAGS=
LIBRARYQUALITY=3
SPECTRUMID=CCMSLIB00000426820
SCANS=1792
86.343 83.26 
89.129 100.0 
END IONS

BEGIN IONS
PEPMASS=189.124
CHARGE=1+
MSLEVEL=2
SOURCE_INSTRUMENT=Positive-Quattro_QQQ:40eV
FILENAME=hmdb_intermediate.mgf
SEQ=*..*
IONMODE=Positive
ORGANISM=HMDB
NAME=HMDB:HMDB00759-1091 Glycyl-L-leucine M+H
PI=HMDB
DATACOLLECTOR=HMDB
SMILES=CC(C)C[C@H](NC(=O)CN)C(O)=O
INCHI=InChI=1S/C8H16N2O3/c1-5(2)3-6(8(12)13)10-7(11)4-9/h5-6H,3-4,9H2,1-2H3,(H,10,11)(H,12,13)/t6-/m0/s1
INCHIAUX=N/A
PUBMED=N/A
SUBMITUSER=mwang87
TAGS=
LIBRARYQUALITY=3
SPECTRUMID=CCMSLIB00000426821
SCANS=1793
43.376 82.051 
44.414 55.769 
86.12 100.0 
END IONS

BEGIN IONS
PEPMASS=192.069
CHARGE=1+
MSLEVEL=2
SOURCE_INSTRUMENT=Positive-Quattro_QQQ:10eV
FILENAME=hmdb_intermediate.mgf
SEQ=*..*
IONMODE=Positive
ORGANISM=HMDB
NAME=HMDB:HMDB11745-2499 N-Acetyl-L-methionine M+H
PI=HMDB
DATACOLLECTOR=HMDB
SMILES=CSCCC(NC(C)=O)C(O)=O
INCHI=InChI=1S/C7H13NO3S/c1-5(9)8-6(7(10)11)3-4-12-2/h6H,3-4H2,1-2H3,(H,8,9)(H,10,11)
INCHIAUX=N/A
PUBMED=N/A
SUBMITUSER=mwang87
TAGS=
LIBRARYQUALITY=3
SPECTRUMID=CCMSLIB00000426822
SCANS=1794
144.12 99.3102985045 
146.1 52.2645869622 
174.06 100.0 
192.06 73.701388697 
END IONS

BEGIN IONS
PEPMASS=259.022
CHARGE=1+
MSLEVEL=2
SOURCE_INSTRUMENT=Negative-Quattro_QQQ:10eV
FILENAME=hmdb_intermediate.mgf
SEQ=*..*
IONMODE=Negative
ORGANISM=HMDB
NAME=HMDB:HMDB01586-1657 Glucose 1-phosphate M-H
PI=HMDB
DATACOLLECTOR=HMDB
SMILES=OC[C@H]1OC(OP(O)(O)=O)[C@H](O)[C@@H](O)[C@@H]1O
INCHI=InChI=1S/C6H13O9P/c7-1-2-3(8)4(9)5(10)6(14-2)15-16(11,12)13/h2-10H,1H2,(H2,11,12,13)/t2-,3-,4+,5-,6?/m1/s1
INCHIAUX=N/A
PUBMED=N/A
SUBMITUSER=mwang87
TAGS=
LIBRARYQUALITY=3
SPECTRUMID=CCMSLIB00000426823
SCANS=1795
110.394 64.286 
255.589 66.667 
258.33 100.0 
END IONS

BEGIN IONS
PEPMASS=258.109
CHARGE=1+
MSLEVEL=2
SOURCE_INSTRUMENT=Positive-Quattro_QQQ:40eV
FILENAME=hmdb_intermediate.mgf
SEQ=*..*
IONMODE=Positive
ORGANISM=HMDB
NAME=HMDB:HMDB00982-1377 5-Methylcytidine M+H
PI=HMDB
DATACOLLECTOR=HMDB
SMILES=CC1=CN([C@@H]2O[C@H](CO)[C@@H](O)[C@H]2O)C(=O)N=C1N
INCHI=InChI=1S/C10H15N3O5/c1-4-2-13(10(17)12-8(4)11)9-7(16)6(15)5(3-14)18-9/h2,5-7,9,14-16H,3H2,1H3,(H2,11,12,17)/t5-,6-,7-,9-/m1/s1
INCHIAUX=N/A
PUBMED=N/A
SUBMITUSER=mwang87
TAGS=
LIBRARYQUALITY=3
SPECTRUMID=CCMSLIB00000426824
SCANS=1796
125.931 100.0 
END IONS

BEGIN IONS
PEPMASS=227.103
CHARGE=1+
MSLEVEL=2
SOURCE_INSTRUMENT=Positive-Quattro_QQQ:25eV
FILENAME=hmdb_intermediate.mgf
SEQ=*..*
IONMODE=Positive
ORGANISM=HMDB
NAME=HMDB:HMDB00245-416 Porphobilinogen M+H
PI=HMDB
DATACOLLECTOR=HMDB
SMILES=NCC1=C(CC(O)=O)C(CCC(O)=O)=CN1
INCHI=InChI=1S/C10H14N2O4/c11-4-8-7(3-10(15)16)6(5-12-8)1-2-9(13)14/h5,12H,1-4,11H2,(H,13,14)(H,15,16)
INCHIAUX=N/A
PUBMED=N/A
SUBMITUSER=mwang87
TAGS=
LIBRARYQUALITY=3
SPECTRUMID=CCMSLIB00000426825
SCANS=1797
94.116 52.941 
122.044 100.0 
END IONS

BEGIN IONS
PEPMASS=163.076
CHARGE=1+
MSLEVEL=2
SOURCE_INSTRUMENT=Negative-Quattro_QQQ:25eV
FILENAME=hmdb_intermediate.mgf
SEQ=*..*
IONMODE=Negative
ORGANISM=HMDB
NAME=HMDB:HMDB00543-762 Benzenebutanoic acid M-H
PI=HMDB
DATACOLLECTOR=HMDB
SMILES=OC(=O)CCCC1=CC=CC=C1
INCHI=InChI=1S/C10H12O2/c11-10(12)8-4-7-9-5-2-1-3-6-9/h1-3,5-6H,4,7-8H2,(H,11,12)
INCHIAUX=N/A
PUBMED=N/A
SUBMITUSER=mwang87
TAGS=
LIBRARYQUALITY=3
SPECTRUMID=CCMSLIB00000426826
SCANS=1798
91.314 100.0 
END IONS

BEGIN IONS
PEPMASS=110.061
CHARGE=1+
MSLEVEL=2
SOURCE_INSTRUMENT=Positive-Quattro_QQQ:40eV
FILENAME=hmdb_intermediate.mgf
SEQ=*..*
IONMODE=Positive
ORGANISM=HMDB
NAME=HMDB:HMDB01169-1447 4-Aminophenol M+H
PI=HMDB
DATACOLLECTOR=HMDB
SMILES=NC1=CC=C(O)C=C1
INCHI=InChI=1S/C6H7NO/c7-5-1-3-6(8)4-2-5/h1-4,8H,7H2
INCHIAUX=N/A
PUBMED=N/A
SUBMITUSER=mwang87
TAGS=
LIBRARYQUALITY=3
SPECTRUMID=CCMSLIB00000426827
SCANS=1799
65.0 100.0 
END IONS

BEGIN IONS
PEPMASS=343.124
CHARGE=1+
MSLEVEL=2
SOURCE_INSTRUMENT=Positive-Quattro_QQQ:25eV
FILENAME=hmdb_intermediate.mgf
SEQ=*..*
IONMODE=Positive
ORGANISM=HMDB
NAME=HMDB:HMDB11740-2497 Turanose M+H
PI=HMDB
DATACOLLECTOR=HMDB
SMILES=OC[C@@H](O)[C@@H](O)[C@H](O[C@H]1O[C@H](CO)[C@@H](O)[C@H](O)[C@H]1O)C(=O)CO
INCHI=InChI=1S/C12H22O11/c13-1-4(16)7(18)11(5(17)2-14)23-12-10(21)9(20)8(19)6(3-15)22-12/h4,6-16,18-21H,1-3H2/t4-,6-,7-,8-,9+,10-,11-,12-/m1/s1
INCHIAUX=N/A
PUBMED=N/A
SUBMITUSER=mwang87
TAGS=
LIBRARYQUALITY=3
SPECTRUMID=CCMSLIB00000426828
SCANS=1800
85.02 86.5300147524 
127.02 100.0 
END IONS

BEGIN IONS
PEPMASS=147.066
CHARGE=1+
MSLEVEL=2
SOURCE_INSTRUMENT=Positive-Quattro_QQQ:25eV
FILENAME=hmdb_intermediate.mgf
SEQ=*..*
IONMODE=Positive
ORGANISM=HMDB
NAME=HMDB:HMDB00422-625 2-Methylglutaric acid M+H
PI=HMDB
DATACOLLECTOR=HMDB
SMILES=CC(CCC(O)=O)C(O)=O
INCHI=InChI=1S/C6H10O4/c1-4(6(9)10)2-3-5(7)8/h4H,2-3H2,1H3,(H,7,8)(H,9,10)
INCHIAUX=N/A
PUBMED=N/A
SUBMITUSER=mwang87
TAGS=
LIBRARYQUALITY=3
SPECTRUMID=CCMSLIB00000426829
SCANS=1801
77.0 87.254 
79.0 53.156 
83.0 86.114 
84.0 100.0 
85.0 98.82 
87.0 59.207 
104.0 62.504 
105.0 56.064 
END IONS

BEGIN IONS
PEPMASS=176.056
CHARGE=1+
MSLEVEL=2
SOURCE_INSTRUMENT=Positive-Quattro_QQQ:40eV
FILENAME=hmdb_intermediate.mgf
SEQ=*..*
IONMODE=Positive
ORGANISM=HMDB
NAME=HMDB:HMDB00812-1163 N-Acetyl-L-aspartic acid M+H
PI=HMDB
DATACOLLECTOR=HMDB
SMILES=CC(=O)N[C@@H](CC(O)=O)C(O)=O
INCHI=InChI=1S/C6H9NO5/c1-3(8)7-4(6(11)12)2-5(9)10/h4H,2H2,1H3,(H,7,8)(H,9,10)(H,11,12)/t4-/m0/s1
INCHIAUX=N/A
PUBMED=N/A
SUBMITUSER=mwang87
TAGS=
LIBRARYQUALITY=3
SPECTRUMID=CCMSLIB00000426830
SCANS=1802
43.292 100.0 
74.083 51.449 
END IONS

BEGIN IONS
PEPMASS=134.045
CHARGE=1+
MSLEVEL=2
SOURCE_INSTRUMENT=Positive-Quattro_QQQ:10eV
FILENAME=hmdb_intermediate.mgf
SEQ=*..*
IONMODE=Positive
ORGANISM=HMDB
NAME=HMDB:HMDB06483-2487 D-Aspartic acid M+H
PI=HMDB
DATACOLLECTOR=HMDB
SMILES=N[C@H](CC(O)=O)C(O)=O
INCHI=InChI=1S/C4H7NO4/c5-2(4(8)9)1-3(6)7/h2H,1,5H2,(H,6,7)(H,8,9)/t2-/m1/s1
INCHIAUX=N/A
PUBMED=N/A
SUBMITUSER=mwang87
TAGS=
LIBRARYQUALITY=3
SPECTRUMID=CCMSLIB00000426831
SCANS=1803
116.1 73.6581503498 
134.1 100.0 
END IONS

BEGIN IONS
PEPMASS=32.05
CHARGE=1+
MSLEVEL=2
SOURCE_INSTRUMENT=Positive-Quattro_QQQ:40eV
FILENAME=hmdb_intermediate.mgf
SEQ=*..*
IONMODE=Positive
ORGANISM=HMDB
NAME=HMDB:HMDB00164-262 Methylamine M+H
PI=HMDB
DATACOLLECTOR=HMDB
SMILES=CN
INCHI=InChI=1S/CH5N/c1-2/h2H2,1H3
INCHIAUX=N/A
PUBMED=N/A
SUBMITUSER=mwang87
TAGS=
LIBRARYQUALITY=3
SPECTRUMID=CCMSLIB00000426832
SCANS=1804
32.0 100.0 
END IONS

BEGIN IONS
PEPMASS=131.071
CHARGE=1+
MSLEVEL=2
SOURCE_INSTRUMENT=Positive-Quattro_QQQ:25eV
FILENAME=hmdb_intermediate.mgf
SEQ=*..*
IONMODE=Positive
ORGANISM=HMDB
NAME=HMDB:HMDB01864-1745 2-Ketohexanoic acid M+H
PI=HMDB
DATACOLLECTOR=HMDB
SMILES=CCCCC(=O)C(O)=O
INCHI=InChI=1S/C6H10O3/c1-2-3-4-5(7)6(8)9/h2-4H2,1H3,(H,8,9)
INCHIAUX=N/A
PUBMED=N/A
SUBMITUSER=mwang87
TAGS=
LIBRARYQUALITY=3
SPECTRUMID=CCMSLIB00000426833
SCANS=1805
68.998 100.0 
69.746 59.201 
END IONS

BEGIN IONS
PEPMASS=151.061
CHARGE=1+
MSLEVEL=2
SOURCE_INSTRUMENT=Positive-Quattro_QQQ:25eV
FILENAME=hmdb_intermediate.mgf
SEQ=*..*
IONMODE=Positive
ORGANISM=HMDB
NAME=HMDB:HMDB01644-1667 D-Xylulose M+H
PI=HMDB
DATACOLLECTOR=HMDB
SMILES=OC[C@@H](O)[C@H](O)C(=O)CO
INCHI=InChI=1S/C5H10O5/c6-1-3(8)5(10)4(9)2-7/h3,5-8,10H,1-2H2/t3-,5+/m1/s1
INCHIAUX=N/A
PUBMED=N/A
SUBMITUSER=mwang87
TAGS=
LIBRARYQUALITY=3
SPECTRUMID=CCMSLIB00000426834
SCANS=1806
87.0 100.0 
END IONS

BEGIN IONS
PEPMASS=227.114
CHARGE=1+
MSLEVEL=2
SOURCE_INSTRUMENT=Positive-Quattro_QQQ:10eV
FILENAME=hmdb_intermediate.mgf
SEQ=*..*
IONMODE=Positive
ORGANISM=HMDB
NAME=HMDB:HMDB00033-54 Carnosine M+H
PI=HMDB
DATACOLLECTOR=HMDB
SMILES=NCCC(=O)N[C@@H](CC1=CN=CN1)C(O)=O
INCHI=InChI=1S/C9H14N4O3/c10-2-1-8(14)13-7(9(15)16)3-6-4-11-5-12-6/h4-5,7H,1-3,10H2,(H,11,12)(H,13,14)(H,15,16)/t7-/m0/s1
INCHIAUX=N/A
PUBMED=N/A
SUBMITUSER=mwang87
TAGS=
LIBRARYQUALITY=3
SPECTRUMID=CCMSLIB00000426835
SCANS=1807
209.864 80.808 
227.013 100.0 
END IONS

BEGIN IONS
PEPMASS=93.034
CHARGE=1+
MSLEVEL=2
SOURCE_INSTRUMENT=Negative-Quattro_QQQ:10eV
FILENAME=hmdb_intermediate.mgf
SEQ=*..*
IONMODE=Negative
ORGANISM=HMDB
NAME=HMDB:HMDB00228-379 Phenol M-H
PI=HMDB
DATACOLLECTOR=HMDB
SMILES=OC1=CC=CC=C1
INCHI=InChI=1S/C6H6O/c7-6-4-2-1-3-5-6/h1-5,7H
INCHIAUX=N/A
PUBMED=N/A
SUBMITUSER=mwang87
TAGS=
LIBRARYQUALITY=3
SPECTRUMID=CCMSLIB00000426836
SCANS=1808
93.0 100.0 
END IONS

BEGIN IONS
PEPMASS=168.102
CHARGE=1+
MSLEVEL=2
SOURCE_INSTRUMENT=Positive-Quattro_QQQ:10eV
FILENAME=hmdb_intermediate.mgf
SEQ=*..*
IONMODE=Positive
ORGANISM=HMDB
NAME=HMDB:HMDB00022-39 3-Methoxytyramine M+H
PI=HMDB
DATACOLLECTOR=HMDB
SMILES=COC1=C(O)C=CC(CCN)=C1
INCHI=InChI=1S/C9H13NO2/c1-12-9-6-7(4-5-10)2-3-8(9)11/h2-3,6,11H,4-5,10H2,1H3
INCHIAUX=N/A
PUBMED=N/A
SUBMITUSER=mwang87
TAGS=
LIBRARYQUALITY=3
SPECTRUMID=CCMSLIB00000426837
SCANS=1809
151.013 100.0 
END IONS

BEGIN IONS
PEPMASS=273.185
CHARGE=1+
MSLEVEL=2
SOURCE_INSTRUMENT=Positive-Quattro_QQQ:40eV
FILENAME=hmdb_intermediate.mgf
SEQ=*..*
IONMODE=Positive
ORGANISM=HMDB
NAME=HMDB:HMDB00429-634 17a-Estradiol M+H
PI=HMDB
DATACOLLECTOR=HMDB
SMILES=[H][C@@]12CC[C@@H](O)[C@@]1(C)CC[C@]1([H])C3=C(CC[C@@]21[H])C=C(O)C=C3
INCHI=InChI=1S/C18H24O2/c1-18-9-8-14-13-5-3-12(19)10-11(13)2-4-15(14)16(18)6-7-17(18)20/h3,5,10,14-17,19-20H,2,4,6-9H2,1H3/t14-,15-,16+,17-,18+/m1/s1
INCHIAUX=N/A
PUBMED=N/A
SUBMITUSER=mwang87
TAGS=
LIBRARYQUALITY=3
SPECTRUMID=CCMSLIB00000426838
SCANS=1810
66.0 84.498 
80.0 87.668 
106.0 100.0 
107.0 91.368 
END IONS

BEGIN IONS
PEPMASS=181.071
CHARGE=1+
MSLEVEL=2
SOURCE_INSTRUMENT=Positive-Quattro_QQQ:25eV
FILENAME=hmdb_intermediate.mgf
SEQ=*..*
IONMODE=Positive
ORGANISM=HMDB
NAME=HMDB:HMDB03449-2317 Beta-D-Galactose M+H
PI=HMDB
DATACOLLECTOR=HMDB
SMILES=OC[C@H]1O[C@@H](O)[C@H](O)[C@@H](O)[C@H]1O
INCHI=InChI=1S/C6H12O6/c7-1-2-3(8)4(9)5(10)6(11)12-2/h2-11H,1H2/t2-,3+,4+,5-,6-/m1/s1
INCHIAUX=N/A
PUBMED=N/A
SUBMITUSER=mwang87
TAGS=
LIBRARYQUALITY=3
SPECTRUMID=CCMSLIB00000426839
SCANS=1811
99.0 100.0 
END IONS

BEGIN IONS
PEPMASS=349.055
CHARGE=1+
MSLEVEL=2
SOURCE_INSTRUMENT=Positive-Quattro_QQQ:40eV
FILENAME=hmdb_intermediate.mgf
SEQ=*..*
IONMODE=Positive
ORGANISM=HMDB
NAME=HMDB:HMDB00175-279 Inosinic acid M+H
PI=HMDB
DATACOLLECTOR=HMDB
SMILES=O[C@@H]1[C@@H](COP(O)(O)=O)O[C@H]([C@@H]1O)N1C=NC2=C1N=CNC2=O
INCHI=InChI=1S/C10H13N4O8P/c15-6-4(1-21-23(18,19)20)22-10(7(6)16)14-3-13-5-8(14)11-2-12-9(5)17/h2-4,6-7,10,15-16H,1H2,(H,11,12,17)(H2,18,19,20)/t4-,6-,7-,10-/m1/s1
INCHIAUX=N/A
PUBMED=N/A
SUBMITUSER=mwang87
TAGS=
LIBRARYQUALITY=3
SPECTRUMID=CCMSLIB00000426840
SCANS=1812
179.883 100.0 
200.644 75.924 
END IONS

BEGIN IONS
PEPMASS=181.071
CHARGE=1+
MSLEVEL=2
SOURCE_INSTRUMENT=Positive-Quattro_QQQ:10eV
FILENAME=hmdb_intermediate.mgf
SEQ=*..*
IONMODE=Positive
ORGANISM=HMDB
NAME=HMDB:HMDB01266-1498 L-Sorbose M+H
PI=HMDB
DATACOLLECTOR=HMDB
SMILES=OC[C@@]1(O)OC[C@H](O)[C@@H](O)[C@@H]1O
INCHI=InChI=1S/C6H12O6/c7-2-6(11)5(10)4(9)3(8)1-12-6/h3-5,7-11H,1-2H2/t3-,4+,5-,6+/m0/s1
INCHIAUX=N/A
PUBMED=N/A
SUBMITUSER=mwang87
TAGS=
LIBRARYQUALITY=3
SPECTRUMID=CCMSLIB00000426841
SCANS=1813
149.0 100.0 
END IONS

BEGIN IONS
PEPMASS=302.306
CHARGE=1+
MSLEVEL=2
SOURCE_INSTRUMENT=Positive-Quattro_QQQ:10eV
FILENAME=hmdb_intermediate.mgf
SEQ=*..*
IONMODE=Positive
ORGANISM=HMDB
NAME=HMDB:HMDB00269-469 Sphinganine M+H
PI=HMDB
DATACOLLECTOR=HMDB
SMILES=CCCCCCCCCCCCCCC[C@@H](O)[C@@H](N)CO
INCHI=InChI=1S/C18H39NO2/c1-2-3-4-5-6-7-8-9-10-11-12-13-14-15-18(21)17(19)16-20/h17-18,20-21H,2-16,19H2,1H3/t17-,18+/m0/s1
INCHIAUX=N/A
PUBMED=N/A
SUBMITUSER=mwang87
TAGS=
LIBRARYQUALITY=3
SPECTRUMID=CCMSLIB00000426842
SCANS=1814
177.223 70.695 
244.024 71.486 
260.853 100.0 
END IONS

BEGIN IONS
PEPMASS=186.017
CHARGE=1+
MSLEVEL=2
SOURCE_INSTRUMENT=Positive-Quattro_QQQ:40eV
FILENAME=hmdb_intermediate.mgf
SEQ=*..*
IONMODE=Positive
ORGANISM=HMDB
NAME=HMDB:HMDB00272-477 Phosphoserine M+H
PI=HMDB
DATACOLLECTOR=HMDB
SMILES=N[C@@H](COP(O)(O)=O)C(O)=O
INCHI=InChI=1S/C3H8NO6P/c4-2(3(5)6)1-10-11(7,8)9/h2H,1,4H2,(H,5,6)(H2,7,8,9)/t2-/m0/s1
INCHIAUX=N/A
PUBMED=N/A
SUBMITUSER=mwang87
TAGS=
LIBRARYQUALITY=3
SPECTRUMID=CCMSLIB00000426843
SCANS=1815
42.662 100.0 
END IONS

BEGIN IONS
PEPMASS=190.072
CHARGE=1+
MSLEVEL=2
SOURCE_INSTRUMENT=Positive-Quattro_QQQ:10eV
FILENAME=hmdb_intermediate.mgf
SEQ=*..*
IONMODE=Positive
ORGANISM=HMDB
NAME=HMDB:HMDB01138-1430 N-Acetylglutamic acid M+H
PI=HMDB
DATACOLLECTOR=HMDB
SMILES=CC(=O)NC(CCC(O)=O)C(O)=O
INCHI=InChI=1S/C7H11NO5/c1-4(9)8-5(7(12)13)2-3-6(10)11/h5H,2-3H2,1H3,(H,8,9)(H,10,11)(H,12,13)
INCHIAUX=N/A
PUBMED=N/A
SUBMITUSER=mwang87
TAGS=
LIBRARYQUALITY=3
SPECTRUMID=CCMSLIB00000426844
SCANS=1816
148.296 51.367 
171.701 100.0 
190.199 77.814 
190.702 58.36 
END IONS

BEGIN IONS
PEPMASS=331.227
CHARGE=1+
MSLEVEL=2
SOURCE_INSTRUMENT=Positive-Quattro_QQQ:25eV
FILENAME=hmdb_intermediate.mgf
SEQ=*..*
IONMODE=Positive
ORGANISM=HMDB
NAME=HMDB:HMDB00016-29 Deoxycorticosterone M+H
PI=HMDB
DATACOLLECTOR=HMDB
SMILES=[H][C@@]12CC[C@H](C(=O)CO)[C@@]1(C)CC[C@@]1([H])[C@@]2([H])CCC2=CC(=O)CC[C@]12C
INCHI=InChI=1S/C21H30O3/c1-20-9-7-14(23)11-13(20)3-4-15-16-5-6-18(19(24)12-22)21(16,2)10-8-17(15)20/h11,15-18,22H,3-10,12H2,1-2H3/t15-,16-,17-,18+,20-,21-/m0/s1
INCHIAUX=N/A
PUBMED=N/A
SUBMITUSER=mwang87
TAGS=
LIBRARYQUALITY=3
SPECTRUMID=CCMSLIB00000426845
SCANS=1817
97.218 100.0 
109.173 85.356 
END IONS

BEGIN IONS
PEPMASS=168.066
CHARGE=1+
MSLEVEL=2
SOURCE_INSTRUMENT=Positive-Quattro_QQQ:10eV
FILENAME=hmdb_intermediate.mgf
SEQ=*..*
IONMODE=Positive
ORGANISM=HMDB
NAME=HMDB:HMDB01545-1643 Pyridoxal M+H
PI=HMDB
DATACOLLECTOR=HMDB
SMILES=CC1=C(O)C(C=O)=C(CO)C=N1
INCHI=InChI=1S/C8H9NO3/c1-5-8(12)7(4-11)6(3-10)2-9-5/h2,4,10,12H,3H2,1H3
INCHIAUX=N/A
PUBMED=N/A
SUBMITUSER=mwang87
TAGS=
LIBRARYQUALITY=3
SPECTRUMID=CCMSLIB00000426846
SCANS=1818
149.975 100.0 
END IONS

BEGIN IONS
PEPMASS=153.076
CHARGE=1+
MSLEVEL=2
SOURCE_INSTRUMENT=Positive-Quattro_QQQ:10eV
FILENAME=hmdb_intermediate.mgf
SEQ=*..*
IONMODE=Positive
ORGANISM=HMDB
NAME=HMDB:HMDB01851-1714 L-Arabitol M+H
PI=HMDB
DATACOLLECTOR=HMDB
SMILES=OC[C@H](O)C(O)[C@@H](O)CO
INCHI=InChI=1S/C5H12O5/c6-1-3(8)5(10)4(9)2-7/h3-10H,1-2H2/t3-,4-/m0/s1
INCHIAUX=N/A
PUBMED=N/A
SUBMITUSER=mwang87
TAGS=
LIBRARYQUALITY=3
SPECTRUMID=CCMSLIB00000426847
SCANS=1819
120.0 100.0 
134.0 56.83 
END IONS

BEGIN IONS
PEPMASS=44.9851
CHARGE=1+
MSLEVEL=2
SOURCE_INSTRUMENT=Negative-Quattro_QQQ:25eV
FILENAME=hmdb_intermediate.mgf
SEQ=*..*
IONMODE=Negative
ORGANISM=HMDB
NAME=HMDB:HMDB02786-2132 Nitrite M-H
PI=HMDB
DATACOLLECTOR=HMDB
SMILES=[O-]N=O
INCHI=InChI=1S/HNO2/c2-1-3/h(H,2,3)/p-1
INCHIAUX=N/A
PUBMED=N/A
SUBMITUSER=mwang87
TAGS=
LIBRARYQUALITY=3
SPECTRUMID=CCMSLIB00000426848
SCANS=1820
44.0 79.95 
45.0 100.0 
END IONS

BEGIN IONS
PEPMASS=195.05
CHARGE=1+
MSLEVEL=2
SOURCE_INSTRUMENT=Positive-Quattro_QQQ:40eV
FILENAME=hmdb_intermediate.mgf
SEQ=*..*
IONMODE=Positive
ORGANISM=HMDB
NAME=HMDB:HMDB03402-2279 Pectin M+H
PI=HMDB
DATACOLLECTOR=HMDB
SMILES=O[C@@H]1O[C@@H]([C@H](O)[C@H](O)[C@H]1O)C(O)=O
INCHI=InChI=1S/C6H10O7/c7-1-2(8)4(5(10)11)13-6(12)3(1)9/h1-4,6-9,12H,(H,10,11)/t1-,2+,3+,4-,6+/m0/s1
INCHIAUX=N/A
PUBMED=N/A
SUBMITUSER=mwang87
TAGS=
LIBRARYQUALITY=3
SPECTRUMID=CCMSLIB00000426849
SCANS=1821
76.0 100.0 
END IONS

BEGIN IONS
PEPMASS=565.047
CHARGE=1+
MSLEVEL=2
SOURCE_INSTRUMENT=Negative-Quattro_QQQ:25eV
FILENAME=hmdb_intermediate.mgf
SEQ=*..*
IONMODE=Negative
ORGANISM=HMDB
NAME=HMDB:HMDB00286-484 Uridine diphosphate glucose M-H
PI=HMDB
DATACOLLECTOR=HMDB
SMILES=OC[C@@H]1OC(OP(O)(=O)OP(O)(=O)OC[C@@H]2O[C@@H]([C@@H](O)[C@H]2O)N2C=CC(=O)NC2=O)[C@@H](O)[C@H](O)[C@H]1O
INCHI=InChI=1S/C15H24N2O17P2/c18-3-5-8(20)10(22)12(24)14(32-5)33-36(28,29)34-35(26,27)30-4-6-9(21)11(23)13(31-6)17-2-1-7(19)16-15(17)25/h1-2,5-6,8-14,18,20-24H,3-4H2,(H,26,27)(H,28,29)(H,16,19,25)/t5-,6-,8-,9-,10+,11-,12-,13-,14?/m0/s1
INCHIAUX=N/A
PUBMED=N/A
SUBMITUSER=mwang87
TAGS=
LIBRARYQUALITY=3
SPECTRUMID=CCMSLIB00000426850
SCANS=1822
118.052 66.09 
167.006 100.0 
232.411 52.541 
241.015 50.27 
297.32 52.541 
326.677 54.797 
332.625 68.361 
335.409 61.579 
335.535 50.27 
391.471 54.797 
395.901 61.579 
415.138 50.27 
422.858 52.541 
426.655 50.27 
497.789 52.541 
580.068 50.27 
END IONS

BEGIN IONS
PEPMASS=140.995
CHARGE=1+
MSLEVEL=2
SOURCE_INSTRUMENT=Positive-Quattro_QQQ:10eV
FILENAME=hmdb_intermediate.mgf
SEQ=*..*
IONMODE=Positive
ORGANISM=HMDB
NAME=HMDB:HMDB01494-1613 Acetylphosphate M+H
PI=HMDB
DATACOLLECTOR=HMDB
SMILES=CC(=O)OP(O)(O)=O
INCHI=InChI=1S/C2H5O5P/c1-2(3)7-8(4,5)6/h1H3,(H2,4,5,6)
INCHIAUX=N/A
PUBMED=N/A
SUBMITUSER=mwang87
TAGS=
LIBRARYQUALITY=3
SPECTRUMID=CCMSLIB00000426851
SCANS=1823
76.0 100.0 
77.0 52.78 
END IONS

BEGIN IONS
PEPMASS=537.446
CHARGE=1+
MSLEVEL=2
SOURCE_INSTRUMENT=Positive-Quattro_QQQ:10eV
FILENAME=hmdb_intermediate.mgf
SEQ=*..*
IONMODE=Positive
ORGANISM=HMDB
NAME=HMDB:HMDB00561-782 B-Carotene M+H
PI=HMDB
DATACOLLECTOR=HMDB
SMILES=C\C(\C=C\C=C(/C)\C=C\C1=C(C)CCCC1(C)C)=C/C=C/C=C(\C)/C=C/C=C(\C)/C=C/C1=C(C)CCCC1(C)C
INCHI=InChI=1S/C40H56/c1-31(19-13-21-33(3)25-27-37-35(5)23-15-29-39(37,7)8)17-11-12-18-32(2)20-14-22-34(4)26-28-38-36(6)24-16-30-40(38,9)10/h11-14,17-22,25-28H,15-16,23-24,29-30H2,1-10H3/b12-11+,19-13+,20-14+,27-25+,28-26+,31-17+,32-18+,33-21+,34-22+
INCHIAUX=N/A
PUBMED=N/A
SUBMITUSER=mwang87
TAGS=
LIBRARYQUALITY=3
SPECTRUMID=CCMSLIB00000426852
SCANS=1824
191.415 100.0 
536.763 71.578 
END IONS

BEGIN IONS
PEPMASS=163.124
CHARGE=1+
MSLEVEL=2
SOURCE_INSTRUMENT=Positive-Quattro_QQQ:25eV
FILENAME=hmdb_intermediate.mgf
SEQ=*..*
IONMODE=Positive
ORGANISM=HMDB
NAME=HMDB:HMDB01934-1879 L(-)-Nicotine pestanal M+H
PI=HMDB
DATACOLLECTOR=HMDB
SMILES=CN1CCC[C@H]1C1=CN=CC=C1
INCHI=InChI=1S/C10H14N2/c1-12-7-3-5-10(12)9-4-2-6-11-8-9/h2,4,6,8,10H,3,5,7H2,1H3/t10-/m0/s1
INCHIAUX=N/A
PUBMED=N/A
SUBMITUSER=mwang87
TAGS=
LIBRARYQUALITY=3
SPECTRUMID=CCMSLIB00000426853
SCANS=1825
117.0 84.561 
130.0 100.0 
END IONS

BEGIN IONS
PEPMASS=665.125
CHARGE=1+
MSLEVEL=2
SOURCE_INSTRUMENT=Positive-Quattro_QQQ:25eV
FILENAME=hmdb_intermediate.mgf
SEQ=*..*
IONMODE=Positive
ORGANISM=HMDB
NAME=HMDB:HMDB00902-1281 NAD M+H
PI=HMDB
DATACOLLECTOR=HMDB
SMILES=NC(=O)C1=C[N+](=CC=C1)[C@@H]1O[C@H](COP(O)(=O)OP(O)(=O)OC[C@H]2O[C@H]([C@H](O)[C@@H]2O)N2C=NC3=C2N=CN=C3N)[C@@H](O)[C@H]1O
INCHI=InChI=1S/C21H27N7O14P2/c22-17-12-19(25-7-24-17)28(8-26-12)21-16(32)14(30)11(41-21)6-39-44(36,37)42-43(34,35)38-5-10-13(29)15(31)20(40-10)27-3-1-2-9(4-27)18(23)33/h1-4,7-8,10-11,13-16,20-21,29-32H,5-6H2,(H5-,22,23,24,25,33,34,35,36,37)/p+1/t10-,11-,13-,14-,15-,16-,20-,21-/m1/s1
INCHIAUX=N/A
PUBMED=N/A
SUBMITUSER=mwang87
TAGS=
LIBRARYQUALITY=3
SPECTRUMID=CCMSLIB00000426854
SCANS=1826
136.0 100.0 
428.0 56.044 
END IONS

BEGIN IONS
PEPMASS=169.098
CHARGE=1+
MSLEVEL=2
SOURCE_INSTRUMENT=Positive-Quattro_QQQ:25eV
FILENAME=hmdb_intermediate.mgf
SEQ=*..*
IONMODE=Positive
ORGANISM=HMDB
NAME=HMDB:HMDB01431-1575 Pyridoxamine M+H
PI=HMDB
DATACOLLECTOR=HMDB
SMILES=CC1=C(O)C(CN)=C(CO)C=N1
INCHI=InChI=1S/C8H12N2O2/c1-5-8(12)7(2-9)6(4-11)3-10-5/h3,11-12H,2,4,9H2,1H3
INCHIAUX=N/A
PUBMED=N/A
SUBMITUSER=mwang87
TAGS=
LIBRARYQUALITY=3
SPECTRUMID=CCMSLIB00000426855
SCANS=1827
133.999 100.0 
END IONS

BEGIN IONS
PEPMASS=175.024
CHARGE=1+
MSLEVEL=2
SOURCE_INSTRUMENT=Positive-Quattro_QQQ:25eV
FILENAME=hmdb_intermediate.mgf
SEQ=*..*
IONMODE=Positive
ORGANISM=HMDB
NAME=HMDB:HMDB00958-1361 trans-Aconitic acid M+H
PI=HMDB
DATACOLLECTOR=HMDB
SMILES=OC(=O)C\C(=C/C(O)=O)C(O)=O
INCHI=InChI=1S/C6H6O6/c7-4(8)1-3(6(11)12)2-5(9)10/h1H,2H2,(H,7,8)(H,9,10)(H,11,12)/b3-1+
INCHIAUX=N/A
PUBMED=N/A
SUBMITUSER=mwang87
TAGS=
LIBRARYQUALITY=3
SPECTRUMID=CCMSLIB00000426856
SCANS=1828
41.37 100.0 
85.035 51.923 
END IONS

BEGIN IONS
PEPMASS=227.067
CHARGE=1+
MSLEVEL=2
SOURCE_INSTRUMENT=Positive-Quattro_QQQ:40eV
FILENAME=hmdb_intermediate.mgf
SEQ=*..*
IONMODE=Positive
ORGANISM=HMDB
NAME=HMDB:HMDB01904-1824 3-Nitrotyrosine M+H
PI=HMDB
DATACOLLECTOR=HMDB
SMILES=N[C@@H](CC1=CC(=C(O)C=C1)[N+]([O-])=O)C(O)=O
INCHI=InChI=1S/C9H10N2O5/c10-6(9(13)14)3-5-1-2-8(12)7(4-5)11(15)16/h1-2,4,6,12H,3,10H2,(H,13,14)/t6-/m0/s1
INCHIAUX=N/A
PUBMED=N/A
SUBMITUSER=mwang87
TAGS=
LIBRARYQUALITY=3
SPECTRUMID=CCMSLIB00000426857
SCANS=1829
78.0 88.602 
79.0 52.057 
89.0 100.0 
90.0 80.999 
103.0 60.091 
104.0 61.272 
105.0 68.996 
106.0 51.154 
END IONS

BEGIN IONS
PEPMASS=132.066
CHARGE=1+
MSLEVEL=2
SOURCE_INSTRUMENT=Positive-Quattro_QQQ:40eV
FILENAME=hmdb_intermediate.mgf
SEQ=*..*
IONMODE=Positive
ORGANISM=HMDB
NAME=HMDB:HMDB00783-1118 Propionylglycine M+H
PI=HMDB
DATACOLLECTOR=HMDB
SMILES=CCC(=O)NCC(O)=O
INCHI=InChI=1S/C5H9NO3/c1-2-4(7)6-3-5(8)9/h2-3H2,1H3,(H,6,7)(H,8,9)
INCHIAUX=N/A
PUBMED=N/A
SUBMITUSER=mwang87
TAGS=
LIBRARYQUALITY=3
SPECTRUMID=CCMSLIB00000426858
SCANS=1830
57.495 100.0 
END IONS

BEGIN IONS
PEPMASS=183.066
CHARGE=1+
MSLEVEL=2
SOURCE_INSTRUMENT=Positive-Quattro_QQQ:25eV
FILENAME=hmdb_intermediate.mgf
SEQ=*..*
IONMODE=Positive
ORGANISM=HMDB
NAME=HMDB:HMDB00423-627 3,4-Dihydroxyhydrocinnamic acid M+H
PI=HMDB
DATACOLLECTOR=HMDB
SMILES=OC(=O)CCC1=CC=C(O)C(O)=C1
INCHI=InChI=1S/C9H10O4/c10-7-3-1-6(5-8(7)11)2-4-9(12)13/h1,3,5,10-11H,2,4H2,(H,12,13)
INCHIAUX=N/A
PUBMED=N/A
SUBMITUSER=mwang87
TAGS=
LIBRARYQUALITY=3
SPECTRUMID=CCMSLIB00000426859
SCANS=1831
65.0 67.506 
93.0 100.0 
95.0 53.945 
END IONS

BEGIN IONS
PEPMASS=241.13
CHARGE=1+
MSLEVEL=2
SOURCE_INSTRUMENT=Positive-Quattro_QQQ:40eV
FILENAME=hmdb_intermediate.mgf
SEQ=*..*
IONMODE=Positive
ORGANISM=HMDB
NAME=HMDB:HMDB00194-315 Anserine M+H
PI=HMDB
DATACOLLECTOR=HMDB
SMILES=CN1C=NC=C1C[C@H](NC(=O)CCN)C(O)=O
INCHI=InChI=1S/C10H16N4O3/c1-14-6-12-5-7(14)4-8(10(16)17)13-9(15)2-3-11/h5-6,8H,2-4,11H2,1H3,(H,13,15)(H,16,17)/t8-/m0/s1
INCHIAUX=N/A
PUBMED=N/A
SUBMITUSER=mwang87
TAGS=
LIBRARYQUALITY=3
SPECTRUMID=CCMSLIB00000426860
SCANS=1832
70.673 73.342 
95.357 96.195 
96.485 85.112 
96.86 100.0 
119.164 96.195 
END IONS

BEGIN IONS
PEPMASS=391.285
CHARGE=1+
MSLEVEL=2
SOURCE_INSTRUMENT=Positive-Quattro_QQQ:25eV
FILENAME=hmdb_intermediate.mgf
SEQ=*..*
IONMODE=Positive
ORGANISM=HMDB
NAME=HMDB:HMDB00467-678 Nutriacholic acid M+H
PI=HMDB
DATACOLLECTOR=HMDB
SMILES=[H][C@@]12CCC([C@@H](C)CCC(O)=O)[C@@]1(C)CC[C@@]1([H])[C@@]2([H])C(=O)C[C@]2([H])C[C@H](O)CC[C@]12C
INCHI=InChI=1S/C24H38O4/c1-14(4-7-21(27)28)17-5-6-18-22-19(9-11-24(17,18)3)23(2)10-8-16(25)12-15(23)13-20(22)26/h14-19,22,25H,4-13H2,1-3H3,(H,27,28)/t14-,15-,16+,17?,18-,19-,22-,23-,24+/m0/s1
INCHIAUX=N/A
PUBMED=N/A
SUBMITUSER=mwang87
TAGS=
LIBRARYQUALITY=3
SPECTRUMID=CCMSLIB00000426861
SCANS=1833
135.633 100.0 
146.802 60.385 
291.664 57.54 
319.292 70.155 
END IONS

BEGIN IONS
PEPMASS=131.118
CHARGE=1+
MSLEVEL=2
SOURCE_INSTRUMENT=Positive-Quattro_QQQ:40eV
FILENAME=hmdb_intermediate.mgf
SEQ=*..*
IONMODE=Positive
ORGANISM=HMDB
NAME=HMDB:HMDB60268-1977 N-Acetylputrescinium M+H
PI=HMDB
DATACOLLECTOR=HMDB
SMILES=CC(O)=NCCCCN
INCHI=InChI=1S/C6H14N2O/c1-6(9)8-5-3-2-4-7/h2-5,7H2,1H3,(H,8,9)
INCHIAUX=N/A
PUBMED=N/A
SUBMITUSER=mwang87
TAGS=
LIBRARYQUALITY=3
SPECTRUMID=CCMSLIB00000426862
SCANS=1834
72.0 100.0 
END IONS

BEGIN IONS
PEPMASS=651.608
CHARGE=1+
MSLEVEL=2
SOURCE_INSTRUMENT=Positive-Quattro_QQQ:10eV
FILENAME=hmdb_intermediate.mgf
SEQ=*..*
IONMODE=Positive
ORGANISM=HMDB
NAME=HMDB:HMDB00918-1303 CE(18:1(9Z)) M+H
PI=HMDB
DATACOLLECTOR=HMDB
SMILES=CCCCCCCC\C=C/CCCCCCCC(=O)O[C@H]1CC[C@@]2(C)C(=CC[C@@]3([H])[C@]4([H])CC[C@]([H])([C@H](C)CCCC(C)C)[C@@]4(C)CC[C@]23[H])C1
INCHI=InChI=1S/C45H78O2/c1-7-8-9-10-11-12-13-14-15-16-17-18-19-20-21-25-43(46)47-38-30-32-44(5)37(34-38)26-27-39-41-29-28-40(36(4)24-22-23-35(2)3)45(41,6)33-31-42(39)44/h14-15,26,35-36,38-42H,7-13,16-25,27-34H2,1-6H3/b15-14-/t36-,38+,39+,40-,41+,42+,44+,45-/m1/s1
INCHIAUX=N/A
PUBMED=N/A
SUBMITUSER=mwang87
TAGS=
LIBRARYQUALITY=3
SPECTRUMID=CCMSLIB00000426863
SCANS=1835
650.0 100.0 
651.0 83.603 
END IONS

BEGIN IONS
PEPMASS=169.05
CHARGE=1+
MSLEVEL=2
SOURCE_INSTRUMENT=Positive-Quattro_QQQ:10eV
FILENAME=hmdb_intermediate.mgf
SEQ=*..*
IONMODE=Positive
ORGANISM=HMDB
NAME=HMDB:HMDB00130-197 Homogentisic acid M+H
PI=HMDB
DATACOLLECTOR=HMDB
SMILES=OC(=O)CC1=C(O)C=CC(O)=C1
INCHI=InChI=1S/C8H8O4/c9-6-1-2-7(10)5(3-6)4-8(11)12/h1-3,9-10H,4H2,(H,11,12)
INCHIAUX=N/A
PUBMED=N/A
SUBMITUSER=mwang87
TAGS=
LIBRARYQUALITY=3
SPECTRUMID=CCMSLIB00000426864
SCANS=1836
123.0 100.0 
END IONS

BEGIN IONS
PEPMASS=409.295
CHARGE=1+
MSLEVEL=2
SOURCE_INSTRUMENT=Positive-Quattro_QQQ:10eV
FILENAME=hmdb_intermediate.mgf
SEQ=*..*
IONMODE=Positive
ORGANISM=HMDB
NAME=HMDB:HMDB00364-579 3a,6a,7b-Trihydroxy-5b-cholanoic acid M+H
PI=HMDB
DATACOLLECTOR=HMDB
SMILES=[H][C@@]12CC[C@H]([C@H](C)CCC(O)=O)[C@@]1(C)CC[C@@]1([H])[C@@]2([H])[C@@H](O)[C@H](O)[C@]2([H])C[C@H](O)CC[C@]12C
INCHI=InChI=1S/C24H40O5/c1-13(4-7-19(26)27)15-5-6-16-20-17(9-11-23(15,16)2)24(3)10-8-14(25)12-18(24)21(28)22(20)29/h13-18,20-22,25,28-29H,4-12H2,1-3H3,(H,26,27)/t13-,14-,15-,16+,17+,18+,20+,21-,22-,23-,24-/m1/s1
INCHIAUX=N/A
PUBMED=N/A
SUBMITUSER=mwang87
TAGS=
LIBRARYQUALITY=3
SPECTRUMID=CCMSLIB00000426865
SCANS=1837
408.93 100.0 
END IONS

BEGIN IONS
PEPMASS=153.076
CHARGE=1+
MSLEVEL=2
SOURCE_INSTRUMENT=Positive-Quattro_QQQ:40eV
FILENAME=hmdb_intermediate.mgf
SEQ=*..*
IONMODE=Positive
ORGANISM=HMDB
NAME=HMDB:HMDB00568-796 D-Arabitol M+H
PI=HMDB
DATACOLLECTOR=HMDB
SMILES=OCC(O)C(O)C(O)CO
INCHI=InChI=1S/C5H12O5/c6-1-3(8)5(10)4(9)2-7/h3-10H,1-2H2
INCHIAUX=N/A
PUBMED=N/A
SUBMITUSER=mwang87
TAGS=
LIBRARYQUALITY=3
SPECTRUMID=CCMSLIB00000426866
SCANS=1838
61.0 100.0 
69.0 76.631 
END IONS

BEGIN IONS
PEPMASS=124.04
CHARGE=1+
MSLEVEL=2
SOURCE_INSTRUMENT=Positive-Quattro_QQQ:25eV
FILENAME=hmdb_intermediate.mgf
SEQ=*..*
IONMODE=Positive
ORGANISM=HMDB
NAME=HMDB:HMDB02243-2044 Picolinic acid M+H
PI=HMDB
DATACOLLECTOR=HMDB
SMILES=OC(=O)C1=CC=CC=N1
INCHI=InChI=1S/C6H5NO2/c8-6(9)5-3-1-2-4-7-5/h1-4H,(H,8,9)
INCHIAUX=N/A
PUBMED=N/A
SUBMITUSER=mwang87
TAGS=
LIBRARYQUALITY=3
SPECTRUMID=CCMSLIB00000426867
SCANS=1839
77.945 100.0 
END IONS

BEGIN IONS
PEPMASS=118.05
CHARGE=1+
MSLEVEL=2
SOURCE_INSTRUMENT=Positive-Quattro_QQQ:10eV
FILENAME=hmdb_intermediate.mgf
SEQ=*..*
IONMODE=Positive
ORGANISM=HMDB
NAME=HMDB:HMDB00532-752 Acetylglycine M+H
PI=HMDB
DATACOLLECTOR=HMDB
SMILES=CC(=O)NCC(O)=O
INCHI=InChI=1S/C4H7NO3/c1-3(6)5-2-4(7)8/h2H2,1H3,(H,5,6)(H,7,8)
INCHIAUX=N/A
PUBMED=N/A
SUBMITUSER=mwang87
TAGS=
LIBRARYQUALITY=3
SPECTRUMID=CCMSLIB00000426868
SCANS=1840
76.074 100.0 
END IONS

BEGIN IONS
PEPMASS=167.071
CHARGE=1+
MSLEVEL=2
SOURCE_INSTRUMENT=Positive-Quattro_QQQ:10eV
FILENAME=hmdb_intermediate.mgf
SEQ=*..*
IONMODE=Positive
ORGANISM=HMDB
NAME=HMDB:HMDB00779-1107 Phenyllactic acid M+H
PI=HMDB
DATACOLLECTOR=HMDB
SMILES=OC(CC1=CC=CC=C1)C(O)=O
INCHI=InChI=1S/C9H10O3/c10-8(9(11)12)6-7-4-2-1-3-5-7/h1-5,8,10H,6H2,(H,11,12)
INCHIAUX=N/A
PUBMED=N/A
SUBMITUSER=mwang87
TAGS=
LIBRARYQUALITY=3
SPECTRUMID=CCMSLIB00000426869
SCANS=1841
84.058 100.0 
126.698 51.478 
END IONS

BEGIN IONS
PEPMASS=115.003
CHARGE=1+
MSLEVEL=2
SOURCE_INSTRUMENT=Negative-Quattro_QQQ:10eV
FILENAME=hmdb_intermediate.mgf
SEQ=*..*
IONMODE=Negative
ORGANISM=HMDB
NAME=HMDB:HMDB00134-206 Fumaric acid M-H
PI=HMDB
DATACOLLECTOR=HMDB
SMILES=OC(=O)\C=C\C(O)=O
INCHI=InChI=1S/C4H4O4/c5-3(6)1-2-4(7)8/h1-2H,(H,5,6)(H,7,8)/b2-1+
INCHIAUX=N/A
PUBMED=N/A
SUBMITUSER=mwang87
TAGS=
LIBRARYQUALITY=3
SPECTRUMID=CCMSLIB00000426870
SCANS=1842
71.102 100.0 
END IONS

BEGIN IONS
PEPMASS=355.358
CHARGE=1+
MSLEVEL=2
SOURCE_INSTRUMENT=Positive-Quattro_QQQ:10eV
FILENAME=hmdb_intermediate.mgf
SEQ=*..*
IONMODE=Positive
ORGANISM=HMDB
NAME=HMDB:HMDB01160-1439 Tricosanoic acid M+H
PI=HMDB
DATACOLLECTOR=HMDB
SMILES=CCCCCCCCCCCCCCCCCCCCCCC(O)=O
INCHI=InChI=1S/C23H46O2/c1-2-3-4-5-6-7-8-9-10-11-12-13-14-15-16-17-18-19-20-21-22-23(24)25/h2-22H2,1H3,(H,24,25)
INCHIAUX=N/A
PUBMED=N/A
SUBMITUSER=mwang87
TAGS=
LIBRARYQUALITY=3
SPECTRUMID=CCMSLIB00000426871
SCANS=1843
218.0 52.665 
286.0 53.277 
354.0 100.0 
355.0 61.843 
END IONS

BEGIN IONS
PEPMASS=151.04
CHARGE=1+
MSLEVEL=2
SOURCE_INSTRUMENT=Negative-Quattro_QQQ:10eV
FILENAME=hmdb_intermediate.mgf
SEQ=*..*
IONMODE=Negative
ORGANISM=HMDB
NAME=HMDB:HMDB00020-33 p-Hydroxyphenylacetic acid M-H
PI=HMDB
DATACOLLECTOR=HMDB
SMILES=OC(=O)CC1=CC=C(O)C=C1
INCHI=InChI=1S/C8H8O3/c9-7-3-1-6(2-4-7)5-8(10)11/h1-4,9H,5H2,(H,10,11)
INCHIAUX=N/A
PUBMED=N/A
SUBMITUSER=mwang87
TAGS=
LIBRARYQUALITY=3
SPECTRUMID=CCMSLIB00000426872
SCANS=1844
107.292 100.0 
151.209 50.0 
END IONS

BEGIN IONS
PEPMASS=184.097
CHARGE=1+
MSLEVEL=2
SOURCE_INSTRUMENT=Positive-Quattro_QQQ:10eV
FILENAME=hmdb_intermediate.mgf
SEQ=*..*
IONMODE=Positive
ORGANISM=HMDB
NAME=HMDB:HMDB00068-108 Epinephrine M+H
PI=HMDB
DATACOLLECTOR=HMDB
SMILES=CNC[C@H](O)C1=CC=C(O)C(O)=C1
INCHI=InChI=1S/C9H13NO3/c1-10-5-9(13)6-2-3-7(11)8(12)4-6/h2-4,9-13H,5H2,1H3/t9-/m0/s1
INCHIAUX=N/A
PUBMED=N/A
SUBMITUSER=mwang87
TAGS=
LIBRARYQUALITY=3
SPECTRUMID=CCMSLIB00000426873
SCANS=1845
165.948 100.0 
END IONS

BEGIN IONS
PEPMASS=72.0449
CHARGE=1+
MSLEVEL=2
SOURCE_INSTRUMENT=Positive-Quattro_QQQ:40eV
FILENAME=hmdb_intermediate.mgf
SEQ=*..*
IONMODE=Positive
ORGANISM=HMDB
NAME=HMDB:HMDB04296-2381 Acrylamide M+H
PI=HMDB
DATACOLLECTOR=HMDB
SMILES=NC(=O)C=C
INCHI=InChI=1S/C3H5NO/c1-2-3(4)5/h2H,1H2,(H2,4,5)
INCHIAUX=N/A
PUBMED=N/A
SUBMITUSER=mwang87
TAGS=
LIBRARYQUALITY=3
SPECTRUMID=CCMSLIB00000426874
SCANS=1846
44.15 100.0 
54.1 55.019 
55.31 63.31 
71.93 95.134 
END IONS

BEGIN IONS
PEPMASS=141.066
CHARGE=1+
MSLEVEL=2
SOURCE_INSTRUMENT=Positive-Quattro_QQQ:25eV
FILENAME=hmdb_intermediate.mgf
SEQ=*..*
IONMODE=Positive
ORGANISM=HMDB
NAME=HMDB:HMDB02820-2141 Methylimidazoleacetic acid M+H
PI=HMDB
DATACOLLECTOR=HMDB
SMILES=CN1C=NC(CC(O)=O)=C1
INCHI=InChI=1S/C6H8N2O2/c1-8-3-5(7-4-8)2-6(9)10/h3-4H,2H2,1H3,(H,9,10)
INCHIAUX=N/A
PUBMED=N/A
SUBMITUSER=mwang87
TAGS=
LIBRARYQUALITY=3
SPECTRUMID=CCMSLIB00000426875
SCANS=1847
95.0 100.0 
END IONS

BEGIN IONS
PEPMASS=287.237
CHARGE=1+
MSLEVEL=2
SOURCE_INSTRUMENT=Positive-Quattro_QQQ:10eV
FILENAME=hmdb_intermediate.mgf
SEQ=*..*
IONMODE=Positive
ORGANISM=HMDB
NAME=HMDB:HMDB00305-519 Vitamin A M+H
PI=HMDB
DATACOLLECTOR=HMDB
SMILES=C\C(=C/CO)\C=C\C=C(/C)\C=C\C1=C(C)CCCC1(C)C
INCHI=InChI=1S/C20H30O/c1-16(8-6-9-17(2)13-15-21)11-12-19-18(3)10-7-14-20(19,4)5/h6,8-9,11-13,21H,7,10,14-15H2,1-5H3/b9-6+,12-11+,16-8+,17-13+
INCHIAUX=N/A
PUBMED=N/A
SUBMITUSER=mwang87
TAGS=
LIBRARYQUALITY=3
SPECTRUMID=CCMSLIB00000426876
SCANS=1848
287.184 100.0 
END IONS

BEGIN IONS
PEPMASS=623.577
CHARGE=1+
MSLEVEL=2
SOURCE_INSTRUMENT=Positive-Quattro_QQQ:10eV
FILENAME=hmdb_intermediate.mgf
SEQ=*..*
IONMODE=Positive
ORGANISM=HMDB
NAME=HMDB:HMDB00658-897 CE(16:1(9Z)) M+H
PI=HMDB
DATACOLLECTOR=HMDB
SMILES=CCCCCC\C=C/CCCCCCCC(=O)OC1CC[C@@]2(C)C(=CCC3C4CC[C@H]([C@H](C)CCCC(C)C)[C@@]4(C)CCC23)C1
INCHI=InChI=1S/C43H74O2/c1-7-8-9-10-11-12-13-14-15-16-17-18-19-23-41(44)45-36-28-30-42(5)35(32-36)24-25-37-39-27-26-38(34(4)22-20-21-33(2)3)43(39,6)31-29-40(37)42/h12-13,24,33-34,36-40H,7-11,14-23,25-32H2,1-6H3/b13-12-/t34-,36?,37?,38-,39?,40?,42+,43-/m1/s1
INCHIAUX=N/A
PUBMED=N/A
SUBMITUSER=mwang87
TAGS=
LIBRARYQUALITY=3
SPECTRUMID=CCMSLIB00000426877
SCANS=1849
622.0 79.522 
623.0 100.0 
END IONS

BEGIN IONS
PEPMASS=104.071
CHARGE=1+
MSLEVEL=2
SOURCE_INSTRUMENT=Positive-Quattro_QQQ:40eV
FILENAME=hmdb_intermediate.mgf
SEQ=*..*
IONMODE=Positive
ORGANISM=HMDB
NAME=HMDB:HMDB01906-1827 2-Aminoisobutyric acid M+H
PI=HMDB
DATACOLLECTOR=HMDB
SMILES=CC(C)(N)C(O)=O
INCHI=InChI=1S/C4H9NO2/c1-4(2,5)3(6)7/h5H2,1-2H3,(H,6,7)
INCHIAUX=N/A
PUBMED=N/A
SUBMITUSER=mwang87
TAGS=
LIBRARYQUALITY=3
SPECTRUMID=CCMSLIB00000426878
SCANS=1850
104.0 100.0 
END IONS

BEGIN IONS
PEPMASS=291.087
CHARGE=1+
MSLEVEL=2
SOURCE_INSTRUMENT=Positive-Quattro_QQQ:40eV
FILENAME=hmdb_intermediate.mgf
SEQ=*..*
IONMODE=Positive
ORGANISM=HMDB
NAME=HMDB:HMDB01871-1761 Epicatechin M+H
PI=HMDB
DATACOLLECTOR=HMDB
SMILES=O[C@@H]1CC2=C(O)C=C(O)C=C2O[C@@H]1C1=CC(O)=C(O)C=C1
INCHI=InChI=1S/C15H14O6/c16-8-4-11(18)9-6-13(20)15(21-14(9)5-8)7-1-2-10(17)12(19)3-7/h1-5,13,15-20H,6H2/t13-,15-/m1/s1
INCHIAUX=N/A
PUBMED=N/A
SUBMITUSER=mwang87
TAGS=
LIBRARYQUALITY=3
SPECTRUMID=CCMSLIB00000426879
SCANS=1851
55.436 62.791 
115.623 82.808 
138.859 100.0 
END IONS

BEGIN IONS
PEPMASS=345.14
CHARGE=1+
MSLEVEL=2
SOURCE_INSTRUMENT=Positive-Quattro_QQQ:25eV
FILENAME=hmdb_intermediate.mgf
SEQ=*..*
IONMODE=Positive
ORGANISM=HMDB
NAME=HMDB:HMDB02928-2171 Maltitol M+H
PI=HMDB
DATACOLLECTOR=HMDB
SMILES=[H][C@@](O[C@H]1O[C@H](CO)[C@@H](O)[C@H](O)[C@H]1O)([C@H](O)CO)[C@H](O)[C@@H](O)CO
INCHI=InChI=1S/C12H24O11/c13-1-4(16)7(18)11(5(17)2-14)23-12-10(21)9(20)8(19)6(3-15)22-12/h4-21H,1-3H2/t4-,5+,6+,7+,8+,9-,10+,11+,12+/m0/s1
INCHIAUX=N/A
PUBMED=N/A
SUBMITUSER=mwang87
TAGS=
LIBRARYQUALITY=3
SPECTRUMID=CCMSLIB00000426880
SCANS=1852
69.0 100.0 
END IONS

BEGIN IONS
PEPMASS=152.057
CHARGE=1+
MSLEVEL=2
SOURCE_INSTRUMENT=Positive-Quattro_QQQ:40eV
FILENAME=hmdb_intermediate.mgf
SEQ=*..*
IONMODE=Positive
ORGANISM=HMDB
NAME=HMDB:HMDB00403-614 2-Hydroxyadenine M+H
PI=HMDB
DATACOLLECTOR=HMDB
SMILES=NC1=NC(O)=NC2=C1NC=N2
INCHI=InChI=1S/C5H5N5O/c6-3-2-4(8-1-7-2)10-5(11)9-3/h1H,(H4,6,7,8,9,10,11)
INCHIAUX=N/A
PUBMED=N/A
SUBMITUSER=mwang87
TAGS=
LIBRARYQUALITY=3
SPECTRUMID=CCMSLIB00000426881
SCANS=1853
80.0 100.0 
81.0 56.741 
END IONS

BEGIN IONS
PEPMASS=117.055
CHARGE=1+
MSLEVEL=2
SOURCE_INSTRUMENT=Positive-Quattro_QQQ:40eV
FILENAME=hmdb_intermediate.mgf
SEQ=*..*
IONMODE=Positive
ORGANISM=HMDB
NAME=HMDB:HMDB00720-1013 Levulinic acid M+H
PI=HMDB
DATACOLLECTOR=HMDB
SMILES=CC(=O)CCC(O)=O
INCHI=InChI=1S/C5H8O3/c1-4(6)2-3-5(7)8/h2-3H2,1H3,(H,7,8)
INCHIAUX=N/A
PUBMED=N/A
SUBMITUSER=mwang87
TAGS=
LIBRARYQUALITY=3
SPECTRUMID=CCMSLIB00000426882
SCANS=1854
41.235 60.55 
115.005 100.0 
END IONS

BEGIN IONS
PEPMASS=245.077
CHARGE=1+
MSLEVEL=2
SOURCE_INSTRUMENT=Positive-Quattro_QQQ:10eV
FILENAME=hmdb_intermediate.mgf
SEQ=*..*
IONMODE=Positive
ORGANISM=HMDB
NAME=HMDB:HMDB00296-504 Uridine M+H
PI=HMDB
DATACOLLECTOR=HMDB
SMILES=OC[C@H]1O[C@H]([C@H](O)[C@@H]1O)N1C=CC(=O)NC1=O
INCHI=InChI=1S/C9H12N2O6/c12-3-4-6(14)7(15)8(17-4)11-2-1-5(13)10-9(11)16/h1-2,4,6-8,12,14-15H,3H2,(H,10,13,16)/t4-,6-,7-,8-/m1/s1
INCHIAUX=N/A
PUBMED=N/A
SUBMITUSER=mwang87
TAGS=
LIBRARYQUALITY=3
SPECTRUMID=CCMSLIB00000426883
SCANS=1855
113.015 100.0 
END IONS

BEGIN IONS
PEPMASS=167.071
CHARGE=1+
MSLEVEL=2
SOURCE_INSTRUMENT=Positive-Quattro_QQQ:25eV
FILENAME=hmdb_intermediate.mgf
SEQ=*..*
IONMODE=Positive
ORGANISM=HMDB
NAME=HMDB:HMDB02199-2026 Desaminotyrosine M+H
PI=HMDB
DATACOLLECTOR=HMDB
SMILES=OC(=O)CCC1=CC=C(O)C=C1
INCHI=InChI=1S/C9H10O3/c10-8-4-1-7(2-5-8)3-6-9(11)12/h1-2,4-5,10H,3,6H2,(H,11,12)
INCHIAUX=N/A
PUBMED=N/A
SUBMITUSER=mwang87
TAGS=
LIBRARYQUALITY=3
SPECTRUMID=CCMSLIB00000426884
SCANS=1856
73.0 50.78 
77.0 51.668 
89.0 100.0 
91.0 56.934 
END IONS

BEGIN IONS
PEPMASS=151.076
CHARGE=1+
MSLEVEL=2
SOURCE_INSTRUMENT=Positive-Quattro_QQQ:25eV
FILENAME=hmdb_intermediate.mgf
SEQ=*..*
IONMODE=Positive
ORGANISM=HMDB
NAME=HMDB:HMDB00764-1099 Hydrocinnamic acid M+H
PI=HMDB
DATACOLLECTOR=HMDB
SMILES=OC(=O)CCC1=CC=CC=C1
INCHI=InChI=1S/C9H10O2/c10-9(11)7-6-8-4-2-1-3-5-8/h1-5H,6-7H2,(H,10,11)
INCHIAUX=N/A
PUBMED=N/A
SUBMITUSER=mwang87
TAGS=
LIBRARYQUALITY=3
SPECTRUMID=CCMSLIB00000426885
SCANS=1857
90.0 100.0 
END IONS

BEGIN IONS
PEPMASS=334.905
CHARGE=1+
MSLEVEL=2
SOURCE_INSTRUMENT=Negative-Quattro_QQQ:40eV
FILENAME=hmdb_intermediate.mgf
SEQ=*..*
IONMODE=Negative
ORGANISM=HMDB
NAME=HMDB:HMDB04122-2369 Selenocystine M-H
PI=HMDB
DATACOLLECTOR=HMDB
SMILES=NC(C[Se][Se]CC(N)C(O)=O)C(O)=O
INCHI=InChI=1S/C6H12N2O4Se2/c7-3(5(9)10)1-13-14-2-4(8)6(11)12/h3-4H,1-2,7-8H2,(H,9,10)(H,11,12)
INCHIAUX=N/A
PUBMED=N/A
SUBMITUSER=mwang87
TAGS=
LIBRARYQUALITY=3
SPECTRUMID=CCMSLIB00000426886
SCANS=1858
160.0 100.0 
END IONS

BEGIN IONS
PEPMASS=134.061
CHARGE=1+
MSLEVEL=2
SOURCE_INSTRUMENT=Positive-Quattro_QQQ:40eV
FILENAME=hmdb_intermediate.mgf
SEQ=*..*
IONMODE=Positive
ORGANISM=HMDB
NAME=HMDB:HMDB04094-2360 Indoxyl M+H
PI=HMDB
DATACOLLECTOR=HMDB
SMILES=OC1=CNC2=CC=CC=C12
INCHI=InChI=1S/C8H7NO/c10-8-5-9-7-4-2-1-3-6(7)8/h1-5,9-10H
INCHIAUX=N/A
PUBMED=N/A
SUBMITUSER=mwang87
TAGS=
LIBRARYQUALITY=3
SPECTRUMID=CCMSLIB00000426887
SCANS=1859
77.0 100.0 
END IONS

BEGIN IONS
PEPMASS=133.05
CHARGE=1+
MSLEVEL=2
SOURCE_INSTRUMENT=Positive-Quattro_QQQ:40eV
FILENAME=hmdb_intermediate.mgf
SEQ=*..*
IONMODE=Positive
ORGANISM=HMDB
NAME=HMDB:HMDB02001-1937 Dimethylmalonic acid M+H
PI=HMDB
DATACOLLECTOR=HMDB
SMILES=CC(C)(C(O)=O)C(O)=O
INCHI=InChI=1S/C5H8O4/c1-5(2,3(6)7)4(8)9/h1-2H3,(H,6,7)(H,8,9)
INCHIAUX=N/A
PUBMED=N/A
SUBMITUSER=mwang87
TAGS=
LIBRARYQUALITY=3
SPECTRUMID=CCMSLIB00000426888
SCANS=1860
72.0 100.0 
73.0 57.635 
87.0 52.054 
END IONS

BEGIN IONS
PEPMASS=127.051
CHARGE=1+
MSLEVEL=2
SOURCE_INSTRUMENT=Positive-Quattro_QQQ:25eV
FILENAME=hmdb_intermediate.mgf
SEQ=*..*
IONMODE=Positive
ORGANISM=HMDB
NAME=HMDB:HMDB02024-1951 Imidazoleacetic acid M+H
PI=HMDB
DATACOLLECTOR=HMDB
SMILES=OC(=O)CC1=CN=CN1
INCHI=InChI=1S/C5H6N2O2/c8-5(9)1-4-2-6-3-7-4/h2-3H,1H2,(H,6,7)(H,8,9)
INCHIAUX=N/A
PUBMED=N/A
SUBMITUSER=mwang87
TAGS=
LIBRARYQUALITY=3
SPECTRUMID=CCMSLIB00000426889
SCANS=1861
81.0 100.0 
END IONS

BEGIN IONS
PEPMASS=130.087
CHARGE=1+
MSLEVEL=2
SOURCE_INSTRUMENT=Positive-Quattro_QQQ:10eV
FILENAME=hmdb_intermediate.mgf
SEQ=*..*
IONMODE=Positive
ORGANISM=HMDB
NAME=HMDB:HMDB00070-111 Pipecolic acid M+H
PI=HMDB
DATACOLLECTOR=HMDB
SMILES=OC(=O)C1CCCCN1
INCHI=InChI=1S/C6H11NO2/c8-6(9)5-3-1-2-4-7-5/h5,7H,1-4H2,(H,8,9)
INCHIAUX=N/A
PUBMED=N/A
SUBMITUSER=mwang87
TAGS=
LIBRARYQUALITY=3
SPECTRUMID=CCMSLIB00000426890
SCANS=1862
84.043 100.0 
129.911 100.0 
END IONS

BEGIN IONS
PEPMASS=155.144
CHARGE=1+
MSLEVEL=2
SOURCE_INSTRUMENT=Positive-Quattro_QQQ:40eV
FILENAME=hmdb_intermediate.mgf
SEQ=*..*
IONMODE=Positive
ORGANISM=HMDB
NAME=HMDB:HMDB05812-2459 Geraniol M+H
PI=HMDB
DATACOLLECTOR=HMDB
SMILES=CC(C)=CCC\C(C)=C/CO
INCHI=InChI=1S/C10H18O/c1-9(2)5-4-6-10(3)7-8-11/h5,7,11H,4,6,8H2,1-3H3/b10-7-
INCHIAUX=N/A
PUBMED=N/A
SUBMITUSER=mwang87
TAGS=
LIBRARYQUALITY=3
SPECTRUMID=CCMSLIB00000426891
SCANS=1863
79.02 52.7355197187 
81.06 100.0 
END IONS

BEGIN IONS
PEPMASS=299.123
CHARGE=1+
MSLEVEL=2
SOURCE_INSTRUMENT=Positive-Quattro_QQQ:40eV
FILENAME=hmdb_intermediate.mgf
SEQ=*..*
IONMODE=Positive
ORGANISM=HMDB
NAME=HMDB:HMDB01107-1426 7-Methylguanosine M+H
PI=HMDB
DATACOLLECTOR=HMDB
SMILES=CN1C=[N+]([C@@H]2O[C@H](CO)[C@@H](O)[C@H]2O)C2=C1C(=O)N=C(N)N2
INCHI=InChI=1S/C11H15N5O5/c1-15-3-16(8-5(15)9(20)14-11(12)13-8)10-7(19)6(18)4(2-17)21-10/h3-4,6-7,10,17-19H,2H2,1H3,(H2-,12,13,14,20)/p+1/t4-,6-,7-,10-/m1/s1
INCHIAUX=N/A
PUBMED=N/A
SUBMITUSER=mwang87
TAGS=
LIBRARYQUALITY=3
SPECTRUMID=CCMSLIB00000426892
SCANS=1864
148.928 100.0 
165.942 98.286 
END IONS

BEGIN IONS
PEPMASS=147.045
CHARGE=1+
MSLEVEL=2
SOURCE_INSTRUMENT=Positive-Quattro_QQQ:10eV
FILENAME=hmdb_intermediate.mgf
SEQ=*..*
IONMODE=Positive
ORGANISM=HMDB
NAME=HMDB:HMDB01218-1469 Coumarin M+H
PI=HMDB
DATACOLLECTOR=HMDB
SMILES=O=C1OC2=CC=CC=C2C=C1
INCHI=InChI=1S/C9H6O2/c10-9-6-5-7-3-1-2-4-8(7)11-9/h1-6H
INCHIAUX=N/A
PUBMED=N/A
SUBMITUSER=mwang87
TAGS=
LIBRARYQUALITY=3
SPECTRUMID=CCMSLIB00000426893
SCANS=1865
147.0 100.0 
END IONS

BEGIN IONS
PEPMASS=137.046
CHARGE=1+
MSLEVEL=2
SOURCE_INSTRUMENT=Positive-Quattro_QQQ:10eV
FILENAME=hmdb_intermediate.mgf
SEQ=*..*
IONMODE=Positive
ORGANISM=HMDB
NAME=HMDB:HMDB00157-242 Hypoxanthine M+H
PI=HMDB
DATACOLLECTOR=HMDB
SMILES=OC1=NC=NC2=C1NC=N2
INCHI=InChI=1S/C5H4N4O/c10-5-3-4(7-1-6-3)8-2-9-5/h1-2H,(H2,6,7,8,9,10)
INCHIAUX=N/A
PUBMED=N/A
SUBMITUSER=mwang87
TAGS=
LIBRARYQUALITY=3
SPECTRUMID=CCMSLIB00000426894
SCANS=1866
136.92 100.0 
END IONS

BEGIN IONS
PEPMASS=397.405
CHARGE=1+
MSLEVEL=2
SOURCE_INSTRUMENT=Positive-Quattro_QQQ:10eV
FILENAME=hmdb_intermediate.mgf
SEQ=*..*
IONMODE=Positive
ORGANISM=HMDB
NAME=HMDB:HMDB02356-2076 Hexacosanoic acid M+H
PI=HMDB
DATACOLLECTOR=HMDB
SMILES=CCCCCCCCCCCCCCCCCCCCCCCCCC(O)=O
INCHI=InChI=1S/C26H52O2/c1-2-3-4-5-6-7-8-9-10-11-12-13-14-15-16-17-18-19-20-21-22-23-24-25-26(27)28/h2-25H2,1H3,(H,27,28)
INCHIAUX=N/A
PUBMED=N/A
SUBMITUSER=mwang87
TAGS=
LIBRARYQUALITY=3
SPECTRUMID=CCMSLIB00000426895
SCANS=1867
158.7 56.201 
310.46 52.79 
356.45 100.0 
357.05 85.228 
388.7 50.367 
396.99 82.061 
END IONS

BEGIN IONS
PEPMASS=118.98
CHARGE=1+
MSLEVEL=2
SOURCE_INSTRUMENT=Negative-Quattro_QQQ:10eV
FILENAME=hmdb_intermediate.mgf
SEQ=*..*
IONMODE=Negative
ORGANISM=HMDB
NAME=HMDB:HMDB01368-1534 3-Mercaptopyruvic acid M-H
PI=HMDB
DATACOLLECTOR=HMDB
SMILES=OC(=O)C(=O)CS
INCHI=InChI=1S/C3H4O3S/c4-2(1-7)3(5)6/h7H,1H2,(H,5,6)
INCHIAUX=N/A
PUBMED=N/A
SUBMITUSER=mwang87
TAGS=
LIBRARYQUALITY=3
SPECTRUMID=CCMSLIB00000426896
SCANS=1868
33.0 100.0 
75.0 72.504 
END IONS

BEGIN IONS
PEPMASS=151.04
CHARGE=1+
MSLEVEL=2
SOURCE_INSTRUMENT=Negative-Quattro_QQQ:10eV
FILENAME=hmdb_intermediate.mgf
SEQ=*..*
IONMODE=Negative
ORGANISM=HMDB
NAME=HMDB:HMDB00669-918 Ortho-Hydroxyphenylacetic acid M-H
PI=HMDB
DATACOLLECTOR=HMDB
SMILES=OC(=O)CC1=CC=CC=C1O
INCHI=InChI=1S/C8H8O3/c9-7-4-2-1-3-6(7)5-8(10)11/h1-4,9H,5H2,(H,10,11)
INCHIAUX=N/A
PUBMED=N/A
SUBMITUSER=mwang87
TAGS=
LIBRARYQUALITY=3
SPECTRUMID=CCMSLIB00000426897
SCANS=1869
136.193 100.0 
END IONS

BEGIN IONS
PEPMASS=131.071
CHARGE=1+
MSLEVEL=2
SOURCE_INSTRUMENT=Positive-Quattro_QQQ:10eV
FILENAME=hmdb_intermediate.mgf
SEQ=*..*
IONMODE=Positive
ORGANISM=HMDB
NAME=HMDB:HMDB00491-710 3-Methyl-2-oxovaleric acid M+H
PI=HMDB
DATACOLLECTOR=HMDB
SMILES=CCC(C)C(=O)C(O)=O
INCHI=InChI=1S/C6H10O3/c1-3-4(2)5(7)6(8)9/h4H,3H2,1-2H3,(H,8,9)
INCHIAUX=N/A
PUBMED=N/A
SUBMITUSER=mwang87
TAGS=
LIBRARYQUALITY=3
SPECTRUMID=CCMSLIB00000426898
SCANS=1870
99.0 100.0 
131.0 89.683 
END IONS

BEGIN IONS
PEPMASS=177.051
CHARGE=1+
MSLEVEL=2
SOURCE_INSTRUMENT=Positive-Quattro_QQQ:40eV
FILENAME=hmdb_intermediate.mgf
SEQ=*..*
IONMODE=Positive
ORGANISM=HMDB
NAME=HMDB:HMDB00828-1180 Ureidosuccinic acid M+H
PI=HMDB
DATACOLLECTOR=HMDB
SMILES=NC(=O)N[C@@H](CC(O)=O)C(O)=O
INCHI=InChI=1S/C5H8N2O5/c6-5(12)7-2(4(10)11)1-3(8)9/h2H,1H2,(H,8,9)(H,10,11)(H3,6,7,12)/t2-/m0/s1
INCHIAUX=N/A
PUBMED=N/A
SUBMITUSER=mwang87
TAGS=
LIBRARYQUALITY=3
SPECTRUMID=CCMSLIB00000426899
SCANS=1871
43.256 63.889 
70.08 60.185 
74.022 100.0 
END IONS

BEGIN IONS
PEPMASS=153.055
CHARGE=1+
MSLEVEL=2
SOURCE_INSTRUMENT=Positive-Quattro_QQQ:25eV
FILENAME=hmdb_intermediate.mgf
SEQ=*..*
IONMODE=Positive
ORGANISM=HMDB
NAME=HMDB:HMDB04815-2410 4-Hydroxy-3-methylbenzoic acid M+H
PI=HMDB
DATACOLLECTOR=HMDB
SMILES=CC1=CC(=CC=C1O)C(O)=O
INCHI=InChI=1S/C8H8O3/c1-5-4-6(8(10)11)2-3-7(5)9/h2-4,9H,1H3,(H,10,11)
INCHIAUX=N/A
PUBMED=N/A
SUBMITUSER=mwang87
TAGS=
LIBRARYQUALITY=3
SPECTRUMID=CCMSLIB00000426900
SCANS=1872
77.0 65.823 
79.0 74.884 
91.0 68.962 
94.0 100.0 
107.0 51.339 
END IONS

BEGIN IONS
PEPMASS=269.089
CHARGE=1+
MSLEVEL=2
SOURCE_INSTRUMENT=Positive-Quattro_QQQ:10eV
FILENAME=hmdb_intermediate.mgf
SEQ=*..*
IONMODE=Positive
ORGANISM=HMDB
NAME=HMDB:HMDB00195-316 Inosine M+H
PI=HMDB
DATACOLLECTOR=HMDB
SMILES=OC[C@H]1O[C@H]([C@H](O)[C@@H]1O)N1C=NC2=C1N=CNC2=O
INCHI=InChI=1S/C10H12N4O5/c15-1-4-6(16)7(17)10(19-4)14-3-13-5-8(14)11-2-12-9(5)18/h2-4,6-7,10,15-17H,1H2,(H,11,12,18)/t4-,6-,7-,10-/m1/s1
INCHIAUX=N/A
PUBMED=N/A
SUBMITUSER=mwang87
TAGS=
LIBRARYQUALITY=3
SPECTRUMID=CCMSLIB00000426901
SCANS=1873
137.003 100.0 
END IONS

BEGIN IONS
PEPMASS=269.284
CHARGE=1+
MSLEVEL=2
SOURCE_INSTRUMENT=Negative-Quattro_QQQ:10eV
FILENAME=hmdb_intermediate.mgf
SEQ=*..*
IONMODE=Negative
ORGANISM=HMDB
NAME=HMDB:HMDB02350-2073 Octadecanol M-H
PI=HMDB
DATACOLLECTOR=HMDB
SMILES=CCCCCCCCCCCCCCCCCCO
INCHI=InChI=1S/C18H38O/c1-2-3-4-5-6-7-8-9-10-11-12-13-14-15-16-17-18-19/h19H,2-18H2,1H3
INCHIAUX=N/A
PUBMED=N/A
SUBMITUSER=mwang87
TAGS=
LIBRARYQUALITY=3
SPECTRUMID=CCMSLIB00000426902
SCANS=1874
269.0 100.0 
END IONS

BEGIN IONS
PEPMASS=181.05
CHARGE=1+
MSLEVEL=2
SOURCE_INSTRUMENT=Negative-Quattro_QQQ:25eV
FILENAME=hmdb_intermediate.mgf
SEQ=*..*
IONMODE=Negative
ORGANISM=HMDB
NAME=HMDB:HMDB00118-169 Homovanillic acid M-H
PI=HMDB
DATACOLLECTOR=HMDB
SMILES=COC1=CC(CC(O)=O)=CC=C1O
INCHI=InChI=1S/C9H10O4/c1-13-8-4-6(5-9(11)12)2-3-7(8)10/h2-4,10H,5H2,1H3,(H,11,12)
INCHIAUX=N/A
PUBMED=N/A
SUBMITUSER=mwang87
TAGS=
LIBRARYQUALITY=3
SPECTRUMID=CCMSLIB00000426903
SCANS=1875
77.371 54.124 
122.045 100.0 
END IONS

BEGIN IONS
PEPMASS=166.073
CHARGE=1+
MSLEVEL=2
SOURCE_INSTRUMENT=Positive-Quattro_QQQ:40eV
FILENAME=hmdb_intermediate.mgf
SEQ=*..*
IONMODE=Positive
ORGANISM=HMDB
NAME=HMDB:HMDB00897-1270 7-Methylguanine M+H
PI=HMDB
DATACOLLECTOR=HMDB
SMILES=CN1C=NC2=C1C(=O)N=C(N)N2
INCHI=InChI=1S/C6H7N5O/c1-11-2-8-4-3(11)5(12)10-6(7)9-4/h2H,1H3,(H3,7,9,10,12)
INCHIAUX=N/A
PUBMED=N/A
SUBMITUSER=mwang87
TAGS=
LIBRARYQUALITY=3
SPECTRUMID=CCMSLIB00000426904
SCANS=1876
67.1 54.171 
68.96 100.0 
END IONS

BEGIN IONS
PEPMASS=219.123
CHARGE=1+
MSLEVEL=2
SOURCE_INSTRUMENT=Positive-Quattro_QQQ:25eV
FILENAME=hmdb_intermediate.mgf
SEQ=*..*
IONMODE=Positive
ORGANISM=HMDB
NAME=HMDB:HMDB00350-562 3-Hydroxysebacic acid M+H
PI=HMDB
DATACOLLECTOR=HMDB
SMILES=OC(CCCCCCC(O)=O)CC(O)=O
INCHI=InChI=1S/C10H18O5/c11-8(7-10(14)15)5-3-1-2-4-6-9(12)13/h8,11H,1-7H2,(H,12,13)(H,14,15)
INCHIAUX=N/A
PUBMED=N/A
SUBMITUSER=mwang87
TAGS=
LIBRARYQUALITY=3
SPECTRUMID=CCMSLIB00000426905
SCANS=1877
67.0 53.975 
91.0 100.0 
93.0 50.088 
95.0 90.011 
119.0 83.787 
END IONS

BEGIN IONS
PEPMASS=136.062
CHARGE=1+
MSLEVEL=2
SOURCE_INSTRUMENT=Positive-Quattro_QQQ:40eV
FILENAME=hmdb_intermediate.mgf
SEQ=*..*
IONMODE=Positive
ORGANISM=HMDB
NAME=HMDB:HMDB00034-59 Adenine M+H
PI=HMDB
DATACOLLECTOR=HMDB
SMILES=NC1=NC=NC2=C1NC=N2
INCHI=InChI=1S/C5H5N5/c6-4-3-5(9-1-7-3)10-2-8-4/h1-2H,(H3,6,7,8,9,10)
INCHIAUX=N/A
PUBMED=N/A
SUBMITUSER=mwang87
TAGS=
LIBRARYQUALITY=3
SPECTRUMID=CCMSLIB00000426906
SCANS=1878
65.127 100.0 
92.008 71.111 
END IONS

BEGIN IONS
PEPMASS=153.019
CHARGE=1+
MSLEVEL=2
SOURCE_INSTRUMENT=Negative-Quattro_QQQ:40eV
FILENAME=hmdb_intermediate.mgf
SEQ=*..*
IONMODE=Negative
ORGANISM=HMDB
NAME=HMDB:HMDB00397-605 2-Pyrocatechuic acid M-H
PI=HMDB
DATACOLLECTOR=HMDB
SMILES=OC(=O)C1=CC=CC(O)=C1O
INCHI=InChI=1S/C7H6O4/c8-5-3-1-2-4(6(5)9)7(10)11/h1-3,8-9H,(H,10,11)
INCHIAUX=N/A
PUBMED=N/A
SUBMITUSER=mwang87
TAGS=
LIBRARYQUALITY=3
SPECTRUMID=CCMSLIB00000426907
SCANS=1879
108.192 100.0 
END IONS

BEGIN IONS
PEPMASS=155.034
CHARGE=1+
MSLEVEL=2
SOURCE_INSTRUMENT=Positive-Quattro_QQQ:10eV
FILENAME=hmdb_intermediate.mgf
SEQ=*..*
IONMODE=Positive
ORGANISM=HMDB
NAME=HMDB:HMDB01856-1723 Protocatechuic acid M+H
PI=HMDB
DATACOLLECTOR=HMDB
SMILES=OC(=O)C1=CC(O)=C(O)C=C1
INCHI=InChI=1S/C7H6O4/c8-5-2-1-4(7(10)11)3-6(5)9/h1-3,8-9H,(H,10,11)
INCHIAUX=N/A
PUBMED=N/A
SUBMITUSER=mwang87
TAGS=
LIBRARYQUALITY=3
SPECTRUMID=CCMSLIB00000426908
SCANS=1880
113.407 53.522 
114.285 100.0 
END IONS

BEGIN IONS
PEPMASS=258.109
CHARGE=1+
MSLEVEL=2
SOURCE_INSTRUMENT=Positive-Quattro_QQQ:10eV
FILENAME=hmdb_intermediate.mgf
SEQ=*..*
IONMODE=Positive
ORGANISM=HMDB
NAME=HMDB:HMDB00982-1375 5-Methylcytidine M+H
PI=HMDB
DATACOLLECTOR=HMDB
SMILES=CC1=CN([C@@H]2O[C@H](CO)[C@@H](O)[C@H]2O)C(=O)N=C1N
INCHI=InChI=1S/C10H15N3O5/c1-4-2-13(10(17)12-8(4)11)9-7(16)6(15)5(3-14)18-9/h2,5-7,9,14-16H,3H2,1H3,(H2,11,12,17)/t5-,6-,7-,9-/m1/s1
INCHIAUX=N/A
PUBMED=N/A
SUBMITUSER=mwang87
TAGS=
LIBRARYQUALITY=3
SPECTRUMID=CCMSLIB00000426909
SCANS=1881
125.92 100.0 
END IONS

BEGIN IONS
PEPMASS=170.045
CHARGE=1+
MSLEVEL=2
SOURCE_INSTRUMENT=Positive-Quattro_QQQ:10eV
FILENAME=hmdb_intermediate.mgf
SEQ=*..*
IONMODE=Positive
ORGANISM=HMDB
NAME=HMDB:HMDB00439-638 2-Furoylglycine M+H
PI=HMDB
DATACOLLECTOR=HMDB
SMILES=OC(=O)CNC(=O)C1=CC=CO1
INCHI=InChI=1S/C7H7NO4/c9-6(10)4-8-7(11)5-2-1-3-12-5/h1-3H,4H2,(H,8,11)(H,9,10)
INCHIAUX=N/A
PUBMED=N/A
SUBMITUSER=mwang87
TAGS=
LIBRARYQUALITY=3
SPECTRUMID=CCMSLIB00000426910
SCANS=1882
95.062 91.045 
124.021 100.0 
END IONS

BEGIN IONS
PEPMASS=118.062
CHARGE=1+
MSLEVEL=2
SOURCE_INSTRUMENT=Positive-Quattro_QQQ:40eV
FILENAME=hmdb_intermediate.mgf
SEQ=*..*
IONMODE=Positive
ORGANISM=HMDB
NAME=HMDB:HMDB00128-196 Guanidoacetic acid M+H
PI=HMDB
DATACOLLECTOR=HMDB
SMILES=NC(=N)NCC(O)=O
INCHI=InChI=1S/C3H7N3O2/c4-3(5)6-1-2(7)8/h1H2,(H,7,8)(H4,4,5,6)
INCHIAUX=N/A
PUBMED=N/A
SUBMITUSER=mwang87
TAGS=
LIBRARYQUALITY=3
SPECTRUMID=CCMSLIB00000426911
SCANS=1883
43.283 100.0 
END IONS

BEGIN IONS
PEPMASS=44.9851
CHARGE=1+
MSLEVEL=2
SOURCE_INSTRUMENT=Negative-Quattro_QQQ:40eV
FILENAME=hmdb_intermediate.mgf
SEQ=*..*
IONMODE=Negative
ORGANISM=HMDB
NAME=HMDB:HMDB02786-2133 Nitrite M-H
PI=HMDB
DATACOLLECTOR=HMDB
SMILES=[O-]N=O
INCHI=InChI=1S/HNO2/c2-1-3/h(H,2,3)/p-1
INCHIAUX=N/A
PUBMED=N/A
SUBMITUSER=mwang87
TAGS=
LIBRARYQUALITY=3
SPECTRUMID=CCMSLIB00000426912
SCANS=1884
44.0 100.0 
45.0 87.189 
END IONS

BEGIN IONS
PEPMASS=224.092
CHARGE=1+
MSLEVEL=2
SOURCE_INSTRUMENT=Positive-Quattro_QQQ:25eV
FILENAME=hmdb_intermediate.mgf
SEQ=*..*
IONMODE=Positive
ORGANISM=HMDB
NAME=HMDB:HMDB00866-1221 N-Acetyl-L-tyrosine M+H
PI=HMDB
DATACOLLECTOR=HMDB
SMILES=CC(=O)N[C@@H](CC1=CC=C(O)C=C1)C(O)=O
INCHI=InChI=1S/C11H13NO4/c1-7(13)12-10(11(15)16)6-8-2-4-9(14)5-3-8/h2-5,10,14H,6H2,1H3,(H,12,13)(H,15,16)/t10-/m0/s1
INCHIAUX=N/A
PUBMED=N/A
SUBMITUSER=mwang87
TAGS=
LIBRARYQUALITY=3
SPECTRUMID=CCMSLIB00000426913
SCANS=1885
136.004 100.0 
END IONS

BEGIN IONS
PEPMASS=281.202
CHARGE=1+
MSLEVEL=2
SOURCE_INSTRUMENT=Positive-Quattro_QQQ:25eV
FILENAME=hmdb_intermediate.mgf
SEQ=*..*
IONMODE=Positive
ORGANISM=HMDB
NAME=HMDB:HMDB01848-1706 Imipramine M+H
PI=HMDB
DATACOLLECTOR=HMDB
SMILES=CN(C)CCCN1C2=CC=CC=C2CCC2=CC=CC=C12
INCHI=InChI=1S/C19H24N2/c1-20(2)14-7-15-21-18-10-5-3-8-16(18)12-13-17-9-4-6-11-19(17)21/h3-6,8-11H,7,12-15H2,1-2H3
INCHIAUX=N/A
PUBMED=N/A
SUBMITUSER=mwang87
TAGS=
LIBRARYQUALITY=3
SPECTRUMID=CCMSLIB00000426914
SCANS=1886
86.314 100.0 
86.56 88.63 
END IONS

BEGIN IONS
PEPMASS=176.104
CHARGE=1+
MSLEVEL=2
SOURCE_INSTRUMENT=Positive-Quattro_QQQ:40eV
FILENAME=hmdb_intermediate.mgf
SEQ=*..*
IONMODE=Positive
ORGANISM=HMDB
NAME=HMDB:HMDB00904-1288 Citrulline M+H
PI=HMDB
DATACOLLECTOR=HMDB
SMILES=N[C@@H](CCCNC(N)=O)C(O)=O
INCHI=InChI=1S/C6H13N3O3/c7-4(5(10)11)2-1-3-9-6(8)12/h4H,1-3,7H2,(H,10,11)(H3,8,9,12)/t4-/m0/s1
INCHIAUX=N/A
PUBMED=N/A
SUBMITUSER=mwang87
TAGS=
LIBRARYQUALITY=3
SPECTRUMID=CCMSLIB00000426915
SCANS=1887
70.104 100.0 
END IONS

BEGIN IONS
PEPMASS=500.305
CHARGE=1+
MSLEVEL=2
SOURCE_INSTRUMENT=Positive-Quattro_QQQ:25eV
FILENAME=hmdb_intermediate.mgf
SEQ=*..*
IONMODE=Positive
ORGANISM=HMDB
NAME=HMDB:HMDB00896-1266 Taurodeoxycholic acid M+H
PI=HMDB
DATACOLLECTOR=HMDB
SMILES=[H][C@@]1(CC[C@@]2([H])[C@]3([H])CC[C@]4([H])C[C@H](O)CC[C@]4(C)[C@@]3([H])C[C@H](O)[C@]12C)[C@H](C)CCC(=O)NCCS(O)(=O)=O
INCHI=InChI=1S/C26H45NO6S/c1-16(4-9-24(30)27-12-13-34(31,32)33)20-7-8-21-19-6-5-17-14-18(28)10-11-25(17,2)22(19)15-23(29)26(20,21)3/h16-23,28-29H,4-15H2,1-3H3,(H,27,30)(H,31,32,33)/t16-,17-,18-,19+,20-,21+,22+,23+,25+,26-/m1/s1
INCHIAUX=N/A
PUBMED=N/A
SUBMITUSER=mwang87
TAGS=
LIBRARYQUALITY=3
SPECTRUMID=CCMSLIB00000426916
SCANS=1888
126.274 77.95 
126.527 65.735 
135.634 100.0 
242.786 85.126 
464.5 97.073 
END IONS

BEGIN IONS
PEPMASS=104.071
CHARGE=1+
MSLEVEL=2
SOURCE_INSTRUMENT=Positive-Quattro_QQQ:10eV
FILENAME=hmdb_intermediate.mgf
SEQ=*..*
IONMODE=Positive
ORGANISM=HMDB
NAME=HMDB:HMDB00452-659 L-Alpha-aminobutyric acid M+H
PI=HMDB
DATACOLLECTOR=HMDB
SMILES=CC[C@H](N)C(O)=O
INCHI=InChI=1S/C4H9NO2/c1-2-3(5)4(6)7/h3H,2,5H2,1H3,(H,6,7)/t3-/m0/s1
INCHIAUX=N/A
PUBMED=N/A
SUBMITUSER=mwang87
TAGS=
LIBRARYQUALITY=3
SPECTRUMID=CCMSLIB00000426917
SCANS=1889
58.188 100.0 
END IONS

BEGIN IONS
PEPMASS=160.097
CHARGE=1+
MSLEVEL=2
SOURCE_INSTRUMENT=Positive-Quattro_QQQ:40eV
FILENAME=hmdb_intermediate.mgf
SEQ=*..*
IONMODE=Positive
ORGANISM=HMDB
NAME=HMDB:HMDB00678-941 Isovalerylglycine M+H
PI=HMDB
DATACOLLECTOR=HMDB
SMILES=CC(C)CC(=O)NCC(O)=O
INCHI=InChI=1S/C7H13NO3/c1-5(2)3-6(9)8-4-7(10)11/h5H,3-4H2,1-2H3,(H,8,9)(H,10,11)
INCHIAUX=N/A
PUBMED=N/A
SUBMITUSER=mwang87
TAGS=
LIBRARYQUALITY=3
SPECTRUMID=CCMSLIB00000426918
SCANS=1890
41.651 91.057 
57.505 100.0 
END IONS

BEGIN IONS
PEPMASS=173.081
CHARGE=1+
MSLEVEL=2
SOURCE_INSTRUMENT=Negative-Quattro_QQQ:25eV
FILENAME=hmdb_intermediate.mgf
SEQ=*..*
IONMODE=Negative
ORGANISM=HMDB
NAME=HMDB:HMDB00893-1257 Suberic acid M-H
PI=HMDB
DATACOLLECTOR=HMDB
SMILES=OC(=O)CCCCCCC(O)=O
INCHI=InChI=1S/C8H14O4/c9-7(10)5-3-1-2-4-6-8(11)12/h1-6H2,(H,9,10)(H,11,12)
INCHIAUX=N/A
PUBMED=N/A
SUBMITUSER=mwang87
TAGS=
LIBRARYQUALITY=3
SPECTRUMID=CCMSLIB00000426919
SCANS=1891
57.226 60.135 
83.092 100.0 
111.017 50.676 
END IONS

BEGIN IONS
PEPMASS=119.071
CHARGE=1+
MSLEVEL=2
SOURCE_INSTRUMENT=Positive-Quattro_QQQ:25eV
FILENAME=hmdb_intermediate.mgf
SEQ=*..*
IONMODE=Positive
ORGANISM=HMDB
NAME=HMDB:HMDB00754-1081 3-Hydroxyisovaleric acid M+H
PI=HMDB
DATACOLLECTOR=HMDB
SMILES=CC(C)(O)CC(O)=O
INCHI=InChI=1S/C5H10O3/c1-5(2,8)3-4(6)7/h8H,3H2,1-2H3,(H,6,7)
INCHIAUX=N/A
PUBMED=N/A
SUBMITUSER=mwang87
TAGS=
LIBRARYQUALITY=3
SPECTRUMID=CCMSLIB00000426920
SCANS=1892
59.332 100.0 
59.583 76.871 
END IONS

BEGIN IONS
PEPMASS=179.107
CHARGE=1+
MSLEVEL=2
SOURCE_INSTRUMENT=Positive-Quattro_QQQ:10eV
FILENAME=hmdb_intermediate.mgf
SEQ=*..*
IONMODE=Positive
ORGANISM=HMDB
NAME=HMDB:HMDB02043-1965 5-Phenylvaleric acid M+H
PI=HMDB
DATACOLLECTOR=HMDB
SMILES=OC(=O)CCCCC1=CC=CC=C1
INCHI=InChI=1S/C11H14O2/c12-11(13)9-5-4-8-10-6-2-1-3-7-10/h1-3,6-7H,4-5,8-9H2,(H,12,13)
INCHIAUX=N/A
PUBMED=N/A
SUBMITUSER=mwang87
TAGS=
LIBRARYQUALITY=3
SPECTRUMID=CCMSLIB00000426921
SCANS=1893
178.0 100.0 
END IONS

BEGIN IONS
PEPMASS=75.0922
CHARGE=1+
MSLEVEL=2
SOURCE_INSTRUMENT=Positive-Quattro_QQQ:40eV
FILENAME=hmdb_intermediate.mgf
SEQ=*..*
IONMODE=Positive
ORGANISM=HMDB
NAME=HMDB:HMDB00002-6 1,3-Diaminopropane M+H
PI=HMDB
DATACOLLECTOR=HMDB
SMILES=NCCCN
INCHI=InChI=1S/C3H10N2/c4-2-1-3-5/h1-5H2
INCHIAUX=N/A
PUBMED=N/A
SUBMITUSER=mwang87
TAGS=
LIBRARYQUALITY=3
SPECTRUMID=CCMSLIB00000426922
SCANS=1894
30.35 100.0 
END IONS

BEGIN IONS
PEPMASS=248.032
CHARGE=1+
MSLEVEL=2
SOURCE_INSTRUMENT=Positive-Quattro_QQQ:25eV
FILENAME=hmdb_intermediate.mgf
SEQ=*..*
IONMODE=Positive
ORGANISM=HMDB
NAME=HMDB:HMDB01491-1611 Pyridoxal 5'-phosphate M+H
PI=HMDB
DATACOLLECTOR=HMDB
SMILES=CC1=NC=C(COP(O)(O)=O)C(C=O)=C1O
INCHI=InChI=1S/C8H10NO6P/c1-5-8(11)7(3-10)6(2-9-5)4-15-16(12,13)14/h2-3,11H,4H2,1H3,(H2,12,13,14)
INCHIAUX=N/A
PUBMED=N/A
SUBMITUSER=mwang87
TAGS=
LIBRARYQUALITY=3
SPECTRUMID=CCMSLIB00000426923
SCANS=1895
67.0 53.042 
94.0 100.0 
122.0 58.827 
150.0 94.857 
END IONS

BEGIN IONS
PEPMASS=147.077
CHARGE=1+
MSLEVEL=2
SOURCE_INSTRUMENT=Positive-Quattro_QQQ:10eV
FILENAME=hmdb_intermediate.mgf
SEQ=*..*
IONMODE=Positive
ORGANISM=HMDB
NAME=HMDB:HMDB00641-879 L-Glutamine M+H
PI=HMDB
DATACOLLECTOR=HMDB
SMILES=N[C@@H](CCC(N)=O)C(O)=O
INCHI=InChI=1S/C5H10N2O3/c6-3(5(9)10)1-2-4(7)8/h3H,1-2,6H2,(H2,7,8)(H,9,10)/t3-/m0/s1
INCHIAUX=N/A
PUBMED=N/A
SUBMITUSER=mwang87
TAGS=
LIBRARYQUALITY=3
SPECTRUMID=CCMSLIB00000426924
SCANS=1896
84.077 53.488 
129.97 100.0 
END IONS

BEGIN IONS
PEPMASS=136.043
CHARGE=1+
MSLEVEL=2
SOURCE_INSTRUMENT=Positive-Quattro_QQQ:10eV
FILENAME=hmdb_intermediate.mgf
SEQ=*..*
IONMODE=Positive
ORGANISM=HMDB
NAME=HMDB:HMDB00742-1053 Homocysteine M+H
PI=HMDB
DATACOLLECTOR=HMDB
SMILES=NC(CCS)C(O)=O
INCHI=InChI=1S/C4H9NO2S/c5-3(1-2-8)4(6)7/h3,8H,1-2,5H2,(H,6,7)
INCHIAUX=N/A
PUBMED=N/A
SUBMITUSER=mwang87
TAGS=
LIBRARYQUALITY=3
SPECTRUMID=CCMSLIB00000426925
SCANS=1897
90.087 100.0 
END IONS

BEGIN IONS
PEPMASS=123.056
CHARGE=1+
MSLEVEL=2
SOURCE_INSTRUMENT=Positive-Quattro_QQQ:25eV
FILENAME=hmdb_intermediate.mgf
SEQ=*..*
IONMODE=Positive
ORGANISM=HMDB
NAME=HMDB:HMDB01406-1560 Niacinamide M+H
PI=HMDB
DATACOLLECTOR=HMDB
SMILES=NC(=O)C1=CN=CC=C1
INCHI=InChI=1S/C6H6N2O/c7-6(9)5-2-1-3-8-4-5/h1-4H,(H2,7,9)
INCHIAUX=N/A
PUBMED=N/A
SUBMITUSER=mwang87
TAGS=
LIBRARYQUALITY=3
SPECTRUMID=CCMSLIB00000426926
SCANS=1898
80.072 100.0 
END IONS

BEGIN IONS
PEPMASS=189.135
CHARGE=1+
MSLEVEL=2
SOURCE_INSTRUMENT=Positive-Quattro_QQQ:40eV
FILENAME=hmdb_intermediate.mgf
SEQ=*..*
IONMODE=Positive
ORGANISM=HMDB
NAME=HMDB:HMDB00670-923 Homo-L-arginine M+H
PI=HMDB
DATACOLLECTOR=HMDB
SMILES=N[C@@H](CCCCNC(N)=N)C(O)=O
INCHI=InChI=1S/C7H16N4O2/c8-5(6(12)13)3-1-2-4-11-7(9)10/h5H,1-4,8H2,(H,12,13)(H4,9,10,11)/t5-/m0/s1
INCHIAUX=N/A
PUBMED=N/A
SUBMITUSER=mwang87
TAGS=
LIBRARYQUALITY=3
SPECTRUMID=CCMSLIB00000426927
SCANS=1899
56.04 53.161 
84.14 100.0 
END IONS

BEGIN IONS
PEPMASS=137.133
CHARGE=1+
MSLEVEL=2
SOURCE_INSTRUMENT=Positive-Quattro_QQQ:25eV
FILENAME=hmdb_intermediate.mgf
SEQ=*..*
IONMODE=Positive
ORGANISM=HMDB
NAME=HMDB:HMDB04321-2383 (+)-Limonene M+H
PI=HMDB
DATACOLLECTOR=HMDB
SMILES=CC(=C)[C@@H]1CCC(C)=CC1
INCHI=InChI=1S/C10H16/c1-8(2)10-6-4-9(3)5-7-10/h4,10H,1,5-7H2,2-3H3/t10-/m0/s1
INCHIAUX=N/A
PUBMED=N/A
SUBMITUSER=mwang87
TAGS=
LIBRARYQUALITY=3
SPECTRUMID=CCMSLIB00000426928
SCANS=1900
41.0 67.323 
54.0 68.032 
66.0 100.0 
67.0 65.433 
76.0 80.079 
77.0 65.827 
78.0 70.197 
79.0 72.559 
80.0 75.906 
94.0 79.843 
END IONS

BEGIN IONS
PEPMASS=109.065
CHARGE=1+
MSLEVEL=2
SOURCE_INSTRUMENT=Positive-Quattro_QQQ:10eV
FILENAME=hmdb_intermediate.mgf
SEQ=*..*
IONMODE=Positive
ORGANISM=HMDB
NAME=HMDB:HMDB02048-1968 m-Cresol M+H
PI=HMDB
DATACOLLECTOR=HMDB
SMILES=CC1=CC(O)=CC=C1
INCHI=InChI=1S/C7H8O/c1-6-3-2-4-7(8)5-6/h2-5,8H,1H3
INCHIAUX=N/A
PUBMED=N/A
SUBMITUSER=mwang87
TAGS=
LIBRARYQUALITY=3
SPECTRUMID=CCMSLIB00000426929
SCANS=1901
109.0 100.0 
END IONS

BEGIN IONS
PEPMASS=217.18
CHARGE=1+
MSLEVEL=2
SOURCE_INSTRUMENT=Positive-Quattro_QQQ:10eV
FILENAME=hmdb_intermediate.mgf
SEQ=*..*
IONMODE=Positive
ORGANISM=HMDB
NAME=HMDB:HMDB02059-1974 12-Hydroxydodecanoic acid M+H
PI=HMDB
DATACOLLECTOR=HMDB
SMILES=OCCCCCCCCCCCC(O)=O
INCHI=InChI=1S/C12H24O3/c13-11-9-7-5-3-1-2-4-6-8-10-12(14)15/h13H,1-11H2,(H,14,15)
INCHIAUX=N/A
PUBMED=N/A
SUBMITUSER=mwang87
TAGS=
LIBRARYQUALITY=3
SPECTRUMID=CCMSLIB00000426930
SCANS=1902
216.0 91.579 
217.0 100.0 
END IONS

BEGIN IONS
PEPMASS=101.06
CHARGE=1+
MSLEVEL=2
SOURCE_INSTRUMENT=Positive-Quattro_QQQ:40eV
FILENAME=hmdb_intermediate.mgf
SEQ=*..*
IONMODE=Positive
ORGANISM=HMDB
NAME=HMDB:HMDB01862-1743 2-Ethylacrylic acid M+H
PI=HMDB
DATACOLLECTOR=HMDB
SMILES=CCC(=C)C(O)=O
INCHI=InChI=1S/C5H8O2/c1-3-4(2)5(6)7/h2-3H2,1H3,(H,6,7)
INCHIAUX=N/A
PUBMED=N/A
SUBMITUSER=mwang87
TAGS=
LIBRARYQUALITY=3
SPECTRUMID=CCMSLIB00000426931
SCANS=1903
42.0 79.331 
44.0 100.0 
END IONS

BEGIN IONS
PEPMASS=181.071
CHARGE=1+
MSLEVEL=2
SOURCE_INSTRUMENT=Positive-Quattro_QQQ:25eV
FILENAME=hmdb_intermediate.mgf
SEQ=*..*
IONMODE=Positive
ORGANISM=HMDB
NAME=HMDB:HMDB03345-2254 Alpha-D-Glucose M+H
PI=HMDB
DATACOLLECTOR=HMDB
SMILES=OC[C@H]1O[C@H](O)[C@H](O)[C@@H](O)[C@@H]1O
INCHI=InChI=1S/C6H12O6/c7-1-2-3(8)4(9)5(10)6(11)12-2/h2-11H,1H2/t2-,3-,4+,5-,6+/m1/s1
INCHIAUX=N/A
PUBMED=N/A
SUBMITUSER=mwang87
TAGS=
LIBRARYQUALITY=3
SPECTRUMID=CCMSLIB00000426932
SCANS=1904
85.0 100.0 
END IONS

BEGIN IONS
PEPMASS=189.124
CHARGE=1+
MSLEVEL=2
SOURCE_INSTRUMENT=Positive-Quattro_QQQ:40eV
FILENAME=hmdb_intermediate.mgf
SEQ=*..*
IONMODE=Positive
ORGANISM=HMDB
NAME=HMDB:HMDB00206-333 N6-Acetyl-L-lysine M+H
PI=HMDB
DATACOLLECTOR=HMDB
SMILES=CC(=O)NCCCC[C@H](N)C(O)=O
INCHI=InChI=1S/C8H16N2O3/c1-6(11)10-5-3-2-4-7(9)8(12)13/h7H,2-5,9H2,1H3,(H,10,11)(H,12,13)/t7-/m0/s1
INCHIAUX=N/A
PUBMED=N/A
SUBMITUSER=mwang87
TAGS=
LIBRARYQUALITY=3
SPECTRUMID=CCMSLIB00000426933
SCANS=1905
84.113 100.0 
END IONS

BEGIN IONS
PEPMASS=158.082
CHARGE=1+
MSLEVEL=2
SOURCE_INSTRUMENT=Positive-Quattro_QQQ:25eV
FILENAME=hmdb_intermediate.mgf
SEQ=*..*
IONMODE=Positive
ORGANISM=HMDB
NAME=HMDB:HMDB00459-669 3-Methylcrotonylglycine M+H
PI=HMDB
DATACOLLECTOR=HMDB
SMILES=CC(C)=CC(=O)NCC(O)=O
INCHI=InChI=1S/C7H11NO3/c1-5(2)3-6(9)8-4-7(10)11/h3H,4H2,1-2H3,(H,8,9)(H,10,11)
INCHIAUX=N/A
PUBMED=N/A
SUBMITUSER=mwang87
TAGS=
LIBRARYQUALITY=3
SPECTRUMID=CCMSLIB00000426934
SCANS=1906
55.554 100.0 
83.352 94.624 
END IONS

BEGIN IONS
PEPMASS=191.092
CHARGE=1+
MSLEVEL=2
SOURCE_INSTRUMENT=Positive-Quattro_QQQ:40eV
FILENAME=hmdb_intermediate.mgf
SEQ=*..*
IONMODE=Positive
ORGANISM=HMDB
NAME=HMDB:HMDB00325-539 3-Hydroxysuberic acid M+H
PI=HMDB
DATACOLLECTOR=HMDB
SMILES=OC(CCCCC(O)=O)CC(O)=O
INCHI=InChI=1S/C8H14O5/c9-6(5-8(12)13)3-1-2-4-7(10)11/h6,9H,1-5H2,(H,10,11)(H,12,13)
INCHIAUX=N/A
PUBMED=N/A
SUBMITUSER=mwang87
TAGS=
LIBRARYQUALITY=3
SPECTRUMID=CCMSLIB00000426935
SCANS=1907
67.0 77.369 
79.0 100.0 
81.0 75.543 
END IONS

BEGIN IONS
PEPMASS=196.061
CHARGE=1+
MSLEVEL=2
SOURCE_INSTRUMENT=Positive-Quattro_QQQ:10eV
FILENAME=hmdb_intermediate.mgf
SEQ=*..*
IONMODE=Positive
ORGANISM=HMDB
NAME=HMDB:HMDB02404-2101 Alpha-Hydroxyhippuric acid M+H
PI=HMDB
DATACOLLECTOR=HMDB
SMILES=OC(NC(=O)C1=CC=CC=C1)C(O)=O
INCHI=InChI=1S/C9H9NO4/c11-7(10-8(12)9(13)14)6-4-2-1-3-5-6/h1-5,8,12H,(H,10,11)(H,13,14)
INCHIAUX=N/A
PUBMED=N/A
SUBMITUSER=mwang87
TAGS=
LIBRARYQUALITY=3
SPECTRUMID=CCMSLIB00000426936
SCANS=1908
105.0 100.0 
END IONS

BEGIN IONS
PEPMASS=335.064
CHARGE=1+
MSLEVEL=2
SOURCE_INSTRUMENT=Positive-Quattro_QQQ:25eV
FILENAME=hmdb_intermediate.mgf
SEQ=*..*
IONMODE=Positive
ORGANISM=HMDB
NAME=HMDB:HMDB00229-383 Nicotinamide ribotide M+H
PI=HMDB
DATACOLLECTOR=HMDB
SMILES=NC(=O)C1=CC=C[N+](=C1)[C@@H]1O[C@H](COP(O)([O-])=O)[C@@H](O)[C@H]1O
INCHI=InChI=1S/C11H15N2O8P/c12-10(16)6-2-1-3-13(4-6)11-9(15)8(14)7(21-11)5-20-22(17,18)19/h1-4,7-9,11,14-15H,5H2,(H3-,12,16,17,18,19)/t7-,8-,9-,11-/m1/s1
INCHIAUX=N/A
PUBMED=N/A
SUBMITUSER=mwang87
TAGS=
LIBRARYQUALITY=3
SPECTRUMID=CCMSLIB00000426937
SCANS=1909
96.432 97.851 
97.434 52.031 
122.493 64.966 
122.743 100.0 
END IONS

BEGIN IONS
PEPMASS=331.227
CHARGE=1+
MSLEVEL=2
SOURCE_INSTRUMENT=Positive-Quattro_QQQ:40eV
FILENAME=hmdb_intermediate.mgf
SEQ=*..*
IONMODE=Positive
ORGANISM=HMDB
NAME=HMDB:HMDB00920-1308 11a-Hydroxyprogesterone M+H
PI=HMDB
DATACOLLECTOR=HMDB
SMILES=[H][C@@]12CCC(C(C)=O)[C@@]1(C)C[C@@H](O)[C@@]1([H])[C@@]2([H])CCC2=CC(=O)CC[C@]12C
INCHI=InChI=1S/C21H30O3/c1-12(22)16-6-7-17-15-5-4-13-10-14(23)8-9-20(13,2)19(15)18(24)11-21(16,17)3/h10,15-19,24H,4-9,11H2,1-3H3/t15-,16?,17-,18+,19+,20-,21+/m0/s1
INCHIAUX=N/A
PUBMED=N/A
SUBMITUSER=mwang87
TAGS=
LIBRARYQUALITY=3
SPECTRUMID=CCMSLIB00000426938
SCANS=1910
43.562 100.0 
97.234 55.204 
105.211 54.751 
121.161 64.706 
END IONS

BEGIN IONS
PEPMASS=191.019
CHARGE=1+
MSLEVEL=2
SOURCE_INSTRUMENT=Negative-Quattro_QQQ:40eV
FILENAME=hmdb_intermediate.mgf
SEQ=*..*
IONMODE=Negative
ORGANISM=HMDB
NAME=HMDB:HMDB00094-146 Citric acid M-H
PI=HMDB
DATACOLLECTOR=HMDB
SMILES=OC(=O)CC(O)(CC(O)=O)C(O)=O
INCHI=InChI=1S/C6H8O7/c7-3(8)1-6(13,5(11)12)2-4(9)10/h13H,1-2H2,(H,7,8)(H,9,10)(H,11,12)
INCHIAUX=N/A
PUBMED=N/A
SUBMITUSER=mwang87
TAGS=
LIBRARYQUALITY=3
SPECTRUMID=CCMSLIB00000426939
SCANS=1911
41.374 75.658 
43.339 100.0 
57.23 50.658 
87.028 84.211 
END IONS

BEGIN IONS
PEPMASS=667.23
CHARGE=1+
MSLEVEL=2
SOURCE_INSTRUMENT=Positive-Quattro_QQQ:10eV
FILENAME=hmdb_intermediate.mgf
SEQ=*..*
IONMODE=Positive
ORGANISM=HMDB
NAME=HMDB:HMDB03553-2328 Stachyose M+H
PI=HMDB
DATACOLLECTOR=HMDB
SMILES=OC[C@H]1O[C@@](CO)(O[C@H]2O[C@H](CO[C@H]3O[C@H](CO[C@H]4O[C@H](CO)[C@H](O)[C@H](O)[C@H]4O)[C@H](O)[C@H](O)[C@H]3O)[C@@H](O)[C@H](O)[C@H]2O)[C@@H](O)[C@@H]1O
INCHI=InChI=1S/C24H42O21/c25-1-6-10(28)14(32)17(35)21(41-6)39-3-8-11(29)15(33)18(36)22(42-8)40-4-9-12(30)16(34)19(37)23(43-9)45-24(5-27)20(38)13(31)7(2-26)44-24/h6-23,25-38H,1-5H2/t6-,7-,8-,9-,10+,11+,12-,13-,14+,15+,16+,17-,18-,19-,20+,21+,22+,23-,24+/m1/s1
INCHIAUX=N/A
PUBMED=N/A
SUBMITUSER=mwang87
TAGS=
LIBRARYQUALITY=3
SPECTRUMID=CCMSLIB00000426940
SCANS=1912
665.0 100.0 
END IONS

BEGIN IONS
PEPMASS=154.087
CHARGE=1+
MSLEVEL=2
SOURCE_INSTRUMENT=Positive-Quattro_QQQ:10eV
FILENAME=hmdb_intermediate.mgf
SEQ=*..*
IONMODE=Positive
ORGANISM=HMDB
NAME=HMDB:HMDB00073-120 Dopamine M+H
PI=HMDB
DATACOLLECTOR=HMDB
SMILES=NCCC1=CC=C(O)C(O)=C1
INCHI=InChI=1S/C8H11NO2/c9-4-3-6-1-2-7(10)8(11)5-6/h1-2,5,10-11H,3-4,9H2
INCHIAUX=N/A
PUBMED=N/A
SUBMITUSER=mwang87
TAGS=
LIBRARYQUALITY=3
SPECTRUMID=CCMSLIB00000426941
SCANS=1913
91.106 80.734 
119.034 66.972 
154.015 100.0 
END IONS

BEGIN IONS
PEPMASS=289.071
CHARGE=1+
MSLEVEL=2
SOURCE_INSTRUMENT=Negative-Quattro_QQQ:40eV
FILENAME=hmdb_intermediate.mgf
SEQ=*..*
IONMODE=Negative
ORGANISM=HMDB
NAME=HMDB:HMDB02780-2130 Catechin M-H
PI=HMDB
DATACOLLECTOR=HMDB
SMILES=O[C@H]1CC2=C(O)C=C(O)C=C2O[C@@H]1C1=CC(O)=C(O)C=C1
INCHI=InChI=1S/C15H14O6/c16-8-4-11(18)9-6-13(20)15(21-14(9)5-8)7-1-2-10(17)12(19)3-7/h1-5,13,15-20H,6H2/t13-,15+/m0/s1
INCHIAUX=N/A
PUBMED=N/A
SUBMITUSER=mwang87
TAGS=
LIBRARYQUALITY=3
SPECTRUMID=CCMSLIB00000426942
SCANS=1914
68.49 100.0 
75.99 65.234 
79.39 85.156 
80.23 77.344 
81.7 100.0 
82.61 98.438 
98.74 64.063 
END IONS

BEGIN IONS
PEPMASS=119.071
CHARGE=1+
MSLEVEL=2
SOURCE_INSTRUMENT=Positive-Quattro_QQQ:40eV
FILENAME=hmdb_intermediate.mgf
SEQ=*..*
IONMODE=Positive
ORGANISM=HMDB
NAME=HMDB:HMDB00351-566 3-Hydroxy-2-methyl-[R-(R,S)]-butanoic acid M+H
PI=HMDB
DATACOLLECTOR=HMDB
SMILES=C[C@@H](O)[C@H](C)C(O)=O
INCHI=InChI=1S/C5H10O3/c1-3(4(2)6)5(7)8/h3-4,6H,1-2H3,(H,7,8)/t3-,4+/m0/s1
INCHIAUX=N/A
PUBMED=N/A
SUBMITUSER=mwang87
TAGS=
LIBRARYQUALITY=3
SPECTRUMID=CCMSLIB00000426943
SCANS=1915
40.0 59.619 
41.0 54.457 
44.0 51.367 
45.0 100.0 
55.0 72.841 
57.0 81.992 
63.0 61.849 
END IONS

BEGIN IONS
PEPMASS=153.055
CHARGE=1+
MSLEVEL=2
SOURCE_INSTRUMENT=Positive-Quattro_QQQ:40eV
FILENAME=hmdb_intermediate.mgf
SEQ=*..*
IONMODE=Positive
ORGANISM=HMDB
NAME=HMDB:HMDB04815-2411 4-Hydroxy-3-methylbenzoic acid M+H
PI=HMDB
DATACOLLECTOR=HMDB
SMILES=CC1=CC(=CC=C1O)C(O)=O
INCHI=InChI=1S/C8H8O3/c1-5-4-6(8(10)11)2-3-7(5)9/h2-4,9H,1H3,(H,10,11)
INCHIAUX=N/A
PUBMED=N/A
SUBMITUSER=mwang87
TAGS=
LIBRARYQUALITY=3
SPECTRUMID=CCMSLIB00000426944
SCANS=1916
77.0 100.0 
END IONS

BEGIN IONS
PEPMASS=275.092
CHARGE=1+
MSLEVEL=2
SOURCE_INSTRUMENT=Positive-Quattro_QQQ:10eV
FILENAME=hmdb_intermediate.mgf
SEQ=*..*
IONMODE=Positive
ORGANISM=HMDB
NAME=HMDB:HMDB03306-2233 Phloretin M+H
PI=HMDB
DATACOLLECTOR=HMDB
SMILES=OC1=CC=C(CCC(=O)C2=C(O)C=C(O)C=C2O)C=C1
INCHI=InChI=1S/C15H14O5/c16-10-4-1-9(2-5-10)3-6-12(18)15-13(19)7-11(17)8-14(15)20/h1-2,4-5,7-8,16-17,19-20H,3,6H2
INCHIAUX=N/A
PUBMED=N/A
SUBMITUSER=mwang87
TAGS=
LIBRARYQUALITY=3
SPECTRUMID=CCMSLIB00000426945
SCANS=1917
142.0 100.0 
END IONS

BEGIN IONS
PEPMASS=315.149
CHARGE=1+
MSLEVEL=2
SOURCE_INSTRUMENT=Positive-Quattro_QQQ:40eV
FILENAME=hmdb_intermediate.mgf
SEQ=*..*
IONMODE=Positive
ORGANISM=HMDB
NAME=HMDB:HMDB01930-1871 Ranitidine M+H
PI=HMDB
DATACOLLECTOR=HMDB
SMILES=CN\C(NCCSCC1=CC=C(CN(C)C)O1)=C/[N+]([O-])=O
INCHI=InChI=1S/C13H22N4O3S/c1-14-13(9-17(18)19)15-6-7-21-10-12-5-4-11(20-12)8-16(2)3/h4-5,9,14-15H,6-8,10H2,1-3H3/b13-9+
INCHIAUX=N/A
PUBMED=N/A
SUBMITUSER=mwang87
TAGS=
LIBRARYQUALITY=3
SPECTRUMID=CCMSLIB00000426946
SCANS=1918
97.44 54.115 
97.941 58.541 
101.323 58.541 
102.075 100.0 
129.762 70.329 
147.678 62.252 
175.493 72.003 
END IONS

BEGIN IONS
PEPMASS=179.056
CHARGE=1+
MSLEVEL=2
SOURCE_INSTRUMENT=Negative-Quattro_QQQ:40eV
FILENAME=hmdb_intermediate.mgf
SEQ=*..*
IONMODE=Negative
ORGANISM=HMDB
NAME=HMDB:HMDB01151-1438 Allose M-H
PI=HMDB
DATACOLLECTOR=HMDB
SMILES=[H][C@@]1(CO)OC(O)[C@@]([H])(O)[C@@]([H])(O)[C@@]1([H])O
INCHI=InChI=1S/C6H12O6/c7-1-2-3(8)4(9)5(10)6(11)12-2/h2-11H,1H2/t2-,3-,4-,5-,6?/m0/s1
INCHIAUX=N/A
PUBMED=N/A
SUBMITUSER=mwang87
TAGS=
LIBRARYQUALITY=3
SPECTRUMID=CCMSLIB00000426947
SCANS=1919
59.0 100.0 
END IONS

BEGIN IONS
PEPMASS=119.071
CHARGE=1+
MSLEVEL=2
SOURCE_INSTRUMENT=Positive-Quattro_QQQ:10eV
FILENAME=hmdb_intermediate.mgf
SEQ=*..*
IONMODE=Positive
ORGANISM=HMDB
NAME=HMDB:HMDB00754-1080 3-Hydroxyisovaleric acid M+H
PI=HMDB
DATACOLLECTOR=HMDB
SMILES=CC(C)(O)CC(O)=O
INCHI=InChI=1S/C5H10O3/c1-5(2,8)3-4(6)7/h8H,3H2,1-2H3,(H,6,7)
INCHIAUX=N/A
PUBMED=N/A
SUBMITUSER=mwang87
TAGS=
LIBRARYQUALITY=3
SPECTRUMID=CCMSLIB00000426948
SCANS=1920
58.829 100.0 
59.583 58.619 
END IONS

BEGIN IONS
PEPMASS=400.343
CHARGE=1+
MSLEVEL=2
SOURCE_INSTRUMENT=Positive-Quattro_QQQ:25eV
FILENAME=hmdb_intermediate.mgf
SEQ=*..*
IONMODE=Positive
ORGANISM=HMDB
NAME=HMDB:HMDB00222-365 L-Palmitoylcarnitine M+H
PI=HMDB
DATACOLLECTOR=HMDB
SMILES=CCCCCCCCCCCCCCCC(=O)O[C@H](CC([O-])=O)C[N+](C)(C)C
INCHI=InChI=1S/C23H45NO4/c1-5-6-7-8-9-10-11-12-13-14-15-16-17-18-23(27)28-21(19-22(25)26)20-24(2,3)4/h21H,5-20H2,1-4H3/t21-/m1/s1
INCHIAUX=N/A
PUBMED=N/A
SUBMITUSER=mwang87
TAGS=
LIBRARYQUALITY=3
SPECTRUMID=CCMSLIB00000426949
SCANS=1921
85.175 100.0 
END IONS

BEGIN IONS
PEPMASS=103.04
CHARGE=1+
MSLEVEL=2
SOURCE_INSTRUMENT=Negative-Quattro_QQQ:10eV
FILENAME=hmdb_intermediate.mgf
SEQ=*..*
IONMODE=Negative
ORGANISM=HMDB
NAME=HMDB:HMDB00023-42 (S)-3-Hydroxyisobutyric acid M-H
PI=HMDB
DATACOLLECTOR=HMDB
SMILES=C[C@@H](CO)C(O)=O
INCHI=InChI=1S/C4H8O3/c1-3(2-5)4(6)7/h3,5H,2H2,1H3,(H,6,7)/t3-/m0/s1
INCHIAUX=N/A
PUBMED=N/A
SUBMITUSER=mwang87
TAGS=
LIBRARYQUALITY=3
SPECTRUMID=CCMSLIB00000426950
SCANS=1922
57.493 67.568 
103.248 100.0 
END IONS

BEGIN IONS
PEPMASS=61.029
CHARGE=1+
MSLEVEL=2
SOURCE_INSTRUMENT=Positive-Quattro_QQQ:25eV
FILENAME=hmdb_intermediate.mgf
SEQ=*..*
IONMODE=Positive
ORGANISM=HMDB
NAME=HMDB:HMDB00042-70 Acetic acid M+H
PI=HMDB
DATACOLLECTOR=HMDB
SMILES=CC(O)=O
INCHI=InChI=1S/C2H4O2/c1-2(3)4/h1H3,(H,3,4)
INCHIAUX=N/A
PUBMED=N/A
SUBMITUSER=mwang87
TAGS=
LIBRARYQUALITY=3
SPECTRUMID=CCMSLIB00000426951
SCANS=1923
43.412 58.944 
44.284 59.21 
44.782 100.0 
61.099 60.211 
61.597 52.355 
END IONS

BEGIN IONS
PEPMASS=95.0167
CHARGE=1+
MSLEVEL=2
SOURCE_INSTRUMENT=Positive-Quattro_QQQ:25eV
FILENAME=hmdb_intermediate.mgf
SEQ=*..*
IONMODE=Positive
ORGANISM=HMDB
NAME=HMDB:HMDB04983-2422 Dimethyl sulfone M+H
PI=HMDB
DATACOLLECTOR=HMDB
SMILES=CS(C)(=O)=O
INCHI=InChI=1S/C2H6O2S/c1-5(2,3)4/h1-2H3
INCHIAUX=N/A
PUBMED=N/A
SUBMITUSER=mwang87
TAGS=
LIBRARYQUALITY=3
SPECTRUMID=CCMSLIB00000426952
SCANS=1924
65.0 100.0 
END IONS

BEGIN IONS
PEPMASS=369.373
CHARGE=1+
MSLEVEL=2
SOURCE_INSTRUMENT=Positive-Quattro_QQQ:40eV
FILENAME=hmdb_intermediate.mgf
SEQ=*..*
IONMODE=Positive
ORGANISM=HMDB
NAME=HMDB:HMDB02003-1940 Tetracosanoic acid M+H
PI=HMDB
DATACOLLECTOR=HMDB
SMILES=CCCCCCCCCCCCCCCCCCCCCCCC(O)=O
INCHI=InChI=1S/C24H48O2/c1-2-3-4-5-6-7-8-9-10-11-12-13-14-15-16-17-18-19-20-21-22-23-24(25)26/h2-23H2,1H3,(H,25,26)
INCHIAUX=N/A
PUBMED=N/A
SUBMITUSER=mwang87
TAGS=
LIBRARYQUALITY=3
SPECTRUMID=CCMSLIB00000426953
SCANS=1925
179.0 100.0 
END IONS

BEGIN IONS
PEPMASS=222.098
CHARGE=1+
MSLEVEL=2
SOURCE_INSTRUMENT=Positive-Quattro_QQQ:25eV
FILENAME=hmdb_intermediate.mgf
SEQ=*..*
IONMODE=Positive
ORGANISM=HMDB
NAME=HMDB:HMDB00212-347 N-Acetylgalactosamine M+H
PI=HMDB
DATACOLLECTOR=HMDB
SMILES=CC(=O)N[C@H]1[C@@H](O)O[C@H](CO)[C@H](O)[C@@H]1O
INCHI=InChI=1S/C8H15NO6/c1-3(11)9-5-7(13)6(12)4(2-10)15-8(5)14/h4-8,10,12-14H,2H2,1H3,(H,9,11)/t4-,5-,6+,7-,8+/m1/s1
INCHIAUX=N/A
PUBMED=N/A
SUBMITUSER=mwang87
TAGS=
LIBRARYQUALITY=3
SPECTRUMID=CCMSLIB00000426954
SCANS=1926
84.283 100.0 
126.186 55.484 
144.119 50.323 
END IONS

BEGIN IONS
PEPMASS=197.045
CHARGE=1+
MSLEVEL=2
SOURCE_INSTRUMENT=Negative-Quattro_QQQ:40eV
FILENAME=hmdb_intermediate.mgf
SEQ=*..*
IONMODE=Negative
ORGANISM=HMDB
NAME=HMDB:HMDB00291-494 Vanillylmandelic acid M-H
PI=HMDB
DATACOLLECTOR=HMDB
SMILES=COC1=C(O)C=CC(=C1)[C@H](O)C(O)=O
INCHI=InChI=1S/C9H10O5/c1-14-7-4-5(2-3-6(7)10)8(11)9(12)13/h2-4,8,10-11H,1H3,(H,12,13)/t8-/m0/s1
INCHIAUX=N/A
PUBMED=N/A
SUBMITUSER=mwang87
TAGS=
LIBRARYQUALITY=3
SPECTRUMID=CCMSLIB00000426955
SCANS=1927
136.913 100.0 
END IONS

BEGIN IONS
PEPMASS=565.047
CHARGE=1+
MSLEVEL=2
SOURCE_INSTRUMENT=Negative-Quattro_QQQ:10eV
FILENAME=hmdb_intermediate.mgf
SEQ=*..*
IONMODE=Negative
ORGANISM=HMDB
NAME=HMDB:HMDB00286-483 Uridine diphosphate glucose M-H
PI=HMDB
DATACOLLECTOR=HMDB
SMILES=OC[C@@H]1OC(OP(O)(=O)OP(O)(=O)OC[C@@H]2O[C@@H]([C@@H](O)[C@H]2O)N2C=CC(=O)NC2=O)[C@@H](O)[C@H](O)[C@H]1O
INCHI=InChI=1S/C15H24N2O17P2/c18-3-5-8(20)10(22)12(24)14(32-5)33-36(28,29)34-35(26,27)30-4-6-9(21)11(23)13(31-6)17-2-1-7(19)16-15(17)25/h1-2,5-6,8-14,18,20-24H,3-4H2,(H,26,27)(H,28,29)(H,16,19,25)/t5-,6-,8-,9-,10+,11-,12-,13-,14?/m0/s1
INCHIAUX=N/A
PUBMED=N/A
SUBMITUSER=mwang87
TAGS=
LIBRARYQUALITY=3
SPECTRUMID=CCMSLIB00000426956
SCANS=1928
542.852 55.295 
566.777 100.0 
END IONS

BEGIN IONS
PEPMASS=181.073
CHARGE=1+
MSLEVEL=2
SOURCE_INSTRUMENT=Positive-Quattro_QQQ:10eV
FILENAME=hmdb_intermediate.mgf
SEQ=*..*
IONMODE=Positive
ORGANISM=HMDB
NAME=HMDB:HMDB01889-1792 Theophylline M+H
PI=HMDB
DATACOLLECTOR=HMDB
SMILES=CN1C2=C(NC=N2)C(=O)N(C)C1=O
INCHI=InChI=1S/C7H8N4O2/c1-10-5-4(8-3-9-5)6(12)11(2)7(10)13/h3H,1-2H3,(H,8,9)
INCHIAUX=N/A
PUBMED=N/A
SUBMITUSER=mwang87
TAGS=
LIBRARYQUALITY=3
SPECTRUMID=CCMSLIB00000426957
SCANS=1929
121.389 100.0 
121.514 68.392 
END IONS

BEGIN IONS
PEPMASS=283.264
CHARGE=1+
MSLEVEL=2
SOURCE_INSTRUMENT=Positive-Quattro_QQQ:25eV
FILENAME=hmdb_intermediate.mgf
SEQ=*..*
IONMODE=Positive
ORGANISM=HMDB
NAME=HMDB:HMDB00207-335 Oleic acid M+H
PI=HMDB
DATACOLLECTOR=HMDB
SMILES=CCCCCCCC\C=C/CCCCCCCC(O)=O
INCHI=InChI=1S/C18H34O2/c1-2-3-4-5-6-7-8-9-10-11-12-13-14-15-16-17-18(19)20/h9-10H,2-8,11-17H2,1H3,(H,19,20)/b10-9-
INCHIAUX=N/A
PUBMED=N/A
SUBMITUSER=mwang87
TAGS=
LIBRARYQUALITY=3
SPECTRUMID=CCMSLIB00000426958
SCANS=1930
55.0 50.648 
57.0 79.101 
69.0 100.0 
71.0 59.463 
83.0 69.407 
97.0 52.269 
END IONS

BEGIN IONS
PEPMASS=228.098
CHARGE=1+
MSLEVEL=2
SOURCE_INSTRUMENT=Positive-Quattro_QQQ:40eV
FILENAME=hmdb_intermediate.mgf
SEQ=*..*
IONMODE=Positive
ORGANISM=HMDB
NAME=HMDB:HMDB00014-24 Deoxycytidine M+H
PI=HMDB
DATACOLLECTOR=HMDB
SMILES=NC1=NC(=O)N(C=C1)[C@H]1C[C@H](O)[C@@H](CO)O1
INCHI=InChI=1S/C9H13N3O4/c10-7-1-2-12(9(15)11-7)8-3-5(14)6(4-13)16-8/h1-2,5-6,8,13-14H,3-4H2,(H2,10,11,15)/t5-,6+,8+/m0/s1
INCHIAUX=N/A
PUBMED=N/A
SUBMITUSER=mwang87
TAGS=
LIBRARYQUALITY=3
SPECTRUMID=CCMSLIB00000426959
SCANS=1931
94.874 76.023 
112.003 100.0 
END IONS

BEGIN IONS
PEPMASS=241.13
CHARGE=1+
MSLEVEL=2
SOURCE_INSTRUMENT=Positive-Quattro_QQQ:40eV
FILENAME=hmdb_intermediate.mgf
SEQ=*..*
IONMODE=Positive
ORGANISM=HMDB
NAME=HMDB:HMDB00745-1061 Homocarnosine M+H
PI=HMDB
DATACOLLECTOR=HMDB
SMILES=NCCCC(=O)N[C@@H](CC1=CNC=N1)C(O)=O
INCHI=InChI=1S/C10H16N4O3/c11-3-1-2-9(15)14-8(10(16)17)4-7-5-12-6-13-7/h5-6,8H,1-4,11H2,(H,12,13)(H,14,15)(H,16,17)/t8-/m0/s1
INCHIAUX=N/A
PUBMED=N/A
SUBMITUSER=mwang87
TAGS=
LIBRARYQUALITY=3
SPECTRUMID=CCMSLIB00000426960
SCANS=1932
82.888 91.304 
110.017 100.0 
END IONS

BEGIN IONS
PEPMASS=190.072
CHARGE=1+
MSLEVEL=2
SOURCE_INSTRUMENT=Positive-Quattro_QQQ:10eV
FILENAME=hmdb_intermediate.mgf
SEQ=*..*
IONMODE=Positive
ORGANISM=HMDB
NAME=HMDB:HMDB00590-813 Glutarylglycine M+H
PI=HMDB
DATACOLLECTOR=HMDB
SMILES=OC(=O)CCCC(=O)NCC(O)=O
INCHI=InChI=1S/C7H11NO5/c9-5(8-4-7(12)13)2-1-3-6(10)11/h1-4H2,(H,8,9)(H,10,11)(H,12,13)
INCHIAUX=N/A
PUBMED=N/A
SUBMITUSER=mwang87
TAGS=
LIBRARYQUALITY=3
SPECTRUMID=CCMSLIB00000426961
SCANS=1933
126.0 100.0 
END IONS

BEGIN IONS
PEPMASS=325.311
CHARGE=1+
MSLEVEL=2
SOURCE_INSTRUMENT=Negative-Quattro_QQQ:10eV
FILENAME=hmdb_intermediate.mgf
SEQ=*..*
IONMODE=Negative
ORGANISM=HMDB
NAME=HMDB:HMDB02345-2067 Heneicosanoic acid M-H
PI=HMDB
DATACOLLECTOR=HMDB
SMILES=CCCCCCCCCCCCCCCCCCCCC(O)=O
INCHI=InChI=1S/C21H42O2/c1-2-3-4-5-6-7-8-9-10-11-12-13-14-15-16-17-18-19-20-21(22)23/h2-20H2,1H3,(H,22,23)
INCHIAUX=N/A
PUBMED=N/A
SUBMITUSER=mwang87
TAGS=
LIBRARYQUALITY=3
SPECTRUMID=CCMSLIB00000426962
SCANS=1934
325.0 100.0 
END IONS

BEGIN IONS
PEPMASS=131.071
CHARGE=1+
MSLEVEL=2
SOURCE_INSTRUMENT=Positive-Quattro_QQQ:10eV
FILENAME=hmdb_intermediate.mgf
SEQ=*..*
IONMODE=Positive
ORGANISM=HMDB
NAME=HMDB:HMDB01864-1744 2-Ketohexanoic acid M+H
PI=HMDB
DATACOLLECTOR=HMDB
SMILES=CCCCC(=O)C(O)=O
INCHI=InChI=1S/C6H10O3/c1-2-3-4-5(7)6(8)9/h2-4H2,1H3,(H,8,9)
INCHIAUX=N/A
PUBMED=N/A
SUBMITUSER=mwang87
TAGS=
LIBRARYQUALITY=3
SPECTRUMID=CCMSLIB00000426963
SCANS=1935
69.372 59.095 
89.466 100.0 
89.966 99.371 
98.578 76.929 
109.561 56.108 
110.56 60.029 
114.179 77.275 
END IONS

BEGIN IONS
PEPMASS=137.133
CHARGE=1+
MSLEVEL=2
SOURCE_INSTRUMENT=Positive-Quattro_QQQ:40eV
FILENAME=hmdb_intermediate.mgf
SEQ=*..*
IONMODE=Positive
ORGANISM=HMDB
NAME=HMDB:HMDB04321-2384 (+)-Limonene M+H
PI=HMDB
DATACOLLECTOR=HMDB
SMILES=CC(=C)[C@@H]1CCC(C)=CC1
INCHI=InChI=1S/C10H16/c1-8(2)10-6-4-9(3)5-7-10/h4,10H,1,5-7H2,2-3H3/t10-/m0/s1
INCHIAUX=N/A
PUBMED=N/A
SUBMITUSER=mwang87
TAGS=
LIBRARYQUALITY=3
SPECTRUMID=CCMSLIB00000426964
SCANS=1936
41.0 100.0 
42.0 84.752 
END IONS

BEGIN IONS
PEPMASS=176.067
CHARGE=1+
MSLEVEL=2
SOURCE_INSTRUMENT=Positive-Quattro_QQQ:25eV
FILENAME=hmdb_intermediate.mgf
SEQ=*..*
IONMODE=Positive
ORGANISM=HMDB
NAME=HMDB:HMDB03157-2207 Guanidinosuccinic acid M+H
PI=HMDB
DATACOLLECTOR=HMDB
SMILES=NC(=N)N[C@@H](CC(O)=O)C(O)=O
INCHI=InChI=1S/C5H9N3O4/c6-5(7)8-2(4(11)12)1-3(9)10/h2H,1H2,(H,9,10)(H,11,12)(H4,6,7,8)/t2-/m0/s1
INCHIAUX=N/A
PUBMED=N/A
SUBMITUSER=mwang87
TAGS=
LIBRARYQUALITY=3
SPECTRUMID=CCMSLIB00000426965
SCANS=1937
70.0 100.0 
74.0 79.344 
88.0 62.181 
END IONS

BEGIN IONS
PEPMASS=364.066
CHARGE=1+
MSLEVEL=2
SOURCE_INSTRUMENT=Positive-Quattro_QQQ:10eV
FILENAME=hmdb_intermediate.mgf
SEQ=*..*
IONMODE=Positive
ORGANISM=HMDB
NAME=HMDB:HMDB01397-1553 Guanosine monophosphate M+H
PI=HMDB
DATACOLLECTOR=HMDB
SMILES=NC1=NC2=C(N=CN2[C@@H]2O[C@H](COP(O)(O)=O)[C@@H](O)[C@H]2O)C(=O)N1
INCHI=InChI=1S/C10H14N5O8P/c11-10-13-7-4(8(18)14-10)12-2-15(7)9-6(17)5(16)3(23-9)1-22-24(19,20)21/h2-3,5-6,9,16-17H,1H2,(H2,19,20,21)(H3,11,13,14,18)/t3-,5-,6-,9-/m1/s1
INCHIAUX=N/A
PUBMED=N/A
SUBMITUSER=mwang87
TAGS=
LIBRARYQUALITY=3
SPECTRUMID=CCMSLIB00000426966
SCANS=1938
152.0 100.0 
END IONS

BEGIN IONS
PEPMASS=147.066
CHARGE=1+
MSLEVEL=2
SOURCE_INSTRUMENT=Positive-Quattro_QQQ:25eV
FILENAME=hmdb_intermediate.mgf
SEQ=*..*
IONMODE=Positive
ORGANISM=HMDB
NAME=HMDB:HMDB00752-1075 Methylglutaric acid M+H
PI=HMDB
DATACOLLECTOR=HMDB
SMILES=CC(CC(O)=O)CC(O)=O
INCHI=InChI=1S/C6H10O4/c1-4(2-5(7)8)3-6(9)10/h4H,2-3H2,1H3,(H,7,8)(H,9,10)
INCHIAUX=N/A
PUBMED=N/A
SUBMITUSER=mwang87
TAGS=
LIBRARYQUALITY=3
SPECTRUMID=CCMSLIB00000426967
SCANS=1939
55.253 72.892 
55.627 100.0 
58.991 72.325 
59.739 51.33 
END IONS

BEGIN IONS
PEPMASS=170.082
CHARGE=1+
MSLEVEL=2
SOURCE_INSTRUMENT=Positive-Quattro_QQQ:40eV
FILENAME=hmdb_intermediate.mgf
SEQ=*..*
IONMODE=Positive
ORGANISM=HMDB
NAME=HMDB:HMDB01537-1633 6-Hydroxydopamine M+H
PI=HMDB
DATACOLLECTOR=HMDB
SMILES=NCCC1=C(O)C=C(O)C(O)=C1
INCHI=InChI=1S/C8H11NO3/c9-2-1-5-3-7(11)8(12)4-6(5)10/h3-4,10-12H,1-2,9H2
INCHIAUX=N/A
PUBMED=N/A
SUBMITUSER=mwang87
TAGS=
LIBRARYQUALITY=3
SPECTRUMID=CCMSLIB00000426968
SCANS=1940
107.04 100.0 
153.12 70.4844924688 
END IONS

BEGIN IONS
PEPMASS=361.202
CHARGE=1+
MSLEVEL=2
SOURCE_INSTRUMENT=Positive-Quattro_QQQ:10eV
FILENAME=hmdb_intermediate.mgf
SEQ=*..*
IONMODE=Positive
ORGANISM=HMDB
NAME=HMDB:HMDB02802-2134 Cortisone M+H
PI=HMDB
DATACOLLECTOR=HMDB
SMILES=[H][C@@]12CC[C@](O)(C(=O)CO)[C@@]1(C)CC(=O)[C@@]1([H])[C@@]2([H])CCC2=CC(=O)CC[C@]12C
INCHI=InChI=1S/C21H28O5/c1-19-7-5-13(23)9-12(19)3-4-14-15-6-8-21(26,17(25)11-22)20(15,2)10-16(24)18(14)19/h9,14-15,18,22,26H,3-8,10-11H2,1-2H3/t14-,15-,18+,19-,20-,21-/m0/s1
INCHIAUX=N/A
PUBMED=N/A
SUBMITUSER=mwang87
TAGS=
LIBRARYQUALITY=3
SPECTRUMID=CCMSLIB00000426969
SCANS=1941
361.07 100.0 
END IONS

BEGIN IONS
PEPMASS=649.592
CHARGE=1+
MSLEVEL=2
SOURCE_INSTRUMENT=Positive-Quattro_QQQ:10eV
FILENAME=hmdb_intermediate.mgf
SEQ=*..*
IONMODE=Positive
ORGANISM=HMDB
NAME=HMDB:HMDB00610-828 CE(18:2(9Z,12Z)) M+H
PI=HMDB
DATACOLLECTOR=HMDB
SMILES=CCCCC\C=C/C\C=C/CCCCCCCC(=O)O[C@H]1CC[C@@]2(C)C(=CC[C@@]3([H])[C@]4([H])CC[C@]([H])([C@H](C)CCCC(C)C)[C@@]4(C)CC[C@]23[H])C1
INCHI=InChI=1S/C45H76O2/c1-7-8-9-10-11-12-13-14-15-16-17-18-19-20-21-25-43(46)47-38-30-32-44(5)37(34-38)26-27-39-41-29-28-40(36(4)24-22-23-35(2)3)45(41,6)33-31-42(39)44/h11-12,14-15,26,35-36,38-42H,7-10,13,16-25,27-34H2,1-6H3/b12-11-,15-14-/t36-,38+,39+,40-,41+,42+,44+,45-/m1/s1
INCHIAUX=N/A
PUBMED=N/A
SUBMITUSER=mwang87
TAGS=
LIBRARYQUALITY=3
SPECTRUMID=CCMSLIB00000426970
SCANS=1942
649.0 100.0 
END IONS

BEGIN IONS
PEPMASS=183.066
CHARGE=1+
MSLEVEL=2
SOURCE_INSTRUMENT=Positive-Quattro_QQQ:40eV
FILENAME=hmdb_intermediate.mgf
SEQ=*..*
IONMODE=Positive
ORGANISM=HMDB
NAME=HMDB:HMDB00423-628 3,4-Dihydroxyhydrocinnamic acid M+H
PI=HMDB
DATACOLLECTOR=HMDB
SMILES=OC(=O)CCC1=CC=C(O)C(O)=C1
INCHI=InChI=1S/C9H10O4/c10-7-3-1-6(5-8(7)11)2-4-9(12)13/h1,3,5,10-11H,2,4H2,(H,12,13)
INCHIAUX=N/A
PUBMED=N/A
SUBMITUSER=mwang87
TAGS=
LIBRARYQUALITY=3
SPECTRUMID=CCMSLIB00000426971
SCANS=1943
65.0 100.0 
END IONS

BEGIN IONS
PEPMASS=147.045
CHARGE=1+
MSLEVEL=2
SOURCE_INSTRUMENT=Positive-Quattro_QQQ:10eV
FILENAME=hmdb_intermediate.mgf
SEQ=*..*
IONMODE=Positive
ORGANISM=HMDB
NAME=HMDB:HMDB02359-2079 Phenylpropiolic acid M+H
PI=HMDB
DATACOLLECTOR=HMDB
SMILES=OC(=O)C#CC1=CC=CC=C1
INCHI=InChI=1S/C9H6O2/c10-9(11)7-6-8-4-2-1-3-5-8/h1-5H,(H,10,11)
INCHIAUX=N/A
PUBMED=N/A
SUBMITUSER=mwang87
TAGS=
LIBRARYQUALITY=3
SPECTRUMID=CCMSLIB00000426972
SCANS=1944
69.0 59.128 
129.0 60.139 
147.0 100.0 
END IONS

BEGIN IONS
PEPMASS=106.05
CHARGE=1+
MSLEVEL=2
SOURCE_INSTRUMENT=Positive-Quattro_QQQ:25eV
FILENAME=hmdb_intermediate.mgf
SEQ=*..*
IONMODE=Positive
ORGANISM=HMDB
NAME=HMDB:HMDB00187-296 L-Serine M+H
PI=HMDB
DATACOLLECTOR=HMDB
SMILES=N[C@@H](CO)C(O)=O
INCHI=InChI=1S/C3H7NO3/c4-2(1-5)3(6)7/h2,5H,1,4H2,(H,6,7)/t2-/m0/s1
INCHIAUX=N/A
PUBMED=N/A
SUBMITUSER=mwang87
TAGS=
LIBRARYQUALITY=3
SPECTRUMID=CCMSLIB00000426973
SCANS=1945
42.3 75.397 
60.108 100.0 
END IONS

BEGIN IONS
PEPMASS=216.043
CHARGE=1+
MSLEVEL=2
SOURCE_INSTRUMENT=Positive-Quattro_QQQ:40eV
FILENAME=hmdb_intermediate.mgf
SEQ=*..*
IONMODE=Positive
ORGANISM=HMDB
NAME=HMDB:HMDB01885-1785 3-Chlorotyrosine M+H
PI=HMDB
DATACOLLECTOR=HMDB
SMILES=NC(CC1=CC(Cl)=C(O)C=C1)C(O)=O
INCHI=InChI=1S/C9H10ClNO3/c10-6-3-5(1-2-8(6)12)4-7(11)9(13)14/h1-3,7,12H,4,11H2,(H,13,14)
INCHIAUX=N/A
PUBMED=N/A
SUBMITUSER=mwang87
TAGS=
LIBRARYQUALITY=3
SPECTRUMID=CCMSLIB00000426974
SCANS=1946
134.1 60.2460775205 
135.06 100.0 
END IONS

BEGIN IONS
PEPMASS=165.092
CHARGE=1+
MSLEVEL=2
SOURCE_INSTRUMENT=Positive-Quattro_QQQ:25eV
FILENAME=hmdb_intermediate.mgf
SEQ=*..*
IONMODE=Positive
ORGANISM=HMDB
NAME=HMDB:HMDB01955-1909 3-Phenylbutyric acid M+H
PI=HMDB
DATACOLLECTOR=HMDB
SMILES=CC(CC(O)=O)C1=CC=CC=C1
INCHI=InChI=1S/C10H12O2/c1-8(7-10(11)12)9-5-3-2-4-6-9/h2-6,8H,7H2,1H3,(H,11,12)
INCHIAUX=N/A
PUBMED=N/A
SUBMITUSER=mwang87
TAGS=
LIBRARYQUALITY=3
SPECTRUMID=CCMSLIB00000426975
SCANS=1947
104.0 100.0 
END IONS

BEGIN IONS
PEPMASS=104.071
CHARGE=1+
MSLEVEL=2
SOURCE_INSTRUMENT=Positive-Quattro_QQQ:10eV
FILENAME=hmdb_intermediate.mgf
SEQ=*..*
IONMODE=Positive
ORGANISM=HMDB
NAME=HMDB:HMDB00650-885 D-Alpha-aminobutyric acid M+H
PI=HMDB
DATACOLLECTOR=HMDB
SMILES=CC[C@@H](N)C(O)=O
INCHI=InChI=1S/C4H9NO2/c1-2-3(5)4(6)7/h3H,2,5H2,1H3,(H,6,7)/t3-/m1/s1
INCHIAUX=N/A
PUBMED=N/A
SUBMITUSER=mwang87
TAGS=
LIBRARYQUALITY=3
SPECTRUMID=CCMSLIB00000426976
SCANS=1948
58.203 100.0 
END IONS

BEGIN IONS
PEPMASS=87.0446
CHARGE=1+
MSLEVEL=2
SOURCE_INSTRUMENT=Negative-Quattro_QQQ:10eV
FILENAME=hmdb_intermediate.mgf
SEQ=*..*
IONMODE=Negative
ORGANISM=HMDB
NAME=HMDB:HMDB00039-66 Butyric acid M-H
PI=HMDB
DATACOLLECTOR=HMDB
SMILES=CCCC(O)=O
INCHI=InChI=1S/C4H8O2/c1-2-3-4(5)6/h2-3H2,1H3,(H,5,6)
INCHIAUX=N/A
PUBMED=N/A
SUBMITUSER=mwang87
TAGS=
LIBRARYQUALITY=3
SPECTRUMID=CCMSLIB00000426977
SCANS=1949
87.139 100.0 
END IONS

BEGIN IONS
PEPMASS=73.0653
CHARGE=1+
MSLEVEL=2
SOURCE_INSTRUMENT=Positive-Quattro_QQQ:10eV
FILENAME=hmdb_intermediate.mgf
SEQ=*..*
IONMODE=Positive
ORGANISM=HMDB
NAME=HMDB:HMDB03543-2322 Butanal M+H
PI=HMDB
DATACOLLECTOR=HMDB
SMILES=CCCC=O
INCHI=InChI=1S/C4H8O/c1-2-3-4-5/h4H,2-3H2,1H3
INCHIAUX=N/A
PUBMED=N/A
SUBMITUSER=mwang87
TAGS=
LIBRARYQUALITY=3
SPECTRUMID=CCMSLIB00000426978
SCANS=1950
55.0 100.0 
73.0 79.57 
END IONS

BEGIN IONS
PEPMASS=223.075
CHARGE=1+
MSLEVEL=2
SOURCE_INSTRUMENT=Positive-Quattro_QQQ:25eV
FILENAME=hmdb_intermediate.mgf
SEQ=*..*
IONMODE=Positive
ORGANISM=HMDB
NAME=HMDB:HMDB00099-157 L-Cystathionine M+H
PI=HMDB
DATACOLLECTOR=HMDB
SMILES=N[C@@H](CCSC[C@H](N)C(O)=O)C(O)=O
INCHI=InChI=1S/C7H14N2O4S/c8-4(6(10)11)1-2-14-3-5(9)7(12)13/h4-5H,1-3,8-9H2,(H,10,11)(H,12,13)/t4-,5-/m0/s1
INCHIAUX=N/A
PUBMED=N/A
SUBMITUSER=mwang87
TAGS=
LIBRARYQUALITY=3
SPECTRUMID=CCMSLIB00000426979
SCANS=1951
88.082 100.0 
END IONS

BEGIN IONS
PEPMASS=204.102
CHARGE=1+
MSLEVEL=2
SOURCE_INSTRUMENT=Positive-Quattro_QQQ:25eV
FILENAME=hmdb_intermediate.mgf
SEQ=*..*
IONMODE=Positive
ORGANISM=HMDB
NAME=HMDB:HMDB02096-2000 3-Indolebutyric acid M+H
PI=HMDB
DATACOLLECTOR=HMDB
SMILES=OC(=O)CCCC1=CNC2=CC=CC=C12
INCHI=InChI=1S/C12H13NO2/c14-12(15)7-3-4-9-8-13-11-6-2-1-5-10(9)11/h1-2,5-6,8,13H,3-4,7H2,(H,14,15)
INCHIAUX=N/A
PUBMED=N/A
SUBMITUSER=mwang87
TAGS=
LIBRARYQUALITY=3
SPECTRUMID=CCMSLIB00000426980
SCANS=1952
130.0 100.0 
144.0 54.492 
END IONS

BEGIN IONS
PEPMASS=222.098
CHARGE=1+
MSLEVEL=2
SOURCE_INSTRUMENT=Positive-Quattro_QQQ:25eV
FILENAME=hmdb_intermediate.mgf
SEQ=*..*
IONMODE=Positive
ORGANISM=HMDB
NAME=HMDB:HMDB00803-1145 Beta-N-Acetylglucosamine M+H
PI=HMDB
DATACOLLECTOR=HMDB
SMILES=CC(=O)N[C@H]1[C@H](O)O[C@H](CO)[C@@H](O)[C@@H]1O
INCHI=InChI=1S/C8H15NO6/c1-3(11)9-5-7(13)6(12)4(2-10)15-8(5)14/h4-8,10,12-14H,2H2,1H3,(H,9,11)/t4-,5-,6-,7-,8-/m1/s1
INCHIAUX=N/A
PUBMED=N/A
SUBMITUSER=mwang87
TAGS=
LIBRARYQUALITY=3
SPECTRUMID=CCMSLIB00000426981
SCANS=1953
84.03 73.75 
96.139 58.125 
137.979 100.0 
END IONS

BEGIN IONS
PEPMASS=74.0718
CHARGE=1+
MSLEVEL=2
SOURCE_INSTRUMENT=Positive-Quattro_QQQ:40eV
FILENAME=hmdb_intermediate.mgf
SEQ=*..*
IONMODE=Positive
ORGANISM=HMDB
NAME=HMDB:HMDB01522-1624 Methylguanidine M+H
PI=HMDB
DATACOLLECTOR=HMDB
SMILES=CNC(N)=N
INCHI=InChI=1S/C2H7N3/c1-5-2(3)4/h1H3,(H4,3,4,5)
INCHIAUX=N/A
PUBMED=N/A
SUBMITUSER=mwang87
TAGS=
LIBRARYQUALITY=3
SPECTRUMID=CCMSLIB00000426982
SCANS=1954
43.193 100.0 
END IONS

BEGIN IONS
PEPMASS=163.124
CHARGE=1+
MSLEVEL=2
SOURCE_INSTRUMENT=Positive-Quattro_QQQ:10eV
FILENAME=hmdb_intermediate.mgf
SEQ=*..*
IONMODE=Positive
ORGANISM=HMDB
NAME=HMDB:HMDB01934-1878 L(-)-Nicotine pestanal M+H
PI=HMDB
DATACOLLECTOR=HMDB
SMILES=CN1CCC[C@H]1C1=CN=CC=C1
INCHI=InChI=1S/C10H14N2/c1-12-7-3-5-10(12)9-4-2-6-11-8-9/h2,4,6,8,10H,3,5,7H2,1H3/t10-/m0/s1
INCHIAUX=N/A
PUBMED=N/A
SUBMITUSER=mwang87
TAGS=
LIBRARYQUALITY=3
SPECTRUMID=CCMSLIB00000426983
SCANS=1955
123.0 100.0 
END IONS

BEGIN IONS
PEPMASS=89.1079
CHARGE=1+
MSLEVEL=2
SOURCE_INSTRUMENT=Positive-Quattro_QQQ:40eV
FILENAME=hmdb_intermediate.mgf
SEQ=*..*
IONMODE=Positive
ORGANISM=HMDB
NAME=HMDB:HMDB60243-1570 Putrescine M+H
PI=HMDB
DATACOLLECTOR=HMDB
SMILES=NCCCCN
INCHI=InChI=1S/C4H12N2/c5-3-1-2-4-6/h1-6H2
INCHIAUX=N/A
PUBMED=N/A
SUBMITUSER=mwang87
TAGS=
LIBRARYQUALITY=3
SPECTRUMID=CCMSLIB00000426984
SCANS=1956
72.18 100.0 
89.131 64.024 
END IONS

BEGIN IONS
PEPMASS=281.114
CHARGE=1+
MSLEVEL=2
SOURCE_INSTRUMENT=Positive-Quattro_QQQ:25eV
FILENAME=hmdb_intermediate.mgf
SEQ=*..*
IONMODE=Positive
ORGANISM=HMDB
NAME=HMDB:HMDB00706-988 L-Aspartyl-L-phenylalanine M+H
PI=HMDB
DATACOLLECTOR=HMDB
SMILES=N[C@@H](CC(O)=O)C(=O)N[C@@H](CC1=CC=CC=C1)C(O)=O
INCHI=InChI=1S/C13H16N2O5/c14-9(7-11(16)17)12(18)15-10(13(19)20)6-8-4-2-1-3-5-8/h1-5,9-10H,6-7,14H2,(H,15,18)(H,16,17)(H,19,20)/t9-,10-/m0/s1
INCHIAUX=N/A
PUBMED=N/A
SUBMITUSER=mwang87
TAGS=
LIBRARYQUALITY=3
SPECTRUMID=CCMSLIB00000426985
SCANS=1957
120.042 100.0 
END IONS

BEGIN IONS
PEPMASS=145.05
CHARGE=1+
MSLEVEL=2
SOURCE_INSTRUMENT=Negative-Quattro_QQQ:40eV
FILENAME=hmdb_intermediate.mgf
SEQ=*..*
IONMODE=Negative
ORGANISM=HMDB
NAME=HMDB:HMDB00448-655 Adipic acid M-H
PI=HMDB
DATACOLLECTOR=HMDB
SMILES=OC(=O)CCCCC(O)=O
INCHI=InChI=1S/C6H10O4/c7-5(8)3-1-2-4-6(9)10/h1-4H2,(H,7,8)(H,9,10)
INCHIAUX=N/A
PUBMED=N/A
SUBMITUSER=mwang87
TAGS=
LIBRARYQUALITY=3
SPECTRUMID=CCMSLIB00000426986
SCANS=1958
53.302 77.311 
54.331 51.261 
81.072 100.0 
83.061 61.345 
145.011 89.916 
END IONS

BEGIN IONS
PEPMASS=281.202
CHARGE=1+
MSLEVEL=2
SOURCE_INSTRUMENT=Positive-Quattro_QQQ:10eV
FILENAME=hmdb_intermediate.mgf
SEQ=*..*
IONMODE=Positive
ORGANISM=HMDB
NAME=HMDB:HMDB01848-1705 Imipramine M+H
PI=HMDB
DATACOLLECTOR=HMDB
SMILES=CN(C)CCCN1C2=CC=CC=C2CCC2=CC=CC=C12
INCHI=InChI=1S/C19H24N2/c1-20(2)14-7-15-21-18-10-5-3-8-16(18)12-13-17-9-4-6-11-19(17)21/h3-6,8-11H,7,12-15H2,1-2H3
INCHIAUX=N/A
PUBMED=N/A
SUBMITUSER=mwang87
TAGS=
LIBRARYQUALITY=3
SPECTRUMID=CCMSLIB00000426987
SCANS=1959
86.191 100.0 
86.56 85.718 
END IONS

BEGIN IONS
PEPMASS=129.019
CHARGE=1+
MSLEVEL=2
SOURCE_INSTRUMENT=Negative-Quattro_QQQ:25eV
FILENAME=hmdb_intermediate.mgf
SEQ=*..*
IONMODE=Negative
ORGANISM=HMDB
NAME=HMDB:HMDB00634-865 Citraconic acid M-H
PI=HMDB
DATACOLLECTOR=HMDB
SMILES=C\C(=C\C(O)=O)C(O)=O
INCHI=InChI=1S/C5H6O4/c1-3(5(8)9)2-4(6)7/h2H,1H3,(H,6,7)(H,8,9)/b3-2-
INCHIAUX=N/A
PUBMED=N/A
SUBMITUSER=mwang87
TAGS=
LIBRARYQUALITY=3
SPECTRUMID=CCMSLIB00000426988
SCANS=1960
41.668 100.0 
END IONS

BEGIN IONS
PEPMASS=125.06
CHARGE=1+
MSLEVEL=2
SOURCE_INSTRUMENT=Positive-Quattro_QQQ:40eV
FILENAME=hmdb_intermediate.mgf
SEQ=*..*
IONMODE=Positive
ORGANISM=HMDB
NAME=HMDB:HMDB00873-1234 4-Methylcatechol M+H
PI=HMDB
DATACOLLECTOR=HMDB
SMILES=CC1=CC(O)=C(O)C=C1
INCHI=InChI=1S/C7H8O2/c1-5-2-3-6(8)7(9)4-5/h2-4,8-9H,1H3
INCHIAUX=N/A
PUBMED=N/A
SUBMITUSER=mwang87
TAGS=
LIBRARYQUALITY=3
SPECTRUMID=CCMSLIB00000426989
SCANS=1961
77.12 100.0 
END IONS

BEGIN IONS
PEPMASS=118.087
CHARGE=1+
MSLEVEL=2
SOURCE_INSTRUMENT=Positive-Quattro_QQQ:10eV
FILENAME=hmdb_intermediate.mgf
SEQ=*..*
IONMODE=Positive
ORGANISM=HMDB
NAME=HMDB:HMDB00883-1244 L-Valine M+H
PI=HMDB
DATACOLLECTOR=HMDB
SMILES=CC(C)[C@H](N)C(O)=O
INCHI=InChI=1S/C5H11NO2/c1-3(2)4(6)5(7)8/h3-4H,6H2,1-2H3,(H,7,8)/t4-/m0/s1
INCHIAUX=N/A
PUBMED=N/A
SUBMITUSER=mwang87
TAGS=
LIBRARYQUALITY=3
SPECTRUMID=CCMSLIB00000426990
SCANS=1962
72.146 100.0 
END IONS

BEGIN IONS
PEPMASS=173.021
CHARGE=1+
MSLEVEL=2
SOURCE_INSTRUMENT=Positive-Quattro_QQQ:40eV
FILENAME=hmdb_intermediate.mgf
SEQ=*..*
IONMODE=Positive
ORGANISM=HMDB
NAME=HMDB:HMDB00126-191 Glycerol 3-phosphate M+H
PI=HMDB
DATACOLLECTOR=HMDB
SMILES=OC[C@@H](O)COP(O)(O)=O
INCHI=InChI=1S/C3H9O6P/c4-1-3(5)2-9-10(6,7)8/h3-5H,1-2H2,(H2,6,7,8)/t3-/m1/s1
INCHIAUX=N/A
PUBMED=N/A
SUBMITUSER=mwang87
TAGS=
LIBRARYQUALITY=3
SPECTRUMID=CCMSLIB00000426991
SCANS=1963
81.0 100.0 
99.0 74.968 
END IONS

BEGIN IONS
PEPMASS=224.092
CHARGE=1+
MSLEVEL=2
SOURCE_INSTRUMENT=Positive-Quattro_QQQ:40eV
FILENAME=hmdb_intermediate.mgf
SEQ=*..*
IONMODE=Positive
ORGANISM=HMDB
NAME=HMDB:HMDB00866-1222 N-Acetyl-L-tyrosine M+H
PI=HMDB
DATACOLLECTOR=HMDB
SMILES=CC(=O)N[C@@H](CC1=CC=C(O)C=C1)C(O)=O
INCHI=InChI=1S/C11H13NO4/c1-7(13)12-10(11(15)16)6-8-2-4-9(14)5-3-8/h2-5,10,14H,6H2,1H3,(H,12,13)(H,15,16)/t10-/m0/s1
INCHIAUX=N/A
PUBMED=N/A
SUBMITUSER=mwang87
TAGS=
LIBRARYQUALITY=3
SPECTRUMID=CCMSLIB00000426992
SCANS=1964
91.08 100.0 
END IONS

BEGIN IONS
PEPMASS=611.161
CHARGE=1+
MSLEVEL=2
SOURCE_INSTRUMENT=Positive-Quattro_QQQ:25eV
FILENAME=hmdb_intermediate.mgf
SEQ=*..*
IONMODE=Positive
ORGANISM=HMDB
NAME=HMDB:HMDB03249-2222 Rutin M+H
PI=HMDB
DATACOLLECTOR=HMDB
SMILES=C[C@@H]1O[C@@H](OC[C@H]2O[C@@H](OC3=C(OC4=CC(O)=CC(O)=C4C3=O)C3=CC(O)=C(O)C=C3)[C@H](O)[C@@H](O)[C@@H]2O)[C@H](O)[C@H](O)[C@H]1O
INCHI=InChI=1S/C27H30O16/c1-8-17(32)20(35)22(37)26(40-8)39-7-15-18(33)21(36)23(38)27(42-15)43-25-19(34)16-13(31)5-10(28)6-14(16)41-24(25)9-2-3-11(29)12(30)4-9/h2-6,8,15,17-18,20-23,26-33,35-38H,7H2,1H3/t8-,15+,17-,18+,20+,21-,22+,23+,26+,27-/m0/s1
INCHIAUX=N/A
PUBMED=N/A
SUBMITUSER=mwang87
TAGS=
LIBRARYQUALITY=3
SPECTRUMID=CCMSLIB00000426993
SCANS=1965
611.0 100.0 
END IONS

BEGIN IONS
PEPMASS=181.073
CHARGE=1+
MSLEVEL=2
SOURCE_INSTRUMENT=Positive-Quattro_QQQ:25eV
FILENAME=hmdb_intermediate.mgf
SEQ=*..*
IONMODE=Positive
ORGANISM=HMDB
NAME=HMDB:HMDB01860-1736 Paraxanthine M+H
PI=HMDB
DATACOLLECTOR=HMDB
SMILES=CN1C=NC2=C1C(=O)N(C)C(=O)N2
INCHI=InChI=1S/C7H8N4O2/c1-10-3-8-5-4(10)6(12)11(2)7(13)9-5/h3H,1-2H3,(H,9,13)
INCHIAUX=N/A
PUBMED=N/A
SUBMITUSER=mwang87
TAGS=
LIBRARYQUALITY=3
SPECTRUMID=CCMSLIB00000426994
SCANS=1966
123.882 100.0 
124.505 81.547 
END IONS

BEGIN IONS
PEPMASS=163.076
CHARGE=1+
MSLEVEL=2
SOURCE_INSTRUMENT=Negative-Quattro_QQQ:25eV
FILENAME=hmdb_intermediate.mgf
SEQ=*..*
IONMODE=Negative
ORGANISM=HMDB
NAME=HMDB:HMDB00329-541 2-Phenylbutyric acid M-H
PI=HMDB
DATACOLLECTOR=HMDB
SMILES=CCC(C(O)=O)C1=CC=CC=C1
INCHI=InChI=1S/C10H12O2/c1-2-9(10(11)12)8-6-4-3-5-7-8/h3-7,9H,2H2,1H3,(H,11,12)
INCHIAUX=N/A
PUBMED=N/A
SUBMITUSER=mwang87
TAGS=
LIBRARYQUALITY=3
SPECTRUMID=CCMSLIB00000426995
SCANS=1967
119.227 100.0 
END IONS

BEGIN IONS
PEPMASS=405.01
CHARGE=1+
MSLEVEL=2
SOURCE_INSTRUMENT=Positive-Quattro_QQQ:10eV
FILENAME=hmdb_intermediate.mgf
SEQ=*..*
IONMODE=Positive
ORGANISM=HMDB
NAME=HMDB:HMDB00295-501 Uridine 5'-diphosphate M+H
PI=HMDB
DATACOLLECTOR=HMDB
SMILES=O[C@H]1[C@@H](O)[C@@H](O[C@@H]1COP(O)(=O)OP(O)(O)=O)N1C=CC(=O)NC1=O
INCHI=InChI=1S/C9H14N2O12P2/c12-5-1-2-11(9(15)10-5)8-7(14)6(13)4(22-8)3-21-25(19,20)23-24(16,17)18/h1-2,4,6-8,13-14H,3H2,(H,19,20)(H,10,12,15)(H2,16,17,18)/t4-,6-,7-,8-/m1/s1
INCHIAUX=N/A
PUBMED=N/A
SUBMITUSER=mwang87
TAGS=
LIBRARYQUALITY=3
SPECTRUMID=CCMSLIB00000426996
SCANS=1968
97.1 100.0 
END IONS

BEGIN IONS
PEPMASS=140.995
CHARGE=1+
MSLEVEL=2
SOURCE_INSTRUMENT=Positive-Quattro_QQQ:40eV
FILENAME=hmdb_intermediate.mgf
SEQ=*..*
IONMODE=Positive
ORGANISM=HMDB
NAME=HMDB:HMDB01494-1615 Acetylphosphate M+H
PI=HMDB
DATACOLLECTOR=HMDB
SMILES=CC(=O)OP(O)(O)=O
INCHI=InChI=1S/C2H5O5P/c1-2(3)7-8(4,5)6/h1H3,(H2,4,5,6)
INCHIAUX=N/A
PUBMED=N/A
SUBMITUSER=mwang87
TAGS=
LIBRARYQUALITY=3
SPECTRUMID=CCMSLIB00000426997
SCANS=1969
50.0 100.0 
51.0 59.986 
76.0 94.72 
END IONS

BEGIN IONS
PEPMASS=175.024
CHARGE=1+
MSLEVEL=2
SOURCE_INSTRUMENT=Positive-Quattro_QQQ:25eV
FILENAME=hmdb_intermediate.mgf
SEQ=*..*
IONMODE=Positive
ORGANISM=HMDB
NAME=HMDB:HMDB00072-118 cis-Aconitic acid M+H
PI=HMDB
DATACOLLECTOR=HMDB
SMILES=OC(=O)C\C(=C\C(O)=O)C(O)=O
INCHI=InChI=1S/C6H6O6/c7-4(8)1-3(6(11)12)2-5(9)10/h1H,2H2,(H,7,8)(H,9,10)(H,11,12)/b3-1-
INCHIAUX=N/A
PUBMED=N/A
SUBMITUSER=mwang87
TAGS=
LIBRARYQUALITY=3
SPECTRUMID=CCMSLIB00000426998
SCANS=1970
41.37 100.0 
85.035 51.923 
END IONS

BEGIN IONS
PEPMASS=427.096
CHARGE=1+
MSLEVEL=2
SOURCE_INSTRUMENT=Positive-Quattro_QQQ:25eV
FILENAME=hmdb_intermediate.mgf
SEQ=*..*
IONMODE=Positive
ORGANISM=HMDB
NAME=HMDB:HMDB00656-895 Cysteineglutathione disulfide M+H
PI=HMDB
DATACOLLECTOR=HMDB
SMILES=N[C@@H](CCC(=O)N[C@@H](CSSCC(N)C(O)=O)C(=O)NCC(O)=O)C(O)=O
INCHI=InChI=1S/C13H22N4O8S2/c14-6(12(22)23)1-2-9(18)17-8(11(21)16-3-10(19)20)5-27-26-4-7(15)13(24)25/h6-8H,1-5,14-15H2,(H,16,21)(H,17,18)(H,19,20)(H,22,23)(H,24,25)/t6-,7?,8-/m0/s1
INCHIAUX=N/A
PUBMED=N/A
SUBMITUSER=mwang87
TAGS=
LIBRARYQUALITY=3
SPECTRUMID=CCMSLIB00000426999
SCANS=1971
111.298 55.407 
129.34 100.0 
END IONS

BEGIN IONS
PEPMASS=146.082
CHARGE=1+
MSLEVEL=2
SOURCE_INSTRUMENT=Positive-Quattro_QQQ:40eV
FILENAME=hmdb_intermediate.mgf
SEQ=*..*
IONMODE=Positive
ORGANISM=HMDB
NAME=HMDB:HMDB00730-1028 Isobutyrylglycine M+H
PI=HMDB
DATACOLLECTOR=HMDB
SMILES=CC(C)C(=O)NCC(O)=O
INCHI=InChI=1S/C6H11NO3/c1-4(2)6(10)7-3-5(8)9/h4H,3H2,1-2H3,(H,7,10)(H,8,9)
INCHIAUX=N/A
PUBMED=N/A
SUBMITUSER=mwang87
TAGS=
LIBRARYQUALITY=3
SPECTRUMID=CCMSLIB00000427000
SCANS=1972
43.624 100.0 
END IONS

BEGIN IONS
PEPMASS=103.076
CHARGE=1+
MSLEVEL=2
SOURCE_INSTRUMENT=Positive-Quattro_QQQ:25eV
FILENAME=hmdb_intermediate.mgf
SEQ=*..*
IONMODE=Positive
ORGANISM=HMDB
NAME=HMDB:HMDB00718-1006 Isovaleric acid M+H
PI=HMDB
DATACOLLECTOR=HMDB
SMILES=CC(C)CC(O)=O
INCHI=InChI=1S/C5H10O2/c1-4(2)3-5(6)7/h4H,3H2,1-2H3,(H,6,7)
INCHIAUX=N/A
PUBMED=N/A
SUBMITUSER=mwang87
TAGS=
LIBRARYQUALITY=3
SPECTRUMID=CCMSLIB00000427001
SCANS=1973
43.0 100.0 
END IONS

BEGIN IONS
PEPMASS=130.087
CHARGE=1+
MSLEVEL=2
SOURCE_INSTRUMENT=Positive-Quattro_QQQ:25eV
FILENAME=hmdb_intermediate.mgf
SEQ=*..*
IONMODE=Positive
ORGANISM=HMDB
NAME=HMDB:HMDB00070-112 Pipecolic acid M+H
PI=HMDB
DATACOLLECTOR=HMDB
SMILES=OC(=O)C1CCCCN1
INCHI=InChI=1S/C6H11NO2/c8-6(9)5-3-1-2-4-7-5/h5,7H,1-4H2,(H,8,9)
INCHIAUX=N/A
PUBMED=N/A
SUBMITUSER=mwang87
TAGS=
LIBRARYQUALITY=3
SPECTRUMID=CCMSLIB00000427002
SCANS=1974
84.028 100.0 
END IONS

BEGIN IONS
PEPMASS=75.0446
CHARGE=1+
MSLEVEL=2
SOURCE_INSTRUMENT=Positive-Quattro_QQQ:25eV
FILENAME=hmdb_intermediate.mgf
SEQ=*..*
IONMODE=Positive
ORGANISM=HMDB
NAME=HMDB:HMDB00237-398 Propionic acid M+H
PI=HMDB
DATACOLLECTOR=HMDB
SMILES=CCC(O)=O
INCHI=InChI=1S/C3H6O2/c1-2-3(4)5/h2H2,1H3,(H,4,5)
INCHIAUX=N/A
PUBMED=N/A
SUBMITUSER=mwang87
TAGS=
LIBRARYQUALITY=3
SPECTRUMID=CCMSLIB00000427003
SCANS=1975
75.1 100.0 
END IONS

BEGIN IONS
PEPMASS=190.05
CHARGE=1+
MSLEVEL=2
SOURCE_INSTRUMENT=Positive-Quattro_QQQ:40eV
FILENAME=hmdb_intermediate.mgf
SEQ=*..*
IONMODE=Positive
ORGANISM=HMDB
NAME=HMDB:HMDB00715-1001 Kynurenic acid M+H
PI=HMDB
DATACOLLECTOR=HMDB
SMILES=OC(=O)C1=CC(=O)C2=CC=CC=C2N1
INCHI=InChI=1S/C10H7NO3/c12-9-5-8(10(13)14)11-7-4-2-1-3-6(7)9/h1-5H,(H,11,12)(H,13,14)
INCHIAUX=N/A
PUBMED=N/A
SUBMITUSER=mwang87
TAGS=
LIBRARYQUALITY=3
SPECTRUMID=CCMSLIB00000427004
SCANS=1976
89.093 100.0 
END IONS

BEGIN IONS
PEPMASS=112.937
CHARGE=1+
MSLEVEL=2
SOURCE_INSTRUMENT=Positive-Quattro_QQQ:40eV
FILENAME=hmdb_intermediate.mgf
SEQ=*..*
IONMODE=Positive
ORGANISM=HMDB
NAME=HMDB:HMDB00257-447 Thiosulfate M+H
PI=HMDB
DATACOLLECTOR=HMDB
SMILES=[O-]S([S-])(=O)=O
INCHI=InChI=1S/H2O3S2/c1-5(2,3)4/h(H2,1,2,3,4)/p-2
INCHIAUX=N/A
PUBMED=N/A
SUBMITUSER=mwang87
TAGS=
LIBRARYQUALITY=3
SPECTRUMID=CCMSLIB00000427005
SCANS=1977
53.677 53.168 
55.185 100.0 
56.19 60.698 
58.704 51.755 
67.751 82.116 
70.139 57.168 
72.401 93.29 
95.398 50.581 
END IONS

BEGIN IONS
PEPMASS=69.0453
CHARGE=1+
MSLEVEL=2
SOURCE_INSTRUMENT=Positive-Quattro_QQQ:25eV
FILENAME=hmdb_intermediate.mgf
SEQ=*..*
IONMODE=Positive
ORGANISM=HMDB
NAME=HMDB:HMDB01525-1626 Imidazole M+H
PI=HMDB
DATACOLLECTOR=HMDB
SMILES=N1C=CN=C1
INCHI=InChI=1S/C3H4N2/c1-2-5-3-4-1/h1-3H,(H,4,5)
INCHIAUX=N/A
PUBMED=N/A
SUBMITUSER=mwang87
TAGS=
LIBRARYQUALITY=3
SPECTRUMID=CCMSLIB00000427006
SCANS=1978
69.319 100.0 
69.568 93.618 
END IONS

BEGIN IONS
PEPMASS=195.05
CHARGE=1+
MSLEVEL=2
SOURCE_INSTRUMENT=Positive-Quattro_QQQ:40eV
FILENAME=hmdb_intermediate.mgf
SEQ=*..*
IONMODE=Positive
ORGANISM=HMDB
NAME=HMDB:HMDB02545-2118 Galacturonic acid M+H
PI=HMDB
DATACOLLECTOR=HMDB
SMILES=O[C@@H](C=O)[C@@H](O)[C@@H](O)[C@H](O)C(O)=O
INCHI=InChI=1S/C6H10O7/c7-1-2(8)3(9)4(10)5(11)6(12)13/h1-5,8-11H,(H,12,13)/t2-,3+,4+,5-/m0/s1
INCHIAUX=N/A
PUBMED=N/A
SUBMITUSER=mwang87
TAGS=
LIBRARYQUALITY=3
SPECTRUMID=CCMSLIB00000427007
SCANS=1979
76.0 100.0 
END IONS

BEGIN IONS
PEPMASS=159.139
CHARGE=1+
MSLEVEL=2
SOURCE_INSTRUMENT=Positive-Quattro_QQQ:25eV
FILENAME=hmdb_intermediate.mgf
SEQ=*..*
IONMODE=Positive
ORGANISM=HMDB
NAME=HMDB:HMDB00798-1136 Oenanthic ether M+H
PI=HMDB
DATACOLLECTOR=HMDB
SMILES=CCCCCCC(=O)OCC
INCHI=InChI=1S/C9H18O2/c1-3-5-6-7-8-9(10)11-4-2/h3-8H2,1-2H3
INCHIAUX=N/A
PUBMED=N/A
SUBMITUSER=mwang87
TAGS=
LIBRARYQUALITY=3
SPECTRUMID=CCMSLIB00000427008
SCANS=1980
78.0 100.0 
80.0 93.178 
END IONS

BEGIN IONS
PEPMASS=179.107
CHARGE=1+
MSLEVEL=2
SOURCE_INSTRUMENT=Positive-Quattro_QQQ:25eV
FILENAME=hmdb_intermediate.mgf
SEQ=*..*
IONMODE=Positive
ORGANISM=HMDB
NAME=HMDB:HMDB02043-1966 5-Phenylvaleric acid M+H
PI=HMDB
DATACOLLECTOR=HMDB
SMILES=OC(=O)CCCCC1=CC=CC=C1
INCHI=InChI=1S/C11H14O2/c12-11(13)9-5-4-8-10-6-2-1-3-7-10/h1-3,6-7H,4-5,8-9H2,(H,12,13)
INCHIAUX=N/A
PUBMED=N/A
SUBMITUSER=mwang87
TAGS=
LIBRARYQUALITY=3
SPECTRUMID=CCMSLIB00000427009
SCANS=1981
76.0 100.0 
82.0 83.724 
END IONS

BEGIN IONS
PEPMASS=131.13
CHARGE=1+
MSLEVEL=2
SOURCE_INSTRUMENT=Positive-Quattro_QQQ:25eV
FILENAME=hmdb_intermediate.mgf
SEQ=*..*
IONMODE=Positive
ORGANISM=HMDB
NAME=HMDB:HMDB60259-1578 Agmatine M+H
PI=HMDB
DATACOLLECTOR=HMDB
SMILES=NCCCCNC(N)=N
INCHI=InChI=1S/C5H14N4/c6-3-1-2-4-9-5(7)8/h1-4,6H2,(H4,7,8,9)
INCHIAUX=N/A
PUBMED=N/A
SUBMITUSER=mwang87
TAGS=
LIBRARYQUALITY=3
SPECTRUMID=CCMSLIB00000427010
SCANS=1982
72.0 100.0 
END IONS

BEGIN IONS
PEPMASS=189.124
CHARGE=1+
MSLEVEL=2
SOURCE_INSTRUMENT=Positive-Quattro_QQQ:10eV
FILENAME=hmdb_intermediate.mgf
SEQ=*..*
IONMODE=Positive
ORGANISM=HMDB
NAME=HMDB:HMDB00206-331 N6-Acetyl-L-lysine M+H
PI=HMDB
DATACOLLECTOR=HMDB
SMILES=CC(=O)NCCCC[C@H](N)C(O)=O
INCHI=InChI=1S/C8H16N2O3/c1-6(11)10-5-3-2-4-7(9)8(12)13/h7H,2-5,9H2,1H3,(H,10,11)(H,12,13)/t7-/m0/s1
INCHIAUX=N/A
PUBMED=N/A
SUBMITUSER=mwang87
TAGS=
LIBRARYQUALITY=3
SPECTRUMID=CCMSLIB00000427011
SCANS=1983
126.047 100.0 
188.998 70.339 
END IONS

BEGIN IONS
PEPMASS=179.107
CHARGE=1+
MSLEVEL=2
SOURCE_INSTRUMENT=Positive-Quattro_QQQ:40eV
FILENAME=hmdb_intermediate.mgf
SEQ=*..*
IONMODE=Positive
ORGANISM=HMDB
NAME=HMDB:HMDB02043-1967 5-Phenylvaleric acid M+H
PI=HMDB
DATACOLLECTOR=HMDB
SMILES=OC(=O)CCCCC1=CC=CC=C1
INCHI=InChI=1S/C11H14O2/c12-11(13)9-5-4-8-10-6-2-1-3-7-10/h1-3,6-7H,4-5,8-9H2,(H,12,13)
INCHIAUX=N/A
PUBMED=N/A
SUBMITUSER=mwang87
TAGS=
LIBRARYQUALITY=3
SPECTRUMID=CCMSLIB00000427012
SCANS=1984
72.0 100.0 
76.0 91.17 
82.0 86.632 
END IONS

BEGIN IONS
PEPMASS=377.306
CHARGE=1+
MSLEVEL=2
SOURCE_INSTRUMENT=Positive-Quattro_QQQ:25eV
FILENAME=hmdb_intermediate.mgf
SEQ=*..*
IONMODE=Positive
ORGANISM=HMDB
NAME=HMDB:HMDB00761-1093 Lithocholic acid M+H
PI=HMDB
DATACOLLECTOR=HMDB
SMILES=[H][C@@]12CC[C@H]([C@H](C)CCC(O)=O)[C@@]1(C)CC[C@@]1([H])[C@@]2([H])CCC2C[C@H](O)CC[C@]12C
INCHI=InChI=1S/C24H40O3/c1-15(4-9-22(26)27)19-7-8-20-18-6-5-16-14-17(25)10-12-23(16,2)21(18)11-13-24(19,20)3/h15-21,25H,4-14H2,1-3H3,(H,26,27)/t15-,16?,17-,18+,19-,20+,21+,23+,24-/m1/s1
INCHIAUX=N/A
PUBMED=N/A
SUBMITUSER=mwang87
TAGS=
LIBRARYQUALITY=3
SPECTRUMID=CCMSLIB00000427013
SCANS=1985
90.0 100.0 
END IONS

BEGIN IONS
PEPMASS=157.159
CHARGE=1+
MSLEVEL=2
SOURCE_INSTRUMENT=Positive-Quattro_QQQ:25eV
FILENAME=hmdb_intermediate.mgf
SEQ=*..*
IONMODE=Positive
ORGANISM=HMDB
NAME=HMDB:HMDB03352-2260 Menthol M+H
PI=HMDB
DATACOLLECTOR=HMDB
SMILES=CC(C)[C@@H]1CC[C@@H](C)C[C@H]1O
INCHI=InChI=1S/C10H20O/c1-7(2)9-5-4-8(3)6-10(9)11/h7-11H,4-6H2,1-3H3/t8-,9+,10-/m1/s1
INCHIAUX=N/A
PUBMED=N/A
SUBMITUSER=mwang87
TAGS=
LIBRARYQUALITY=3
SPECTRUMID=CCMSLIB00000427014
SCANS=1986
54.0 79.182 
56.0 52.513 
68.0 100.0 
85.0 58.986 
END IONS

BEGIN IONS
PEPMASS=173.021
CHARGE=1+
MSLEVEL=2
SOURCE_INSTRUMENT=Positive-Quattro_QQQ:25eV
FILENAME=hmdb_intermediate.mgf
SEQ=*..*
IONMODE=Positive
ORGANISM=HMDB
NAME=HMDB:HMDB00126-190 Glycerol 3-phosphate M+H
PI=HMDB
DATACOLLECTOR=HMDB
SMILES=OC[C@@H](O)COP(O)(O)=O
INCHI=InChI=1S/C3H9O6P/c4-1-3(5)2-9-10(6,7)8/h3-5H,1-2H2,(H2,6,7,8)/t3-/m1/s1
INCHIAUX=N/A
PUBMED=N/A
SUBMITUSER=mwang87
TAGS=
LIBRARYQUALITY=3
SPECTRUMID=CCMSLIB00000427015
SCANS=1987
69.0 86.582 
87.0 100.0 
89.0 68.643 
101.0 59.622 
END IONS

BEGIN IONS
PEPMASS=192.066
CHARGE=1+
MSLEVEL=2
SOURCE_INSTRUMENT=Positive-Quattro_QQQ:10eV
FILENAME=hmdb_intermediate.mgf
SEQ=*..*
IONMODE=Positive
ORGANISM=HMDB
NAME=HMDB:HMDB00763-1095 5-Hydroxyindoleacetic acid M+H
PI=HMDB
DATACOLLECTOR=HMDB
SMILES=OC(=O)CC1=CNC2=CC=C(O)C=C12
INCHI=InChI=1S/C10H9NO3/c12-7-1-2-9-8(4-7)6(5-11-9)3-10(13)14/h1-2,4-5,11-12H,3H2,(H,13,14)
INCHIAUX=N/A
PUBMED=N/A
SUBMITUSER=mwang87
TAGS=
LIBRARYQUALITY=3
SPECTRUMID=CCMSLIB00000427016
SCANS=1988
145.996 100.0 
END IONS

BEGIN IONS
PEPMASS=245.077
CHARGE=1+
MSLEVEL=2
SOURCE_INSTRUMENT=Positive-Quattro_QQQ:40eV
FILENAME=hmdb_intermediate.mgf
SEQ=*..*
IONMODE=Positive
ORGANISM=HMDB
NAME=HMDB:HMDB00296-506 Uridine M+H
PI=HMDB
DATACOLLECTOR=HMDB
SMILES=OC[C@H]1O[C@H]([C@H](O)[C@@H]1O)N1C=CC(=O)NC1=O
INCHI=InChI=1S/C9H12N2O6/c12-3-4-6(14)7(15)8(17-4)11-2-1-5(13)10-9(11)16/h1-2,4,6-8,12,14-15H,3H2,(H,10,13,16)/t4-,6-,7-,8-/m1/s1
INCHIAUX=N/A
PUBMED=N/A
SUBMITUSER=mwang87
TAGS=
LIBRARYQUALITY=3
SPECTRUMID=CCMSLIB00000427017
SCANS=1989
70.099 100.0 
95.971 53.165 
112.983 87.342 
END IONS

BEGIN IONS
PEPMASS=273.185
CHARGE=1+
MSLEVEL=2
SOURCE_INSTRUMENT=Positive-Quattro_QQQ:10eV
FILENAME=hmdb_intermediate.mgf
SEQ=*..*
IONMODE=Positive
ORGANISM=HMDB
NAME=HMDB:HMDB00429-632 17a-Estradiol M+H
PI=HMDB
DATACOLLECTOR=HMDB
SMILES=[H][C@@]12CC[C@@H](O)[C@@]1(C)CC[C@]1([H])C3=C(CC[C@@]21[H])C=C(O)C=C3
INCHI=InChI=1S/C18H24O2/c1-18-9-8-14-13-5-3-12(19)10-11(13)2-4-15(14)16(18)6-7-17(18)20/h3,5,10,14-17,19-20H,2,4,6-9H2,1H3/t14-,15-,16+,17-,18+/m1/s1
INCHIAUX=N/A
PUBMED=N/A
SUBMITUSER=mwang87
TAGS=
LIBRARYQUALITY=3
SPECTRUMID=CCMSLIB00000427018
SCANS=1990
272.0 100.0 
273.0 87.572 
END IONS

BEGIN IONS
PEPMASS=295.129
CHARGE=1+
MSLEVEL=2
SOURCE_INSTRUMENT=Positive-Quattro_QQQ:25eV
FILENAME=hmdb_intermediate.mgf
SEQ=*..*
IONMODE=Positive
ORGANISM=HMDB
NAME=HMDB:HMDB01894-1808 Aspartame M+H
PI=HMDB
DATACOLLECTOR=HMDB
SMILES=COC(=O)[C@H](CC1=CC=CC=C1)NC(=O)[C@@H](N)CC(O)=O
INCHI=InChI=1S/C14H18N2O5/c1-21-14(20)11(7-9-5-3-2-4-6-9)16-13(19)10(15)8-12(17)18/h2-6,10-11H,7-8,15H2,1H3,(H,16,19)(H,17,18)/t10-,11-/m0/s1
INCHIAUX=N/A
PUBMED=N/A
SUBMITUSER=mwang87
TAGS=
LIBRARYQUALITY=3
SPECTRUMID=CCMSLIB00000427019
SCANS=1991
120.355 100.0 
120.603 96.846 
END IONS

BEGIN IONS
PEPMASS=181.071
CHARGE=1+
MSLEVEL=2
SOURCE_INSTRUMENT=Positive-Quattro_QQQ:10eV
FILENAME=hmdb_intermediate.mgf
SEQ=*..*
IONMODE=Positive
ORGANISM=HMDB
NAME=HMDB:HMDB03418-2298 D-Tagatose M+H
PI=HMDB
DATACOLLECTOR=HMDB
SMILES=OC[C@@H](O)[C@H](O)[C@H](O)C(=O)CO
INCHI=InChI=1S/C6H12O6/c7-1-3(9)5(11)6(12)4(10)2-8/h3,5-9,11-12H,1-2H2/t3-,5+,6-/m1/s1
INCHIAUX=N/A
PUBMED=N/A
SUBMITUSER=mwang87
TAGS=
LIBRARYQUALITY=3
SPECTRUMID=CCMSLIB00000427020
SCANS=1992
180.68 100.0 
END IONS

BEGIN IONS
PEPMASS=297.185
CHARGE=1+
MSLEVEL=2
SOURCE_INSTRUMENT=Positive-Quattro_QQQ:40eV
FILENAME=hmdb_intermediate.mgf
SEQ=*..*
IONMODE=Positive
ORGANISM=HMDB
NAME=HMDB:HMDB01926-1859 17a-Ethynylestradiol M+H
PI=HMDB
DATACOLLECTOR=HMDB
SMILES=[H][C@@]12CC[C@@](O)(C#C)[C@@]1(C)CC[C@]1([H])C3=CC=C(O)C=C3CC[C@@]21[H]
INCHI=InChI=1S/C20H24O2/c1-3-20(22)11-9-18-17-6-4-13-12-14(21)5-7-15(13)16(17)8-10-19(18,20)2/h1,5,7,12,16-18,21-22H,4,6,8-11H2,2H3/t16-,17-,18+,19+,20+/m1/s1
INCHIAUX=N/A
PUBMED=N/A
SUBMITUSER=mwang87
TAGS=
LIBRARYQUALITY=3
SPECTRUMID=CCMSLIB00000427021
SCANS=1993
79.128 81.132 
106.757 100.0 
END IONS

BEGIN IONS
PEPMASS=191.103
CHARGE=1+
MSLEVEL=2
SOURCE_INSTRUMENT=Positive-Quattro_QQQ:40eV
FILENAME=hmdb_intermediate.mgf
SEQ=*..*
IONMODE=Positive
ORGANISM=HMDB
NAME=HMDB:HMDB01370-1540 Diaminopimelic acid M+H
PI=HMDB
DATACOLLECTOR=HMDB
SMILES=N[C@@H](CCC[C@H](N)C(O)=O)C(O)=O
INCHI=InChI=1S/C7H14N2O4/c8-4(6(10)11)2-1-3-5(9)7(12)13/h4-5H,1-3,8-9H2,(H,10,11)(H,12,13)/t4-,5-/m0/s1
INCHIAUX=N/A
PUBMED=N/A
SUBMITUSER=mwang87
TAGS=
LIBRARYQUALITY=3
SPECTRUMID=CCMSLIB00000427022
SCANS=1994
82.0 100.0 
END IONS

BEGIN IONS
PEPMASS=73.029
CHARGE=1+
MSLEVEL=2
SOURCE_INSTRUMENT=Positive-Quattro_QQQ:40eV
FILENAME=hmdb_intermediate.mgf
SEQ=*..*
IONMODE=Positive
ORGANISM=HMDB
NAME=HMDB:HMDB01167-1444 Pyruvaldehyde M+H
PI=HMDB
DATACOLLECTOR=HMDB
SMILES=CC(=O)C=O
INCHI=InChI=1S/C3H4O2/c1-3(5)2-4/h2H,1H3
INCHIAUX=N/A
PUBMED=N/A
SUBMITUSER=mwang87
TAGS=
LIBRARYQUALITY=3
SPECTRUMID=CCMSLIB00000427023
SCANS=1995
45.0 79.186 
73.0 100.0 
END IONS

BEGIN IONS
PEPMASS=313.311
CHARGE=1+
MSLEVEL=2
SOURCE_INSTRUMENT=Positive-Quattro_QQQ:25eV
FILENAME=hmdb_intermediate.mgf
SEQ=*..*
IONMODE=Positive
ORGANISM=HMDB
NAME=HMDB:HMDB00801-1139 Phytanic acid M+H
PI=HMDB
DATACOLLECTOR=HMDB
SMILES=CC(C)CCCC(C)CCCC(C)CCCC(C)CC(O)=O
INCHI=InChI=1S/C20H40O2/c1-16(2)9-6-10-17(3)11-7-12-18(4)13-8-14-19(5)15-20(21)22/h16-19H,6-15H2,1-5H3,(H,21,22)
INCHIAUX=N/A
PUBMED=N/A
SUBMITUSER=mwang87
TAGS=
LIBRARYQUALITY=3
SPECTRUMID=CCMSLIB00000427024
SCANS=1996
71.1 100.0 
95.27 51.692 
END IONS

BEGIN IONS
PEPMASS=159.066
CHARGE=1+
MSLEVEL=2
SOURCE_INSTRUMENT=Negative-Quattro_QQQ:10eV
FILENAME=hmdb_intermediate.mgf
SEQ=*..*
IONMODE=Negative
ORGANISM=HMDB
NAME=HMDB:HMDB00555-776 3-Methyladipic acid M-H
PI=HMDB
DATACOLLECTOR=HMDB
SMILES=C[C@@H](CCC(O)=O)CC(O)=O
INCHI=InChI=1S/C7H12O4/c1-5(4-7(10)11)2-3-6(8)9/h5H,2-4H2,1H3,(H,8,9)(H,10,11)/t5-/m0/s1
INCHIAUX=N/A
PUBMED=N/A
SUBMITUSER=mwang87
TAGS=
LIBRARYQUALITY=3
SPECTRUMID=CCMSLIB00000427025
SCANS=1997
97.311 57.874 
115.236 50.394 
159.133 100.0 
END IONS

BEGIN IONS
PEPMASS=227.201
CHARGE=1+
MSLEVEL=2
SOURCE_INSTRUMENT=Negative-Quattro_QQQ:25eV
FILENAME=hmdb_intermediate.mgf
SEQ=*..*
IONMODE=Negative
ORGANISM=HMDB
NAME=HMDB:HMDB00806-1151 Myristic acid M-H
PI=HMDB
DATACOLLECTOR=HMDB
SMILES=CCCCCCCCCCCCCC(O)=O
INCHI=InChI=1S/C14H28O2/c1-2-3-4-5-6-7-8-9-10-11-12-13-14(15)16/h2-13H2,1H3,(H,15,16)
INCHIAUX=N/A
PUBMED=N/A
SUBMITUSER=mwang87
TAGS=
LIBRARYQUALITY=3
SPECTRUMID=CCMSLIB00000427026
SCANS=1998
227.078 100.0 
END IONS

BEGIN IONS
PEPMASS=191.092
CHARGE=1+
MSLEVEL=2
SOURCE_INSTRUMENT=Positive-Quattro_QQQ:10eV
FILENAME=hmdb_intermediate.mgf
SEQ=*..*
IONMODE=Positive
ORGANISM=HMDB
NAME=HMDB:HMDB00325-537 3-Hydroxysuberic acid M+H
PI=HMDB
DATACOLLECTOR=HMDB
SMILES=OC(CCCCC(O)=O)CC(O)=O
INCHI=InChI=1S/C8H14O5/c9-6(5-8(12)13)3-1-2-4-7(10)11/h6,9H,1-5H2,(H,10,11)(H,12,13)
INCHIAUX=N/A
PUBMED=N/A
SUBMITUSER=mwang87
TAGS=
LIBRARYQUALITY=3
SPECTRUMID=CCMSLIB00000427027
SCANS=1999
137.0 100.0 
155.0 77.729 
END IONS

BEGIN IONS
PEPMASS=147.066
CHARGE=1+
MSLEVEL=2
SOURCE_INSTRUMENT=Positive-Quattro_QQQ:10eV
FILENAME=hmdb_intermediate.mgf
SEQ=*..*
IONMODE=Positive
ORGANISM=HMDB
NAME=HMDB:HMDB00422-624 2-Methylglutaric acid M+H
PI=HMDB
DATACOLLECTOR=HMDB
SMILES=CC(CCC(O)=O)C(O)=O
INCHI=InChI=1S/C6H10O4/c1-4(6(9)10)2-3-5(7)8/h4H,2-3H2,1H3,(H,7,8)(H,9,10)
INCHIAUX=N/A
PUBMED=N/A
SUBMITUSER=mwang87
TAGS=
LIBRARYQUALITY=3
SPECTRUMID=CCMSLIB00000427028
SCANS=2000
85.0 50.984 
101.0 90.587 
105.0 67.313 
115.0 100.0 
147.0 85.728 
END IONS

BEGIN IONS
PEPMASS=508.988
CHARGE=1+
MSLEVEL=2
SOURCE_INSTRUMENT=Positive-Quattro_QQQ:40eV
FILENAME=hmdb_intermediate.mgf
SEQ=*..*
IONMODE=Positive
ORGANISM=HMDB
NAME=HMDB:HMDB00189-300 Inosine triphosphate M+H
PI=HMDB
DATACOLLECTOR=HMDB
SMILES=O[C@@H]1[C@@H](COP(O)(=O)OP(O)(=O)OP(O)(O)=O)O[C@H]([C@@H]1O)N1C=NC2=C1N=CN=C2O
INCHI=InChI=1S/C10H15N4O14P3/c15-6-4(1-25-30(21,22)28-31(23,24)27-29(18,19)20)26-10(7(6)16)14-3-13-5-8(14)11-2-12-9(5)17/h2-4,6-7,10,15-16H,1H2,(H,21,22)(H,23,24)(H,11,12,17)(H2,18,19,20)/t4-,6-,7-,10-/m1/s1
INCHIAUX=N/A
PUBMED=N/A
SUBMITUSER=mwang87
TAGS=
LIBRARYQUALITY=3
SPECTRUMID=CCMSLIB00000427029
SCANS=2001
137.0 100.0 
END IONS

BEGIN IONS
PEPMASS=163.108
CHARGE=1+
MSLEVEL=2
SOURCE_INSTRUMENT=Positive-Quattro_QQQ:10eV
FILENAME=hmdb_intermediate.mgf
SEQ=*..*
IONMODE=Positive
ORGANISM=HMDB
NAME=HMDB:HMDB00450-656 5-Hydroxylysine M+H
PI=HMDB
DATACOLLECTOR=HMDB
SMILES=NC[C@H](O)CC[C@H](N)C(O)=O
INCHI=InChI=1S/C6H14N2O3/c7-3-4(9)1-2-5(8)6(10)11/h4-5,9H,1-3,7-8H2,(H,10,11)/t4-,5+/m1/s1
INCHIAUX=N/A
PUBMED=N/A
SUBMITUSER=mwang87
TAGS=
LIBRARYQUALITY=3
SPECTRUMID=CCMSLIB00000427030
SCANS=2002
128.0 100.0 
END IONS

BEGIN IONS
PEPMASS=173.081
CHARGE=1+
MSLEVEL=2
SOURCE_INSTRUMENT=Negative-Quattro_QQQ:40eV
FILENAME=hmdb_intermediate.mgf
SEQ=*..*
IONMODE=Negative
ORGANISM=HMDB
NAME=HMDB:HMDB00893-1258 Suberic acid M-H
PI=HMDB
DATACOLLECTOR=HMDB
SMILES=OC(=O)CCCCCCC(O)=O
INCHI=InChI=1S/C8H14O4/c9-7(10)5-3-1-2-4-6-8(11)12/h1-6H2,(H,9,10)(H,11,12)
INCHIAUX=N/A
PUBMED=N/A
SUBMITUSER=mwang87
TAGS=
LIBRARYQUALITY=3
SPECTRUMID=CCMSLIB00000427031
SCANS=2003
57.226 87.864 
81.08 100.0 
83.084 69.417 
172.994 50.971 
END IONS

BEGIN IONS
PEPMASS=61.0402
CHARGE=1+
MSLEVEL=2
SOURCE_INSTRUMENT=Positive-Quattro_QQQ:40eV
FILENAME=hmdb_intermediate.mgf
SEQ=*..*
IONMODE=Positive
ORGANISM=HMDB
NAME=HMDB:HMDB00294-500 Urea M+H
PI=HMDB
DATACOLLECTOR=HMDB
SMILES=NC(N)=O
INCHI=InChI=1S/CH4N2O/c2-1(3)4/h(H4,2,3,4)
INCHIAUX=N/A
PUBMED=N/A
SUBMITUSER=mwang87
TAGS=
LIBRARYQUALITY=3
SPECTRUMID=CCMSLIB00000427032
SCANS=2004
84.0 100.0 
END IONS

BEGIN IONS
PEPMASS=60.0813
CHARGE=1+
MSLEVEL=2
SOURCE_INSTRUMENT=Positive-Quattro_QQQ:40eV
FILENAME=hmdb_intermediate.mgf
SEQ=*..*
IONMODE=Positive
ORGANISM=HMDB
NAME=HMDB:HMDB00906-1294 Trimethylamine M+H
PI=HMDB
DATACOLLECTOR=HMDB
SMILES=CN(C)C
INCHI=InChI=1S/C3H9N/c1-4(2)3/h1-3H3
INCHIAUX=N/A
PUBMED=N/A
SUBMITUSER=mwang87
TAGS=
LIBRARYQUALITY=3
SPECTRUMID=CCMSLIB00000427033
SCANS=2005
43.0 100.0 
END IONS

BEGIN IONS
PEPMASS=297.185
CHARGE=1+
MSLEVEL=2
SOURCE_INSTRUMENT=Positive-Quattro_QQQ:10eV
FILENAME=hmdb_intermediate.mgf
SEQ=*..*
IONMODE=Positive
ORGANISM=HMDB
NAME=HMDB:HMDB01926-1857 17a-Ethynylestradiol M+H
PI=HMDB
DATACOLLECTOR=HMDB
SMILES=[H][C@@]12CC[C@@](O)(C#C)[C@@]1(C)CC[C@]1([H])C3=CC=C(O)C=C3CC[C@@]21[H]
INCHI=InChI=1S/C20H24O2/c1-3-20(22)11-9-18-17-6-4-13-12-14(21)5-7-15(13)16(17)8-10-19(18,20)2/h1,5,7,12,16-18,21-22H,4,6,8-11H2,2H3/t16-,17-,18+,19+,20+/m1/s1
INCHIAUX=N/A
PUBMED=N/A
SUBMITUSER=mwang87
TAGS=
LIBRARYQUALITY=3
SPECTRUMID=CCMSLIB00000427034
SCANS=2006
296.978 100.0 
END IONS

BEGIN IONS
PEPMASS=153.076
CHARGE=1+
MSLEVEL=2
SOURCE_INSTRUMENT=Positive-Quattro_QQQ:25eV
FILENAME=hmdb_intermediate.mgf
SEQ=*..*
IONMODE=Positive
ORGANISM=HMDB
NAME=HMDB:HMDB02917-2161 D-Xylitol M+H
PI=HMDB
DATACOLLECTOR=HMDB
SMILES=OC[C@H](O)C(O)[C@H](O)CO
INCHI=InChI=1S/C5H12O5/c6-1-3(8)5(10)4(9)2-7/h3-10H,1-2H2/t3-,4+,5?
INCHIAUX=N/A
PUBMED=N/A
SUBMITUSER=mwang87
TAGS=
LIBRARYQUALITY=3
SPECTRUMID=CCMSLIB00000427035
SCANS=2007
61.0 51.997 
69.0 100.0 
END IONS

BEGIN IONS
PEPMASS=623.577
CHARGE=1+
MSLEVEL=2
SOURCE_INSTRUMENT=Positive-Quattro_QQQ:25eV
FILENAME=hmdb_intermediate.mgf
SEQ=*..*
IONMODE=Positive
ORGANISM=HMDB
NAME=HMDB:HMDB00658-898 CE(16:1(9Z)) M+H
PI=HMDB
DATACOLLECTOR=HMDB
SMILES=CCCCCC\C=C/CCCCCCCC(=O)OC1CC[C@@]2(C)C(=CCC3C4CC[C@H]([C@H](C)CCCC(C)C)[C@@]4(C)CCC23)C1
INCHI=InChI=1S/C43H74O2/c1-7-8-9-10-11-12-13-14-15-16-17-18-19-23-41(44)45-36-28-30-42(5)35(32-36)24-25-37-39-27-26-38(34(4)22-20-21-33(2)3)43(39,6)31-29-40(37)42/h12-13,24,33-34,36-40H,7-11,14-23,25-32H2,1-6H3/b13-12-/t34-,36?,37?,38-,39?,40?,42+,43-/m1/s1
INCHIAUX=N/A
PUBMED=N/A
SUBMITUSER=mwang87
TAGS=
LIBRARYQUALITY=3
SPECTRUMID=CCMSLIB00000427036
SCANS=2008
623.0 100.0 
END IONS

BEGIN IONS
PEPMASS=146.093
CHARGE=1+
MSLEVEL=2
SOURCE_INSTRUMENT=Positive-Quattro_QQQ:40eV
FILENAME=hmdb_intermediate.mgf
SEQ=*..*
IONMODE=Positive
ORGANISM=HMDB
NAME=HMDB:HMDB03464-2321 4-Guanidinobutanoic acid M+H
PI=HMDB
DATACOLLECTOR=HMDB
SMILES=NC(N)=NCCCC(O)=O
INCHI=InChI=1S/C5H11N3O2/c6-5(7)8-3-1-2-4(9)10/h1-3H2,(H,9,10)(H4,6,7,8)
INCHIAUX=N/A
PUBMED=N/A
SUBMITUSER=mwang87
TAGS=
LIBRARYQUALITY=3
SPECTRUMID=CCMSLIB00000427037
SCANS=2009
9.0 100.0 
86.0 87.304 
END IONS

BEGIN IONS
PEPMASS=174.088
CHARGE=1+
MSLEVEL=2
SOURCE_INSTRUMENT=Positive-Quattro_QQQ:25eV
FILENAME=hmdb_intermediate.mgf
SEQ=*..*
IONMODE=Positive
ORGANISM=HMDB
NAME=HMDB:HMDB04225-2374 2-Oxoarginine M+H
PI=HMDB
DATACOLLECTOR=HMDB
SMILES=NC(N)=NCCCC(=O)C(O)=O
INCHI=InChI=1S/C6H11N3O3/c7-6(8)9-3-1-2-4(10)5(11)12/h1-3H2,(H,11,12)(H4,7,8,9)
INCHIAUX=N/A
PUBMED=N/A
SUBMITUSER=mwang87
TAGS=
LIBRARYQUALITY=3
SPECTRUMID=CCMSLIB00000427038
SCANS=2010
78.51 87.738 
92.13 71.06 
131.83 100.0 
133.19 62.949 
END IONS

BEGIN IONS
PEPMASS=377.306
CHARGE=1+
MSLEVEL=2
SOURCE_INSTRUMENT=Positive-Quattro_QQQ:10eV
FILENAME=hmdb_intermediate.mgf
SEQ=*..*
IONMODE=Positive
ORGANISM=HMDB
NAME=HMDB:HMDB00761-1092 Lithocholic acid M+H
PI=HMDB
DATACOLLECTOR=HMDB
SMILES=[H][C@@]12CC[C@H]([C@H](C)CCC(O)=O)[C@@]1(C)CC[C@@]1([H])[C@@]2([H])CCC2C[C@H](O)CC[C@]12C
INCHI=InChI=1S/C24H40O3/c1-15(4-9-22(26)27)19-7-8-20-18-6-5-16-14-17(25)10-12-23(16,2)21(18)11-13-24(19,20)3/h15-21,25H,4-14H2,1-3H3,(H,26,27)/t15-,16?,17-,18+,19-,20+,21+,23+,24-/m1/s1
INCHIAUX=N/A
PUBMED=N/A
SUBMITUSER=mwang87
TAGS=
LIBRARYQUALITY=3
SPECTRUMID=CCMSLIB00000427039
SCANS=2011
376.0 100.0 
END IONS

BEGIN IONS
PEPMASS=269.063
CHARGE=1+
MSLEVEL=2
SOURCE_INSTRUMENT=Positive-Quattro_QQQ:25eV
FILENAME=hmdb_intermediate.mgf
SEQ=*..*
IONMODE=Positive
ORGANISM=HMDB
NAME=HMDB:HMDB00575-804 DL-Homocystine M+H
PI=HMDB
DATACOLLECTOR=HMDB
SMILES=NC(CCSSCCC(N)C(O)=O)C(O)=O
INCHI=InChI=1S/C8H16N2O4S2/c9-5(7(11)12)1-3-15-16-4-2-6(10)8(13)14/h5-6H,1-4,9-10H2,(H,11,12)(H,13,14)
INCHIAUX=N/A
PUBMED=N/A
SUBMITUSER=mwang87
TAGS=
LIBRARYQUALITY=3
SPECTRUMID=CCMSLIB00000427040
SCANS=2012
87.0 100.0 
88.0 76.637 
89.0 94.219 
90.0 86.044 
END IONS

BEGIN IONS
PEPMASS=197.066
CHARGE=1+
MSLEVEL=2
SOURCE_INSTRUMENT=Positive-Quattro_QQQ:10eV
FILENAME=hmdb_intermediate.mgf
SEQ=*..*
IONMODE=Positive
ORGANISM=HMDB
NAME=HMDB:HMDB03290-2230 Gulonic acid M+H
PI=HMDB
DATACOLLECTOR=HMDB
SMILES=OC[C@@H](O)[C@H](O)[C@@H](O)[C@@H](O)C(O)=O
INCHI=InChI=1S/C6H12O7/c7-1-2(8)3(9)4(10)5(11)6(12)13/h2-5,7-11H,1H2,(H,12,13)/t2-,3+,4-,5-/m1/s1
INCHIAUX=N/A
PUBMED=N/A
SUBMITUSER=mwang87
TAGS=
LIBRARYQUALITY=3
SPECTRUMID=CCMSLIB00000427041
SCANS=2013
197.0 100.0 
END IONS

BEGIN IONS
PEPMASS=142.098
CHARGE=1+
MSLEVEL=2
SOURCE_INSTRUMENT=Positive-Quattro_QQQ:25eV
FILENAME=hmdb_intermediate.mgf
SEQ=*..*
IONMODE=Positive
ORGANISM=HMDB
NAME=HMDB:HMDB03431-2308 L-Histidinol M+H
PI=HMDB
DATACOLLECTOR=HMDB
SMILES=N[C@H](CO)CC1=CN=CN1
INCHI=InChI=1S/C6H11N3O/c7-5(3-10)1-6-2-8-4-9-6/h2,4-5,10H,1,3,7H2,(H,8,9)/t5-/m0/s1
INCHIAUX=N/A
PUBMED=N/A
SUBMITUSER=mwang87
TAGS=
LIBRARYQUALITY=3
SPECTRUMID=CCMSLIB00000427042
SCANS=2014
81.0 100.0 
END IONS

BEGIN IONS
PEPMASS=162.092
CHARGE=1+
MSLEVEL=2
SOURCE_INSTRUMENT=Positive-Quattro_QQQ:25eV
FILENAME=hmdb_intermediate.mgf
SEQ=*..*
IONMODE=Positive
ORGANISM=HMDB
NAME=HMDB:HMDB03447-2314 Tryptophanol M+H
PI=HMDB
DATACOLLECTOR=HMDB
SMILES=OCCC1=CNC2=CC=CC=C12
INCHI=InChI=1S/C10H11NO/c12-6-5-8-7-11-10-4-2-1-3-9(8)10/h1-4,7,11-12H,5-6H2
INCHIAUX=N/A
PUBMED=N/A
SUBMITUSER=mwang87
TAGS=
LIBRARYQUALITY=3
SPECTRUMID=CCMSLIB00000427043
SCANS=2015
117.0 69.726 
143.0 100.0 
144.0 67.463 
END IONS

BEGIN IONS
PEPMASS=72.9926
CHARGE=1+
MSLEVEL=2
SOURCE_INSTRUMENT=Negative-Quattro_QQQ:40eV
FILENAME=hmdb_intermediate.mgf
SEQ=*..*
IONMODE=Negative
ORGANISM=HMDB
NAME=HMDB:HMDB00119-173 Glyoxylic acid M-H
PI=HMDB
DATACOLLECTOR=HMDB
SMILES=OC(=O)C=O
INCHI=InChI=1S/C2H2O3/c3-1-2(4)5/h1H,(H,4,5)
INCHIAUX=N/A
PUBMED=N/A
SUBMITUSER=mwang87
TAGS=
LIBRARYQUALITY=3
SPECTRUMID=CCMSLIB00000427044
SCANS=2016
72.907 100.0 
END IONS

BEGIN IONS
PEPMASS=195.077
CHARGE=1+
MSLEVEL=2
SOURCE_INSTRUMENT=Positive-Quattro_QQQ:10eV
FILENAME=hmdb_intermediate.mgf
SEQ=*..*
IONMODE=Positive
ORGANISM=HMDB
NAME=HMDB:HMDB01867-1750 4-Aminohippuric acid M+H
PI=HMDB
DATACOLLECTOR=HMDB
SMILES=NC1=CC=C(C=C1)C(=O)NCC(O)=O
INCHI=InChI=1S/C9H10N2O3/c10-7-3-1-6(2-4-7)9(14)11-5-8(12)13/h1-4H,5,10H2,(H,11,14)(H,12,13)
INCHIAUX=N/A
PUBMED=N/A
SUBMITUSER=mwang87
TAGS=
LIBRARYQUALITY=3
SPECTRUMID=CCMSLIB00000427045
SCANS=2017
138.731 80.899 
153.413 73.16 
194.953 100.0 
END IONS

BEGIN IONS
PEPMASS=174.92
CHARGE=1+
MSLEVEL=2
SOURCE_INSTRUMENT=Positive-Quattro_QQQ:25eV
FILENAME=hmdb_intermediate.mgf
SEQ=*..*
IONMODE=Positive
ORGANISM=HMDB
NAME=HMDB:HMDB00250-428 Pyrophosphate M+H
PI=HMDB
DATACOLLECTOR=HMDB
SMILES=[O-]P([O-])(=O)OP([O-])([O-])=O
INCHI=InChI=1S/H4O7P2/c1-8(2,3)7-9(4,5)6/h(H2,1,2,3)(H2,4,5,6)/p-4
INCHIAUX=N/A
PUBMED=N/A
SUBMITUSER=mwang87
TAGS=
LIBRARYQUALITY=3
SPECTRUMID=CCMSLIB00000427046
SCANS=2018
99.0 100.0 
END IONS

BEGIN IONS
PEPMASS=1347.58
CHARGE=1+
MSLEVEL=2
SOURCE_INSTRUMENT=Positive-Quattro_QQQ:25eV
FILENAME=hmdb_intermediate.mgf
SEQ=*..*
IONMODE=Positive
ORGANISM=HMDB
NAME=HMDB:HMDB02308-2053 Hydroxycobalamin M+H
PI=HMDB
DATACOLLECTOR=HMDB
SMILES=[Co++].O.OC[C@H]1O[C@@]([H])([C@H](O)[C@]1([H])OP(=O)([O-])O[C@H](C)CNC(=O)CC[C@]1(C)[C@@H](CC(=O)N)[C@@]2([H])[N-]\C1=C(C)/C1=N/C(=C\C3=N\C(=C(C)/C4=N[C@]2(C)[C@@](C)(CC(=O)N)[C@@H]4CCC(=O)N)\[C@@](C)(CC(=O)N)[C@@H]3CCC(=O)N)/C(C)(C)[C@@H]1CCC(=O)N)N1C=NC2=C1C=C(C)C(C)=C2
INCHI=InChI=1S/C62H90N13O14P.Co.H2O/c1-29-20-39-40(21-30(29)2)75(28-70-39)57-52(84)53(41(27-76)87-57)89-90(85,86)88-31(3)26-69-49(83)18-19-59(8)37(22-46(66)80)56-62(11)61(10,25-48(68)82)36(14-17-45(65)79)51(74-62)33(5)55-60(9,24-47(67)81)34(12-15-43(63)77)38(71-55)23-42-58(6,7)35(13-16-44(64)78)50(72-42)32(4)54(59)73-56;;/h20-21,23,28,31,34-37,41,52-53,56-57,76,84H,12-19,22,24-27H2,1-11H3,(H15,63,64,65,66,67,68,69,71,72,73,74,77,78,79,80,81,82,83,85,86);;1H2/q;+2;/p-2/t31-,34-,35-,36-,37+,41-,52-,53-,56-,57+,59-,60+,61+,62+;;/m1../s1
INCHIAUX=N/A
PUBMED=N/A
SUBMITUSER=mwang87
TAGS=
LIBRARYQUALITY=3
SPECTRUMID=CCMSLIB00000427047
SCANS=2019
989.0 100.0 
990.0 51.755 
1201.0 58.465 
1202.0 64.509 
END IONS

BEGIN IONS
PEPMASS=302.306
CHARGE=1+
MSLEVEL=2
SOURCE_INSTRUMENT=Positive-Quattro_QQQ:40eV
FILENAME=hmdb_intermediate.mgf
SEQ=*..*
IONMODE=Positive
ORGANISM=HMDB
NAME=HMDB:HMDB00269-471 Sphinganine M+H
PI=HMDB
DATACOLLECTOR=HMDB
SMILES=CCCCCCCCCCCCCCC[C@@H](O)[C@@H](N)CO
INCHI=InChI=1S/C18H39NO2/c1-2-3-4-5-6-7-8-9-10-11-12-13-14-15-18(21)17(19)16-20/h17-18,20-21H,2-16,19H2,1H3/t17-,18+/m0/s1
INCHIAUX=N/A
PUBMED=N/A
SUBMITUSER=mwang87
TAGS=
LIBRARYQUALITY=3
SPECTRUMID=CCMSLIB00000427048
SCANS=2020
55.285 69.2 
55.538 100.0 
60.217 91.873 
60.723 68.742 
END IONS

BEGIN IONS
PEPMASS=87.0446
CHARGE=1+
MSLEVEL=2
SOURCE_INSTRUMENT=Negative-Quattro_QQQ:40eV
FILENAME=hmdb_intermediate.mgf
SEQ=*..*
IONMODE=Negative
ORGANISM=HMDB
NAME=HMDB:HMDB00039-68 Butyric acid M-H
PI=HMDB
DATACOLLECTOR=HMDB
SMILES=CCCC(O)=O
INCHI=InChI=1S/C4H8O2/c1-2-3-4(5)6/h2-3H2,1H3,(H,5,6)
INCHIAUX=N/A
PUBMED=N/A
SUBMITUSER=mwang87
TAGS=
LIBRARYQUALITY=3
SPECTRUMID=CCMSLIB00000427049
SCANS=2021
87.123 100.0 
END IONS

BEGIN IONS
PEPMASS=147.029
CHARGE=1+
MSLEVEL=2
SOURCE_INSTRUMENT=Negative-Quattro_QQQ:40eV
FILENAME=hmdb_intermediate.mgf
SEQ=*..*
IONMODE=Negative
ORGANISM=HMDB
NAME=HMDB:HMDB00426-631 Citramalic acid M-H
PI=HMDB
DATACOLLECTOR=HMDB
SMILES=CC(O)(CC(O)=O)C(O)=O
INCHI=InChI=1S/C5H8O5/c1-5(10,4(8)9)2-3(6)7/h10H,2H2,1H3,(H,6,7)(H,8,9)
INCHIAUX=N/A
PUBMED=N/A
SUBMITUSER=mwang87
TAGS=
LIBRARYQUALITY=3
SPECTRUMID=CCMSLIB00000427050
SCANS=2022
41.606 100.0 
57.436 63.021 
END IONS

BEGIN IONS
PEPMASS=115.076
CHARGE=1+
MSLEVEL=2
SOURCE_INSTRUMENT=Positive-Quattro_QQQ:10eV
FILENAME=hmdb_intermediate.mgf
SEQ=*..*
IONMODE=Positive
ORGANISM=HMDB
NAME=HMDB:HMDB03843-2346 Gamma-Caprolactone M+H
PI=HMDB
DATACOLLECTOR=HMDB
SMILES=CCC1CCC(=O)O1
INCHI=InChI=1S/C6H10O2/c1-2-5-3-4-6(7)8-5/h5H,2-4H2,1H3
INCHIAUX=N/A
PUBMED=N/A
SUBMITUSER=mwang87
TAGS=
LIBRARYQUALITY=3
SPECTRUMID=CCMSLIB00000427051
SCANS=2023
42.24 57.797 
84.82 55.874 
113.75 100.0 
END IONS

BEGIN IONS
PEPMASS=184.097
CHARGE=1+
MSLEVEL=2
SOURCE_INSTRUMENT=Positive-Quattro_QQQ:40eV
FILENAME=hmdb_intermediate.mgf
SEQ=*..*
IONMODE=Positive
ORGANISM=HMDB
NAME=HMDB:HMDB00819-1166 Normetanephrine M+H
PI=HMDB
DATACOLLECTOR=HMDB
SMILES=COC1=CC(=CC=C1O)C(O)CN
INCHI=InChI=1S/C9H13NO3/c1-13-9-4-6(8(12)5-10)2-3-7(9)11/h2-4,8,11-12H,5,10H2,1H3
INCHIAUX=N/A
PUBMED=N/A
SUBMITUSER=mwang87
TAGS=
LIBRARYQUALITY=3
SPECTRUMID=CCMSLIB00000427052
SCANS=2024
77.158 100.0 
78.985 92.357 
END IONS

BEGIN IONS
PEPMASS=229.144
CHARGE=1+
MSLEVEL=2
SOURCE_INSTRUMENT=Negative-Quattro_QQQ:40eV
FILENAME=hmdb_intermediate.mgf
SEQ=*..*
IONMODE=Negative
ORGANISM=HMDB
NAME=HMDB:HMDB00623-848 Dodecanedioic acid M-H
PI=HMDB
DATACOLLECTOR=HMDB
SMILES=OC(=O)CCCCCCCCCCC(O)=O
INCHI=InChI=1S/C12H22O4/c13-11(14)9-7-5-3-1-2-4-6-8-10-12(15)16/h1-10H2,(H,13,14)(H,15,16)
INCHIAUX=N/A
PUBMED=N/A
SUBMITUSER=mwang87
TAGS=
LIBRARYQUALITY=3
SPECTRUMID=CCMSLIB00000427053
SCANS=2025
54.469 71.875 
211.274 100.0 
229.291 66.875 
END IONS

BEGIN IONS
PEPMASS=112.937
CHARGE=1+
MSLEVEL=2
SOURCE_INSTRUMENT=Positive-Quattro_QQQ:10eV
FILENAME=hmdb_intermediate.mgf
SEQ=*..*
IONMODE=Positive
ORGANISM=HMDB
NAME=HMDB:HMDB00257-445 Thiosulfate M+H
PI=HMDB
DATACOLLECTOR=HMDB
SMILES=[O-]S([S-])(=O)=O
INCHI=InChI=1S/H2O3S2/c1-5(2,3)4/h(H2,1,2,3,4)/p-2
INCHIAUX=N/A
PUBMED=N/A
SUBMITUSER=mwang87
TAGS=
LIBRARYQUALITY=3
SPECTRUMID=CCMSLIB00000427054
SCANS=2026
70.265 62.216 
72.15 100.0 
72.778 65.339 
83.334 57.736 
96.152 60.513 
113.118 75.218 
END IONS

BEGIN IONS
PEPMASS=190.072
CHARGE=1+
MSLEVEL=2
SOURCE_INSTRUMENT=Positive-Quattro_QQQ:25eV
FILENAME=hmdb_intermediate.mgf
SEQ=*..*
IONMODE=Positive
ORGANISM=HMDB
NAME=HMDB:HMDB01138-1431 N-Acetylglutamic acid M+H
PI=HMDB
DATACOLLECTOR=HMDB
SMILES=CC(=O)NC(CCC(O)=O)C(O)=O
INCHI=InChI=1S/C7H11NO5/c1-4(9)8-5(7(12)13)2-3-6(10)11/h5H,2-3H2,1H3,(H,8,9)(H,10,11)(H,12,13)
INCHIAUX=N/A
PUBMED=N/A
SUBMITUSER=mwang87
TAGS=
LIBRARYQUALITY=3
SPECTRUMID=CCMSLIB00000427055
SCANS=2027
84.128 100.0 
84.757 61.229 
END IONS

BEGIN IONS
PEPMASS=181.073
CHARGE=1+
MSLEVEL=2
SOURCE_INSTRUMENT=Positive-Quattro_QQQ:10eV
FILENAME=hmdb_intermediate.mgf
SEQ=*..*
IONMODE=Positive
ORGANISM=HMDB
NAME=HMDB:HMDB02825-2143 Theobromine M+H
PI=HMDB
DATACOLLECTOR=HMDB
SMILES=CN1C=NC2=C1C(=O)NC(=O)N2C
INCHI=InChI=1S/C7H8N4O2/c1-10-3-8-5-4(10)6(12)9-7(13)11(5)2/h3H,1-2H3,(H,9,12,13)
INCHIAUX=N/A
PUBMED=N/A
SUBMITUSER=mwang87
TAGS=
LIBRARYQUALITY=3
SPECTRUMID=CCMSLIB00000427056
SCANS=2028
180.838 100.0 
END IONS

BEGIN IONS
PEPMASS=140.995
CHARGE=1+
MSLEVEL=2
SOURCE_INSTRUMENT=Positive-Quattro_QQQ:25eV
FILENAME=hmdb_intermediate.mgf
SEQ=*..*
IONMODE=Positive
ORGANISM=HMDB
NAME=HMDB:HMDB04110-2365 Phosphonoacetate M+H
PI=HMDB
DATACOLLECTOR=HMDB
SMILES=OC(=O)CP(O)(O)=O
INCHI=InChI=1S/C2H5O5P/c3-2(4)1-8(5,6)7/h1H2,(H,3,4)(H2,5,6,7)
INCHIAUX=N/A
PUBMED=N/A
SUBMITUSER=mwang87
TAGS=
LIBRARYQUALITY=3
SPECTRUMID=CCMSLIB00000427057
SCANS=2029
81.0 90.976 
105.0 100.0 
END IONS

BEGIN IONS
PEPMASS=103.04
CHARGE=1+
MSLEVEL=2
SOURCE_INSTRUMENT=Negative-Quattro_QQQ:25eV
FILENAME=hmdb_intermediate.mgf
SEQ=*..*
IONMODE=Negative
ORGANISM=HMDB
NAME=HMDB:HMDB00023-43 (S)-3-Hydroxyisobutyric acid M-H
PI=HMDB
DATACOLLECTOR=HMDB
SMILES=C[C@@H](CO)C(O)=O
INCHI=InChI=1S/C4H8O3/c1-3(2-5)4(6)7/h3,5H,2H2,1H3,(H,6,7)/t3-/m0/s1
INCHIAUX=N/A
PUBMED=N/A
SUBMITUSER=mwang87
TAGS=
LIBRARYQUALITY=3
SPECTRUMID=CCMSLIB00000427058
SCANS=2030
57.469 100.0 
END IONS

BEGIN IONS
PEPMASS=403.358
CHARGE=1+
MSLEVEL=2
SOURCE_INSTRUMENT=Positive-Quattro_QQQ:40eV
FILENAME=hmdb_intermediate.mgf
SEQ=*..*
IONMODE=Positive
ORGANISM=HMDB
NAME=HMDB:HMDB02902-2159 Delta-Tocopherol M+H
PI=HMDB
DATACOLLECTOR=HMDB
SMILES=CC(C)CCC[C@@H](C)CCC[C@@H](C)CCC[C@]1(C)CCC2=C(O1)C(C)=CC(O)=C2
INCHI=InChI=1S/C27H46O2/c1-20(2)10-7-11-21(3)12-8-13-22(4)14-9-16-27(6)17-15-24-19-25(28)18-23(5)26(24)29-27/h18-22,28H,7-17H2,1-6H3/t21-,22-,27-/m1/s1
INCHIAUX=N/A
PUBMED=N/A
SUBMITUSER=mwang87
TAGS=
LIBRARYQUALITY=3
SPECTRUMID=CCMSLIB00000427059
SCANS=2031
136.0 100.0 
END IONS

BEGIN IONS
PEPMASS=178.05
CHARGE=1+
MSLEVEL=2
SOURCE_INSTRUMENT=Negative-Quattro_QQQ:25eV
FILENAME=hmdb_intermediate.mgf
SEQ=*..*
IONMODE=Negative
ORGANISM=HMDB
NAME=HMDB:HMDB00714-997 Hippuric acid M-H
PI=HMDB
DATACOLLECTOR=HMDB
SMILES=OC(=O)CNC(=O)C1=CC=CC=C1
INCHI=InChI=1S/C9H9NO3/c11-8(12)6-10-9(13)7-4-2-1-3-5-7/h1-5H,6H2,(H,10,13)(H,11,12)
INCHIAUX=N/A
PUBMED=N/A
SUBMITUSER=mwang87
TAGS=
LIBRARYQUALITY=3
SPECTRUMID=CCMSLIB00000427060
SCANS=2032
77.092 100.0 
END IONS

BEGIN IONS
PEPMASS=136.043
CHARGE=1+
MSLEVEL=2
SOURCE_INSTRUMENT=Positive-Quattro_QQQ:40eV
FILENAME=hmdb_intermediate.mgf
SEQ=*..*
IONMODE=Positive
ORGANISM=HMDB
NAME=HMDB:HMDB02108-2009 Methylcysteine M+H
PI=HMDB
DATACOLLECTOR=HMDB
SMILES=CSC[C@H](N)C(O)=O
INCHI=InChI=1S/C4H9NO2S/c1-8-2-3(5)4(6)7/h3H,2,5H2,1H3,(H,6,7)/t3-/m0/s1
INCHIAUX=N/A
PUBMED=N/A
SUBMITUSER=mwang87
TAGS=
LIBRARYQUALITY=3
SPECTRUMID=CCMSLIB00000427061
SCANS=2033
61.0 72.697 
73.0 87.775 
74.0 100.0 
75.0 96.655 
77.0 88.561 
END IONS

BEGIN IONS
PEPMASS=257.175
CHARGE=1+
MSLEVEL=2
SOURCE_INSTRUMENT=Negative-Quattro_QQQ:40eV
FILENAME=hmdb_intermediate.mgf
SEQ=*..*
IONMODE=Negative
ORGANISM=HMDB
NAME=HMDB:HMDB00872-1231 Tetradecanedioic acid M-H
PI=HMDB
DATACOLLECTOR=HMDB
SMILES=OC(=O)CCCCCCCCCCCCC(O)=O
INCHI=InChI=1S/C14H26O4/c15-13(16)11-9-7-5-3-1-2-4-6-8-10-12-14(17)18/h1-12H2,(H,15,16)(H,17,18)
INCHIAUX=N/A
PUBMED=N/A
SUBMITUSER=mwang87
TAGS=
LIBRARYQUALITY=3
SPECTRUMID=CCMSLIB00000427062
SCANS=2034
57.245 51.799 
239.087 100.0 
257.142 60.432 
END IONS

BEGIN IONS
PEPMASS=289.18
CHARGE=1+
MSLEVEL=2
SOURCE_INSTRUMENT=Positive-Quattro_QQQ:40eV
FILENAME=hmdb_intermediate.mgf
SEQ=*..*
IONMODE=Positive
ORGANISM=HMDB
NAME=HMDB:HMDB00153-238 Estriol M+H
PI=HMDB
DATACOLLECTOR=HMDB
SMILES=[H][C@@]12C[C@@H](O)[C@H](O)[C@@]1(C)CC[C@]1([H])C3=C(CC[C@@]21[H])C=C(O)C=C3
INCHI=InChI=1S/C18H24O3/c1-18-7-6-13-12-5-3-11(19)8-10(12)2-4-14(13)15(18)9-16(20)17(18)21/h3,5,8,13-17,19-21H,2,4,6-7,9H2,1H3/t13-,14-,15+,16-,17+,18+/m1/s1
INCHIAUX=N/A
PUBMED=N/A
SUBMITUSER=mwang87
TAGS=
LIBRARYQUALITY=3
SPECTRUMID=CCMSLIB00000427063
SCANS=2035
107.199 100.0 
END IONS

BEGIN IONS
PEPMASS=32.05
CHARGE=1+
MSLEVEL=2
SOURCE_INSTRUMENT=Positive-Quattro_QQQ:25eV
FILENAME=hmdb_intermediate.mgf
SEQ=*..*
IONMODE=Positive
ORGANISM=HMDB
NAME=HMDB:HMDB00164-261 Methylamine M+H
PI=HMDB
DATACOLLECTOR=HMDB
SMILES=CN
INCHI=InChI=1S/CH5N/c1-2/h2H2,1H3
INCHIAUX=N/A
PUBMED=N/A
SUBMITUSER=mwang87
TAGS=
LIBRARYQUALITY=3
SPECTRUMID=CCMSLIB00000427064
SCANS=2036
32.0 100.0 
33.0 50.012 
END IONS

BEGIN IONS
PEPMASS=194.082
CHARGE=1+
MSLEVEL=2
SOURCE_INSTRUMENT=Positive-Quattro_QQQ:25eV
FILENAME=hmdb_intermediate.mgf
SEQ=*..*
IONMODE=Positive
ORGANISM=HMDB
NAME=HMDB:HMDB00859-1212 Methylhippuric acid M+H
PI=HMDB
DATACOLLECTOR=HMDB
SMILES=COC(=O)CNC(=O)C1=CC=CC=C1
INCHI=InChI=1S/C10H11NO3/c1-14-9(12)7-11-10(13)8-5-3-2-4-6-8/h2-6H,7H2,1H3,(H,11,13)
INCHIAUX=N/A
PUBMED=N/A
SUBMITUSER=mwang87
TAGS=
LIBRARYQUALITY=3
SPECTRUMID=CCMSLIB00000427065
SCANS=2037
77.439 69.246 
77.565 60.979 
105.13 100.0 
105.506 74.493 
END IONS

BEGIN IONS
PEPMASS=117.055
CHARGE=1+
MSLEVEL=2
SOURCE_INSTRUMENT=Negative-Quattro_QQQ:40eV
FILENAME=hmdb_intermediate.mgf
SEQ=*..*
IONMODE=Negative
ORGANISM=HMDB
NAME=HMDB:HMDB00407-620 2-Hydroxy-3-methylbutyric acid M-H
PI=HMDB
DATACOLLECTOR=HMDB
SMILES=CC(C)C(O)C(O)=O
INCHI=InChI=1S/C5H10O3/c1-3(2)4(6)5(7)8/h3-4,6H,1-2H3,(H,7,8)
INCHIAUX=N/A
PUBMED=N/A
SUBMITUSER=mwang87
TAGS=
LIBRARYQUALITY=3
SPECTRUMID=CCMSLIB00000427066
SCANS=2038
45.474 100.0 
117.262 53.929 
END IONS

BEGIN IONS
PEPMASS=166.054
CHARGE=1+
MSLEVEL=2
SOURCE_INSTRUMENT=Positive-Quattro_QQQ:10eV
FILENAME=hmdb_intermediate.mgf
SEQ=*..*
IONMODE=Positive
ORGANISM=HMDB
NAME=HMDB:HMDB02005-1941 Methionine sulfoxide M+H
PI=HMDB
DATACOLLECTOR=HMDB
SMILES=CS(=O)CCC(N)C(O)=O
INCHI=InChI=1S/C5H11NO3S/c1-10(9)3-2-4(6)5(7)8/h4H,2-3,6H2,1H3,(H,7,8)
INCHIAUX=N/A
PUBMED=N/A
SUBMITUSER=mwang87
TAGS=
LIBRARYQUALITY=3
SPECTRUMID=CCMSLIB00000427067
SCANS=2039
74.0 100.0 
END IONS

BEGIN IONS
PEPMASS=251.07
CHARGE=1+
MSLEVEL=2
SOURCE_INSTRUMENT=Positive-Quattro_QQQ:40eV
FILENAME=hmdb_intermediate.mgf
SEQ=*..*
IONMODE=Positive
ORGANISM=HMDB
NAME=HMDB:HMDB01049-1402 Gamma-Glutamylcysteine M+H
PI=HMDB
DATACOLLECTOR=HMDB
SMILES=N[C@@H](CCC(=O)N[C@@H](CS)C(O)=O)C(O)=O
INCHI=InChI=1S/C8H14N2O5S/c9-4(7(12)13)1-2-6(11)10-5(3-16)8(14)15/h4-5,16H,1-3,9H2,(H,10,11)(H,12,13)(H,14,15)/t4-,5-/m0/s1
INCHIAUX=N/A
PUBMED=N/A
SUBMITUSER=mwang87
TAGS=
LIBRARYQUALITY=3
SPECTRUMID=CCMSLIB00000427068
SCANS=2040
83.97 66.02 
250.72 100.0 
END IONS

BEGIN IONS
PEPMASS=365.233
CHARGE=1+
MSLEVEL=2
SOURCE_INSTRUMENT=Positive-Quattro_QQQ:10eV
FILENAME=hmdb_intermediate.mgf
SEQ=*..*
IONMODE=Positive
ORGANISM=HMDB
NAME=HMDB:HMDB00903-1283 Tetrahydrocortisone M+H
PI=HMDB
DATACOLLECTOR=HMDB
SMILES=[H][C@@]12CC[C@](O)(C(=O)CO)[C@@]1(C)CC(=O)[C@@]1([H])[C@@]2([H])CC[C@@]2([H])C[C@@H](O)CC[C@]12C
INCHI=InChI=1S/C21H32O5/c1-19-7-5-13(23)9-12(19)3-4-14-15-6-8-21(26,17(25)11-22)20(15,2)10-16(24)18(14)19/h12-15,18,22-23,26H,3-11H2,1-2H3/t12-,13-,14-,15-,18+,19-,20-,21-/m0/s1
INCHIAUX=N/A
PUBMED=N/A
SUBMITUSER=mwang87
TAGS=
LIBRARYQUALITY=3
SPECTRUMID=CCMSLIB00000427069
SCANS=2041
329.25 53.614 
347.271 100.0 
END IONS

BEGIN IONS
PEPMASS=246.171
CHARGE=1+
MSLEVEL=2
SOURCE_INSTRUMENT=Positive-Quattro_QQQ:10eV
FILENAME=hmdb_intermediate.mgf
SEQ=*..*
IONMODE=Positive
ORGANISM=HMDB
NAME=HMDB:HMDB00688-954 Isovalerylcarnitine M+H
PI=HMDB
DATACOLLECTOR=HMDB
SMILES=CC(C)CC(=O)OC(CC([O-])=O)C[N+](C)(C)C
INCHI=InChI=1S/C12H23NO4/c1-9(2)6-12(16)17-10(7-11(14)15)8-13(3,4)5/h9-10H,6-8H2,1-5H3
INCHIAUX=N/A
PUBMED=N/A
SUBMITUSER=mwang87
TAGS=
LIBRARYQUALITY=3
SPECTRUMID=CCMSLIB00000427070
SCANS=2042
85.12 92.941 
246.122 100.0 
END IONS

BEGIN IONS
PEPMASS=233.129
CHARGE=1+
MSLEVEL=2
SOURCE_INSTRUMENT=Positive-Quattro_QQQ:40eV
FILENAME=hmdb_intermediate.mgf
SEQ=*..*
IONMODE=Positive
ORGANISM=HMDB
NAME=HMDB:HMDB01389-1549 Melatonin M+H
PI=HMDB
DATACOLLECTOR=HMDB
SMILES=COC1=CC2=C(NC=C2CCNC(C)=O)C=C1
INCHI=InChI=1S/C13H16N2O2/c1-9(16)14-6-5-10-8-15-13-4-3-11(17-2)7-12(10)13/h3-4,7-8,15H,5-6H2,1-2H3,(H,14,16)
INCHIAUX=N/A
PUBMED=N/A
SUBMITUSER=mwang87
TAGS=
LIBRARYQUALITY=3
SPECTRUMID=CCMSLIB00000427071
SCANS=2043
129.0 100.0 
130.0 84.642 
END IONS

BEGIN IONS
PEPMASS=238.094
CHARGE=1+
MSLEVEL=2
SOURCE_INSTRUMENT=Positive-Quattro_QQQ:40eV
FILENAME=hmdb_intermediate.mgf
SEQ=*..*
IONMODE=Positive
ORGANISM=HMDB
NAME=HMDB:HMDB00468-682 Biopterin M+H
PI=HMDB
DATACOLLECTOR=HMDB
SMILES=C[C@H](O)[C@H](O)C1=NC2=C(NC(N)=NC2=O)N=C1
INCHI=InChI=1S/C9H11N5O3/c1-3(15)6(16)4-2-11-7-5(12-4)8(17)14-9(10)13-7/h2-3,6,15-16H,1H3,(H3,10,11,13,14,17)/t3-,6-/m0/s1
INCHIAUX=N/A
PUBMED=N/A
SUBMITUSER=mwang87
TAGS=
LIBRARYQUALITY=3
SPECTRUMID=CCMSLIB00000427072
SCANS=2044
78.125 50.481 
80.069 100.0 
94.231 56.25 
105.114 80.288 
107.215 74.519 
121.971 69.712 
146.948 54.808 
END IONS

BEGIN IONS
PEPMASS=516.299
CHARGE=1+
MSLEVEL=2
SOURCE_INSTRUMENT=Positive-Quattro_QQQ:40eV
FILENAME=hmdb_intermediate.mgf
SEQ=*..*
IONMODE=Positive
ORGANISM=HMDB
NAME=HMDB:HMDB00036-62 Taurocholic acid M+H
PI=HMDB
DATACOLLECTOR=HMDB
SMILES=[H][C@@]12C[C@H](O)CCC1(C)C1C[C@H](O)C3(C)C(CCC3C1[C@H](O)C2)C(C)CCC(=O)NCCS(O)(=O)=O
INCHI=InChI=1S/C26H45NO7S/c1-15(4-7-23(31)27-10-11-35(32,33)34)18-5-6-19-24-20(14-22(30)26(18,19)3)25(2)9-8-17(28)12-16(25)13-21(24)29/h15-22,24,28-30H,4-14H2,1-3H3,(H,27,31)(H,32,33,34)/t15?,16-,17+,18?,19?,20?,21+,22-,24?,25?,26?/m0/s1
INCHIAUX=N/A
PUBMED=N/A
SUBMITUSER=mwang87
TAGS=
LIBRARYQUALITY=3
SPECTRUMID=CCMSLIB00000427073
SCANS=2045
125.48 69.698 
125.58 100.0 
END IONS

BEGIN IONS
PEPMASS=198.003
CHARGE=1+
MSLEVEL=2
SOURCE_INSTRUMENT=Positive-Quattro_QQQ:40eV
FILENAME=hmdb_intermediate.mgf
SEQ=*..*
IONMODE=Positive
ORGANISM=HMDB
NAME=HMDB:HMDB03966-2354 Selenomethionine M+H
PI=HMDB
DATACOLLECTOR=HMDB
SMILES=C[Se]CCC(N)C(O)=O
INCHI=InChI=1S/C5H11NO2Se/c1-9-3-2-4(6)5(7)8/h4H,2-3,6H2,1H3,(H,7,8)
INCHIAUX=N/A
PUBMED=N/A
SUBMITUSER=mwang87
TAGS=
LIBRARYQUALITY=3
SPECTRUMID=CCMSLIB00000427074
SCANS=2046
56.0 100.0 
109.0 52.252 
END IONS

BEGIN IONS
PEPMASS=121.051
CHARGE=1+
MSLEVEL=2
SOURCE_INSTRUMENT=Positive-Quattro_QQQ:40eV
FILENAME=hmdb_intermediate.mgf
SEQ=*..*
IONMODE=Positive
ORGANISM=HMDB
NAME=HMDB:HMDB01366-1533 Purine M+H
PI=HMDB
DATACOLLECTOR=HMDB
SMILES=N1C=NC2=C1C=NC=N2
INCHI=InChI=1S/C5H4N4/c1-4-5(8-2-6-1)9-3-7-4/h1-3H,(H,6,7,8,9)
INCHIAUX=N/A
PUBMED=N/A
SUBMITUSER=mwang87
TAGS=
LIBRARYQUALITY=3
SPECTRUMID=CCMSLIB00000427075
SCANS=2047
67.103 100.0 
END IONS

BEGIN IONS
PEPMASS=243.16
CHARGE=1+
MSLEVEL=2
SOURCE_INSTRUMENT=Negative-Quattro_QQQ:40eV
FILENAME=hmdb_intermediate.mgf
SEQ=*..*
IONMODE=Negative
ORGANISM=HMDB
NAME=HMDB:HMDB02327-2060 1,11-Undecanedicarboxylic acid M-H
PI=HMDB
DATACOLLECTOR=HMDB
SMILES=OC(=O)CCCCCCCCCCCC(O)=O
INCHI=InChI=1S/C13H24O4/c14-12(15)10-8-6-4-2-1-3-5-7-9-11-13(16)17/h1-11H2,(H,14,15)(H,16,17)
INCHIAUX=N/A
PUBMED=N/A
SUBMITUSER=mwang87
TAGS=
LIBRARYQUALITY=3
SPECTRUMID=CCMSLIB00000427076
SCANS=2048
53.0 100.0 
56.0 74.433 
57.0 68.676 
224.0 60.039 
END IONS

BEGIN IONS
PEPMASS=32.05
CHARGE=1+
MSLEVEL=2
SOURCE_INSTRUMENT=Positive-Quattro_QQQ:25eV
FILENAME=hmdb_intermediate.mgf
SEQ=*..*
IONMODE=Positive
ORGANISM=HMDB
NAME=HMDB:HMDB60291-261 Methylammonium M+H
PI=HMDB
DATACOLLECTOR=HMDB
SMILES=CN
INCHI=InChI=1S/CH5N/c1-2/h2H2,1H3
INCHIAUX=N/A
PUBMED=N/A
SUBMITUSER=mwang87
TAGS=
LIBRARYQUALITY=3
SPECTRUMID=CCMSLIB00000427077
SCANS=2049
32.0 100.0 
33.0 50.012 
END IONS

BEGIN IONS
PEPMASS=241.253
CHARGE=1+
MSLEVEL=2
SOURCE_INSTRUMENT=Negative-Quattro_QQQ:10eV
FILENAME=hmdb_intermediate.mgf
SEQ=*..*
IONMODE=Negative
ORGANISM=HMDB
NAME=HMDB:HMDB03424-2304 1-Hexadecanol M-H
PI=HMDB
DATACOLLECTOR=HMDB
SMILES=CCCCCCCCCCCCCCCCO
INCHI=InChI=1S/C16H34O/c1-2-3-4-5-6-7-8-9-10-11-12-13-14-15-16-17/h17H,2-16H2,1H3
INCHIAUX=N/A
PUBMED=N/A
SUBMITUSER=mwang87
TAGS=
LIBRARYQUALITY=3
SPECTRUMID=CCMSLIB00000427078
SCANS=2050
154.0 100.0 
END IONS

BEGIN IONS
PEPMASS=73.0653
CHARGE=1+
MSLEVEL=2
SOURCE_INSTRUMENT=Positive-Quattro_QQQ:25eV
FILENAME=hmdb_intermediate.mgf
SEQ=*..*
IONMODE=Positive
ORGANISM=HMDB
NAME=HMDB:HMDB00246-419 Tetrahydrofuran M+H
PI=HMDB
DATACOLLECTOR=HMDB
SMILES=C1CCOC1
INCHI=InChI=1S/C4H8O/c1-2-4-5-3-1/h1-4H2
INCHIAUX=N/A
PUBMED=N/A
SUBMITUSER=mwang87
TAGS=
LIBRARYQUALITY=3
SPECTRUMID=CCMSLIB00000427079
SCANS=2051
43.0 84.667 
45.0 83.895 
55.0 100.0 
73.0 74.039 
END IONS

BEGIN IONS
PEPMASS=77.0603
CHARGE=1+
MSLEVEL=2
SOURCE_INSTRUMENT=Positive-Quattro_QQQ:10eV
FILENAME=hmdb_intermediate.mgf
SEQ=*..*
IONMODE=Positive
ORGANISM=HMDB
NAME=HMDB:HMDB01881-1780 Propylene glycol M+H
PI=HMDB
DATACOLLECTOR=HMDB
SMILES=CC(O)CO
INCHI=InChI=1S/C3H8O2/c1-3(5)2-4/h3-5H,2H2,1H3
INCHIAUX=N/A
PUBMED=N/A
SUBMITUSER=mwang87
TAGS=
LIBRARYQUALITY=3
SPECTRUMID=CCMSLIB00000427080
SCANS=2052
19.759 75.106 
31.875 73.668 
59.074 100.0 
59.816 72.339 
76.384 74.441 
END IONS

BEGIN IONS
PEPMASS=60.98
CHARGE=1+
MSLEVEL=2
SOURCE_INSTRUMENT=Negative-Quattro_QQQ:40eV
FILENAME=hmdb_intermediate.mgf
SEQ=*..*
IONMODE=Negative
ORGANISM=HMDB
NAME=HMDB:HMDB02878-2154 Nitrate M-H
PI=HMDB
DATACOLLECTOR=HMDB
SMILES=[O-][N+]([O-])=O
INCHI=InChI=1S/NO3/c2-1(3)4/q-1
INCHIAUX=N/A
PUBMED=N/A
SUBMITUSER=mwang87
TAGS=
LIBRARYQUALITY=3
SPECTRUMID=CCMSLIB00000427081
SCANS=2053
61.0 100.0 
END IONS

BEGIN IONS
PEPMASS=165.076
CHARGE=1+
MSLEVEL=2
SOURCE_INSTRUMENT=Positive-Quattro_QQQ:10eV
FILENAME=hmdb_intermediate.mgf
SEQ=*..*
IONMODE=Positive
ORGANISM=HMDB
NAME=HMDB:HMDB00849-1199 Rhamnose M+H
PI=HMDB
DATACOLLECTOR=HMDB
SMILES=C[C@@H]1OC(O)[C@H](O)[C@H](O)[C@H]1O
INCHI=InChI=1S/C6H12O5/c1-2-3(7)4(8)5(9)6(10)11-2/h2-10H,1H3/t2-,3-,4+,5+,6?/m0/s1
INCHIAUX=N/A
PUBMED=N/A
SUBMITUSER=mwang87
TAGS=
LIBRARYQUALITY=3
SPECTRUMID=CCMSLIB00000427082
SCANS=2054
89.0 100.0 
END IONS

BEGIN IONS
PEPMASS=197.066
CHARGE=1+
MSLEVEL=2
SOURCE_INSTRUMENT=Positive-Quattro_QQQ:40eV
FILENAME=hmdb_intermediate.mgf
SEQ=*..*
IONMODE=Positive
ORGANISM=HMDB
NAME=HMDB:HMDB03290-2232 Gulonic acid M+H
PI=HMDB
DATACOLLECTOR=HMDB
SMILES=OC[C@@H](O)[C@H](O)[C@@H](O)[C@@H](O)C(O)=O
INCHI=InChI=1S/C6H12O7/c7-1-2(8)3(9)4(10)5(11)6(12)13/h2-5,7-11H,1H2,(H,12,13)/t2-,3+,4-,5-/m1/s1
INCHIAUX=N/A
PUBMED=N/A
SUBMITUSER=mwang87
TAGS=
LIBRARYQUALITY=3
SPECTRUMID=CCMSLIB00000427083
SCANS=2055
61.0 60.9517709035 
77.0 100.0 
END IONS

BEGIN IONS
PEPMASS=221.06
CHARGE=1+
MSLEVEL=2
SOURCE_INSTRUMENT=Negative-Quattro_QQQ:25eV
FILENAME=hmdb_intermediate.mgf
SEQ=*..*
IONMODE=Negative
ORGANISM=HMDB
NAME=HMDB:HMDB03075-2192 Flavone M-H
PI=HMDB
DATACOLLECTOR=HMDB
SMILES=O=C1C=C(OC2=CC=CC=C12)C1=CC=CC=C1
INCHI=InChI=1S/C15H10O2/c16-13-10-15(11-6-2-1-3-7-11)17-14-9-5-4-8-12(13)14/h1-10H
INCHIAUX=N/A
PUBMED=N/A
SUBMITUSER=mwang87
TAGS=
LIBRARYQUALITY=3
SPECTRUMID=CCMSLIB00000427084
SCANS=2056
100.0 100.0 
101.0 59.746 
END IONS

BEGIN IONS
PEPMASS=167.071
CHARGE=1+
MSLEVEL=2
SOURCE_INSTRUMENT=Positive-Quattro_QQQ:10eV
FILENAME=hmdb_intermediate.mgf
SEQ=*..*
IONMODE=Positive
ORGANISM=HMDB
NAME=HMDB:HMDB00748-1065 L-3-Phenyllactic acid M+H
PI=HMDB
DATACOLLECTOR=HMDB
SMILES=O[C@H](CC1=CC=CC=C1)C(O)=O
INCHI=InChI=1S/C9H10O3/c10-8(9(11)12)6-7-4-2-1-3-5-7/h1-5,8,10H,6H2,(H,11,12)/t8-/m1/s1
INCHIAUX=N/A
PUBMED=N/A
SUBMITUSER=mwang87
TAGS=
LIBRARYQUALITY=3
SPECTRUMID=CCMSLIB00000427085
SCANS=2057
124.405 53.715 
124.784 100.0 
125.542 82.512 
END IONS

BEGIN IONS
PEPMASS=151.076
CHARGE=1+
MSLEVEL=2
SOURCE_INSTRUMENT=Positive-Quattro_QQQ:40eV
FILENAME=hmdb_intermediate.mgf
SEQ=*..*
IONMODE=Positive
ORGANISM=HMDB
NAME=HMDB:HMDB00764-1100 Hydrocinnamic acid M+H
PI=HMDB
DATACOLLECTOR=HMDB
SMILES=OC(=O)CCC1=CC=CC=C1
INCHI=InChI=1S/C9H10O2/c10-9(11)7-6-8-4-2-1-3-5-8/h1-5H,6-7H2,(H,10,11)
INCHIAUX=N/A
PUBMED=N/A
SUBMITUSER=mwang87
TAGS=
LIBRARYQUALITY=3
SPECTRUMID=CCMSLIB00000427086
SCANS=2058
86.0 81.351 
90.0 100.0 
END IONS

BEGIN IONS
PEPMASS=299.295
CHARGE=1+
MSLEVEL=2
SOURCE_INSTRUMENT=Positive-Quattro_QQQ:40eV
FILENAME=hmdb_intermediate.mgf
SEQ=*..*
IONMODE=Positive
ORGANISM=HMDB
NAME=HMDB:HMDB00795-1134 Pristanic acid M+H
PI=HMDB
DATACOLLECTOR=HMDB
SMILES=CC(C)CCCC(C)CCCC(C)CCCC(C)C(O)=O
INCHI=InChI=1S/C19H38O2/c1-15(2)9-6-10-16(3)11-7-12-17(4)13-8-14-18(5)19(20)21/h15-18H,6-14H2,1-5H3,(H,20,21)
INCHIAUX=N/A
PUBMED=N/A
SUBMITUSER=mwang87
TAGS=
LIBRARYQUALITY=3
SPECTRUMID=CCMSLIB00000427087
SCANS=2059
172.971 100.0 
END IONS

BEGIN IONS
PEPMASS=167.034
CHARGE=1+
MSLEVEL=2
SOURCE_INSTRUMENT=Positive-Quattro_QQQ:10eV
FILENAME=hmdb_intermediate.mgf
SEQ=*..*
IONMODE=Positive
ORGANISM=HMDB
NAME=HMDB:HMDB02107-2004 Phthalic acid M+H
PI=HMDB
DATACOLLECTOR=HMDB
SMILES=OC(=O)C1=CC=CC=C1C(O)=O
INCHI=InChI=1S/C8H6O4/c9-7(10)5-3-1-2-4-6(5)8(11)12/h1-4H,(H,9,10)(H,11,12)
INCHIAUX=N/A
PUBMED=N/A
SUBMITUSER=mwang87
TAGS=
LIBRARYQUALITY=3
SPECTRUMID=CCMSLIB00000427088
SCANS=2060
149.0 100.0 
END IONS

BEGIN IONS
PEPMASS=161.108
CHARGE=1+
MSLEVEL=2
SOURCE_INSTRUMENT=Positive-Quattro_QQQ:10eV
FILENAME=hmdb_intermediate.mgf
SEQ=*..*
IONMODE=Positive
ORGANISM=HMDB
NAME=HMDB:HMDB60064-516 Tryptamine M+H
PI=HMDB
DATACOLLECTOR=HMDB
SMILES=NCCC1=CNC2=CC=CC=C12
INCHI=InChI=1S/C10H12N2/c11-6-5-8-7-12-10-4-2-1-3-9(8)10/h1-4,7,12H,5-6,11H2
INCHIAUX=N/A
PUBMED=N/A
SUBMITUSER=mwang87
TAGS=
LIBRARYQUALITY=3
SPECTRUMID=CCMSLIB00000427089
SCANS=2061
161.001 100.0 
END IONS

BEGIN IONS
PEPMASS=151.04
CHARGE=1+
MSLEVEL=2
SOURCE_INSTRUMENT=Positive-Quattro_QQQ:10eV
FILENAME=hmdb_intermediate.mgf
SEQ=*..*
IONMODE=Positive
ORGANISM=HMDB
NAME=HMDB:HMDB01587-1660 Phenylglyoxylic acid M+H
PI=HMDB
DATACOLLECTOR=HMDB
SMILES=OC(=O)C(=O)C1=CC=CC=C1
INCHI=InChI=1S/C8H6O3/c9-7(8(10)11)6-4-2-1-3-5-6/h1-5H,(H,10,11)
INCHIAUX=N/A
PUBMED=N/A
SUBMITUSER=mwang87
TAGS=
LIBRARYQUALITY=3
SPECTRUMID=CCMSLIB00000427090
SCANS=2062
105.0 94.83 
151.0 100.0 
END IONS

BEGIN IONS
PEPMASS=113.035
CHARGE=1+
MSLEVEL=2
SOURCE_INSTRUMENT=Positive-Quattro_QQQ:40eV
FILENAME=hmdb_intermediate.mgf
SEQ=*..*
IONMODE=Positive
ORGANISM=HMDB
NAME=HMDB:HMDB00300-512 Uracil M+H
PI=HMDB
DATACOLLECTOR=HMDB
SMILES=O=C1NC=CC(=O)N1
INCHI=InChI=1S/C4H4N2O2/c7-3-1-2-5-4(8)6-3/h1-2H,(H2,5,6,7,8)
INCHIAUX=N/A
PUBMED=N/A
SUBMITUSER=mwang87
TAGS=
LIBRARYQUALITY=3
SPECTRUMID=CCMSLIB00000427091
SCANS=2063
40.291 100.0 
44.177 51.446 
END IONS

BEGIN IONS
PEPMASS=195.066
CHARGE=1+
MSLEVEL=2
SOURCE_INSTRUMENT=Negative-Quattro_QQQ:10eV
FILENAME=hmdb_intermediate.mgf
SEQ=*..*
IONMODE=Negative
ORGANISM=HMDB
NAME=HMDB:HMDB00434-635 Homoveratric acid M-H
PI=HMDB
DATACOLLECTOR=HMDB
SMILES=COC1=CC=C(CC(O)=O)C=C1OC
INCHI=InChI=1S/C10H12O4/c1-13-8-4-3-7(6-10(11)12)5-9(8)14-2/h3-5H,6H2,1-2H3,(H,11,12)
INCHIAUX=N/A
PUBMED=N/A
SUBMITUSER=mwang87
TAGS=
LIBRARYQUALITY=3
SPECTRUMID=CCMSLIB00000427092
SCANS=2064
136.203 100.0 
END IONS

BEGIN IONS
PEPMASS=131.071
CHARGE=1+
MSLEVEL=2
SOURCE_INSTRUMENT=Positive-Quattro_QQQ:25eV
FILENAME=hmdb_intermediate.mgf
SEQ=*..*
IONMODE=Positive
ORGANISM=HMDB
NAME=HMDB:HMDB00408-622 2-Methyl-3-ketovaleric acid M+H
PI=HMDB
DATACOLLECTOR=HMDB
SMILES=CCC(=O)C(C)C(O)=O
INCHI=InChI=1S/C6H10O3/c1-3-5(7)4(2)6(8)9/h4H,3H2,1-2H3,(H,8,9)
INCHIAUX=N/A
PUBMED=N/A
SUBMITUSER=mwang87
TAGS=
LIBRARYQUALITY=3
SPECTRUMID=CCMSLIB00000427093
SCANS=2065
84.57 77.334 
130.34 66.412 
131.13 100.0 
END IONS

BEGIN IONS
PEPMASS=142.098
CHARGE=1+
MSLEVEL=2
SOURCE_INSTRUMENT=Positive-Quattro_QQQ:10eV
FILENAME=hmdb_intermediate.mgf
SEQ=*..*
IONMODE=Positive
ORGANISM=HMDB
NAME=HMDB:HMDB03431-2307 L-Histidinol M+H
PI=HMDB
DATACOLLECTOR=HMDB
SMILES=N[C@H](CO)CC1=CN=CN1
INCHI=InChI=1S/C6H11N3O/c7-5(3-10)1-6-2-8-4-9-6/h2,4-5,10H,1,3,7H2,(H,8,9)/t5-/m0/s1
INCHIAUX=N/A
PUBMED=N/A
SUBMITUSER=mwang87
TAGS=
LIBRARYQUALITY=3
SPECTRUMID=CCMSLIB00000427094
SCANS=2066
124.0 72.259 
142.0 100.0 
END IONS

BEGIN IONS
PEPMASS=120.066
CHARGE=1+
MSLEVEL=2
SOURCE_INSTRUMENT=Positive-Quattro_QQQ:40eV
FILENAME=hmdb_intermediate.mgf
SEQ=*..*
IONMODE=Positive
ORGANISM=HMDB
NAME=HMDB:HMDB00719-1010 L-Homoserine M+H
PI=HMDB
DATACOLLECTOR=HMDB
SMILES=N[C@@H](CCO)C(O)=O
INCHI=InChI=1S/C4H9NO3/c5-3(1-2-6)4(7)8/h3,6H,1-2,5H2,(H,7,8)/t3-/m0/s1
INCHIAUX=N/A
PUBMED=N/A
SUBMITUSER=mwang87
TAGS=
LIBRARYQUALITY=3
SPECTRUMID=CCMSLIB00000427095
SCANS=2067
44.267 65.476 
56.089 100.0 
END IONS

BEGIN IONS
PEPMASS=182.082
CHARGE=1+
MSLEVEL=2
SOURCE_INSTRUMENT=Positive-Quattro_QQQ:25eV
FILENAME=hmdb_intermediate.mgf
SEQ=*..*
IONMODE=Positive
ORGANISM=HMDB
NAME=HMDB:HMDB00158-246 L-Tyrosine M+H
PI=HMDB
DATACOLLECTOR=HMDB
SMILES=N[C@@H](CC1=CC=C(O)C=C1)C(O)=O
INCHI=InChI=1S/C9H11NO3/c10-8(9(12)13)5-6-1-3-7(11)4-2-6/h1-4,8,11H,5,10H2,(H,12,13)/t8-/m0/s1
INCHIAUX=N/A
PUBMED=N/A
SUBMITUSER=mwang87
TAGS=
LIBRARYQUALITY=3
SPECTRUMID=CCMSLIB00000427096
SCANS=2068
91.02 100.0 
END IONS

BEGIN IONS
PEPMASS=151.04
CHARGE=1+
MSLEVEL=2
SOURCE_INSTRUMENT=Negative-Quattro_QQQ:40eV
FILENAME=hmdb_intermediate.mgf
SEQ=*..*
IONMODE=Negative
ORGANISM=HMDB
NAME=HMDB:HMDB00669-920 Ortho-Hydroxyphenylacetic acid M-H
PI=HMDB
DATACOLLECTOR=HMDB
SMILES=OC(=O)CC1=CC=CC=C1O
INCHI=InChI=1S/C8H8O3/c9-7-4-2-1-3-6(7)5-8(10)11/h1-4,9H,5H2,(H,10,11)
INCHIAUX=N/A
PUBMED=N/A
SUBMITUSER=mwang87
TAGS=
LIBRARYQUALITY=3
SPECTRUMID=CCMSLIB00000427097
SCANS=2069
106.957 100.0 
END IONS

BEGIN IONS
PEPMASS=389.378
CHARGE=1+
MSLEVEL=2
SOURCE_INSTRUMENT=Positive-Quattro_QQQ:40eV
FILENAME=hmdb_intermediate.mgf
SEQ=*..*
IONMODE=Positive
ORGANISM=HMDB
NAME=HMDB:HMDB00908-1297 5alpha-Cholestanol M+H
PI=HMDB
DATACOLLECTOR=HMDB
SMILES=[H][C@@]1(CC[C@@]2([H])[C@]3([H])CC[C@@]4([H])C[C@@H](O)CC[C@]4(C)[C@@]3([H])CC[C@]12C)[C@H](C)CCCC(C)C
INCHI=InChI=1S/C27H48O/c1-18(2)7-6-8-19(3)23-11-12-24-22-10-9-20-17-21(28)13-15-26(20,4)25(22)14-16-27(23,24)5/h18-25,28H,6-17H2,1-5H3/t19-,20+,21+,22+,23-,24+,25+,26+,27-/m1/s1
INCHIAUX=N/A
PUBMED=N/A
SUBMITUSER=mwang87
TAGS=
LIBRARYQUALITY=3
SPECTRUMID=CCMSLIB00000427098
SCANS=2070
43.0 80.92 
45.0 67.514 
46.0 71.34 
55.0 65.394 
57.0 74.946 
67.0 76.437 
69.0 96.613 
71.0 72.213 
79.0 63.025 
80.0 66.354 
81.0 82.68 
83.0 100.0 
91.0 62.924 
95.0 82.594 
105.0 71.806 
107.0 68.146 
112.0 65.079 
145.0 67.588 
END IONS

BEGIN IONS
PEPMASS=169.05
CHARGE=1+
MSLEVEL=2
SOURCE_INSTRUMENT=Positive-Quattro_QQQ:40eV
FILENAME=hmdb_intermediate.mgf
SEQ=*..*
IONMODE=Positive
ORGANISM=HMDB
NAME=HMDB:HMDB01336-1521 3,4-Dihydroxybenzeneacetic acid M+H
PI=HMDB
DATACOLLECTOR=HMDB
SMILES=OC(=O)CC1=CC=C(O)C(O)=C1
INCHI=InChI=1S/C8H8O4/c9-6-2-1-5(3-7(6)10)4-8(11)12/h1-3,9-10H,4H2,(H,11,12)
INCHIAUX=N/A
PUBMED=N/A
SUBMITUSER=mwang87
TAGS=
LIBRARYQUALITY=3
SPECTRUMID=CCMSLIB00000427099
SCANS=2071
51.0 51.964 
77.0 100.0 
123.0 62.913 
END IONS

BEGIN IONS
PEPMASS=153.076
CHARGE=1+
MSLEVEL=2
SOURCE_INSTRUMENT=Positive-Quattro_QQQ:40eV
FILENAME=hmdb_intermediate.mgf
SEQ=*..*
IONMODE=Positive
ORGANISM=HMDB
NAME=HMDB:HMDB00508-727 Ribitol M+H
PI=HMDB
DATACOLLECTOR=HMDB
SMILES=OC[C@H](O)[C@H](O)[C@H](O)CO
INCHI=InChI=1S/C5H12O5/c6-1-3(8)5(10)4(9)2-7/h3-10H,1-2H2/t3-,4+,5-
INCHIAUX=N/A
PUBMED=N/A
SUBMITUSER=mwang87
TAGS=
LIBRARYQUALITY=3
SPECTRUMID=CCMSLIB00000427100
SCANS=2072
41.358 52.703 
43.326 100.0 
END IONS

BEGIN IONS
PEPMASS=183.052
CHARGE=1+
MSLEVEL=2
SOURCE_INSTRUMENT=Positive-Quattro_QQQ:10eV
FILENAME=hmdb_intermediate.mgf
SEQ=*..*
IONMODE=Positive
ORGANISM=HMDB
NAME=HMDB:HMDB01973-1917 9-Methyluric acid M+H
PI=HMDB
DATACOLLECTOR=HMDB
SMILES=CN1C(=O)NC2=C1NC(=O)NC2=O
INCHI=InChI=1S/C6H6N4O3/c1-10-3-2(7-6(10)13)4(11)9-5(12)8-3/h1H3,(H,7,13)(H2,8,9,11,12)
INCHIAUX=N/A
PUBMED=N/A
SUBMITUSER=mwang87
TAGS=
LIBRARYQUALITY=3
SPECTRUMID=CCMSLIB00000427101
SCANS=2073
183.0 100.0 
END IONS

BEGIN IONS
PEPMASS=167.071
CHARGE=1+
MSLEVEL=2
SOURCE_INSTRUMENT=Positive-Quattro_QQQ:40eV
FILENAME=hmdb_intermediate.mgf
SEQ=*..*
IONMODE=Positive
ORGANISM=HMDB
NAME=HMDB:HMDB02229-2042 3-Phenoxypropionic acid M+H
PI=HMDB
DATACOLLECTOR=HMDB
SMILES=OC(=O)CCOC1=CC=CC=C1
INCHI=InChI=1S/C9H10O3/c10-9(11)6-7-12-8-4-2-1-3-5-8/h1-5H,6-7H2,(H,10,11)
INCHIAUX=N/A
PUBMED=N/A
SUBMITUSER=mwang87
TAGS=
LIBRARYQUALITY=3
SPECTRUMID=CCMSLIB00000427102
SCANS=2074
73.0 56.972 
77.0 100.0 
END IONS

BEGIN IONS
PEPMASS=81.0453
CHARGE=1+
MSLEVEL=2
SOURCE_INSTRUMENT=Positive-Quattro_QQQ:10eV
FILENAME=hmdb_intermediate.mgf
SEQ=*..*
IONMODE=Positive
ORGANISM=HMDB
NAME=HMDB:HMDB03361-2265 Pyrimidine M+H
PI=HMDB
DATACOLLECTOR=HMDB
SMILES=C1=CN=CN=C1
INCHI=InChI=1S/C4H4N2/c1-2-5-4-6-3-1/h1-4H
INCHIAUX=N/A
PUBMED=N/A
SUBMITUSER=mwang87
TAGS=
LIBRARYQUALITY=3
SPECTRUMID=CCMSLIB00000427103
SCANS=2075
80.91 100.0 
END IONS

BEGIN IONS
PEPMASS=76.0762
CHARGE=1+
MSLEVEL=2
SOURCE_INSTRUMENT=Positive-Quattro_QQQ:10eV
FILENAME=hmdb_intermediate.mgf
SEQ=*..*
IONMODE=Positive
ORGANISM=HMDB
NAME=HMDB:HMDB00925-1312 Trimethylamine N-oxide M+H
PI=HMDB
DATACOLLECTOR=HMDB
SMILES=C[N+](C)(C)[O-]
INCHI=InChI=1S/C3H9NO/c1-4(2,3)5/h1-3H3
INCHIAUX=N/A
PUBMED=N/A
SUBMITUSER=mwang87
TAGS=
LIBRARYQUALITY=3
SPECTRUMID=CCMSLIB00000427104
SCANS=2076
59.035 83.448 
76.126 100.0 
END IONS

BEGIN IONS
PEPMASS=338.212
CHARGE=1+
MSLEVEL=2
SOURCE_INSTRUMENT=Positive-Quattro_QQQ:25eV
FILENAME=hmdb_intermediate.mgf
SEQ=*..*
IONMODE=Positive
ORGANISM=HMDB
NAME=HMDB:HMDB02835-2147 Danazol M+H
PI=HMDB
DATACOLLECTOR=HMDB
SMILES=[H][C@@]12CC[C@@](O)(C#C)[C@@]1(C)CC[C@@]1([H])[C@@]2([H])CCC2=CC3=C(C[C@]12C)C=NO3
INCHI=InChI=1S/C22H27NO2/c1-4-22(24)10-8-18-16-6-5-15-11-19-14(13-23-25-19)12-20(15,2)17(16)7-9-21(18,22)3/h1,11,13,16-18,24H,5-10,12H2,2-3H3/t16-,17+,18+,20+,21+,22+/m1/s1
INCHIAUX=N/A
PUBMED=N/A
SUBMITUSER=mwang87
TAGS=
LIBRARYQUALITY=3
SPECTRUMID=CCMSLIB00000427105
SCANS=2077
69.94 100.0 
338.05 59.334 
END IONS

BEGIN IONS
PEPMASS=147.126
CHARGE=1+
MSLEVEL=2
SOURCE_INSTRUMENT=Positive-Quattro_QQQ:10eV
FILENAME=hmdb_intermediate.mgf
SEQ=*..*
IONMODE=Positive
ORGANISM=HMDB
NAME=HMDB:HMDB00895-1262 Acetylcholine  M+H
PI=HMDB
DATACOLLECTOR=HMDB
SMILES=CC(=O)OCC[N+](C)(C)C
INCHI=InChI=1S/C7H16NO2/c1-7(9)10-6-5-8(2,3)4/h5-6H2,1-4H3/q+1
INCHIAUX=N/A
PUBMED=N/A
SUBMITUSER=mwang87
TAGS=
LIBRARYQUALITY=3
SPECTRUMID=CCMSLIB00000427106
SCANS=2078
87.0 86.063 
147.0 100.0 
END IONS

BEGIN IONS
PEPMASS=181.071
CHARGE=1+
MSLEVEL=2
SOURCE_INSTRUMENT=Positive-Quattro_QQQ:40eV
FILENAME=hmdb_intermediate.mgf
SEQ=*..*
IONMODE=Positive
ORGANISM=HMDB
NAME=HMDB:HMDB01266-1500 L-Sorbose M+H
PI=HMDB
DATACOLLECTOR=HMDB
SMILES=OC[C@@]1(O)OC[C@H](O)[C@@H](O)[C@@H]1O
INCHI=InChI=1S/C6H12O6/c7-2-6(11)5(10)4(9)3(8)1-12-6/h3-5,7-11H,1-2H2/t3-,4+,5-,6+/m0/s1
INCHIAUX=N/A
PUBMED=N/A
SUBMITUSER=mwang87
TAGS=
LIBRARYQUALITY=3
SPECTRUMID=CCMSLIB00000427107
SCANS=2079
45.0 51.071 
73.0 100.0 
85.0 86.202 
117.0 54.127 
END IONS

BEGIN IONS
PEPMASS=259.022
CHARGE=1+
MSLEVEL=2
SOURCE_INSTRUMENT=Negative-Quattro_QQQ:25eV
FILENAME=hmdb_intermediate.mgf
SEQ=*..*
IONMODE=Negative
ORGANISM=HMDB
NAME=HMDB:HMDB01586-1658 Glucose 1-phosphate M-H
PI=HMDB
DATACOLLECTOR=HMDB
SMILES=OC[C@H]1OC(OP(O)(O)=O)[C@H](O)[C@@H](O)[C@@H]1O
INCHI=InChI=1S/C6H13O9P/c7-1-2-3(8)4(9)5(10)6(14-2)15-16(11,12)13/h2-10H,1H2,(H2,11,12,13)/t2-,3-,4+,5-,6?/m1/s1
INCHIAUX=N/A
PUBMED=N/A
SUBMITUSER=mwang87
TAGS=
LIBRARYQUALITY=3
SPECTRUMID=CCMSLIB00000427108
SCANS=2080
56.672 82.376 
67.794 100.0 
102.275 75.337 
117.724 78.882 
145.534 82.376 
156.782 75.337 
159.501 96.505 
166.299 75.337 
168.648 89.466 
195.595 82.376 
202.641 82.376 
245.786 100.0 
248.382 82.376 
273.604 89.466 
295.859 89.466 
END IONS

BEGIN IONS
PEPMASS=158.082
CHARGE=1+
MSLEVEL=2
SOURCE_INSTRUMENT=Positive-Quattro_QQQ:40eV
FILENAME=hmdb_intermediate.mgf
SEQ=*..*
IONMODE=Positive
ORGANISM=HMDB
NAME=HMDB:HMDB00959-1365 Tiglylglycine M+H
PI=HMDB
DATACOLLECTOR=HMDB
SMILES=C\C=C(/C)C(=O)NCC(O)=O
INCHI=InChI=1S/C7H11NO3/c1-3-5(2)7(11)8-4-6(9)10/h3H,4H2,1-2H3,(H,8,11)(H,9,10)/b5-3+
INCHIAUX=N/A
PUBMED=N/A
SUBMITUSER=mwang87
TAGS=
LIBRARYQUALITY=3
SPECTRUMID=CCMSLIB00000427109
SCANS=2081
63.0 100.0 
64.0 77.369 
78.0 67.279 
79.0 88.416 
END IONS

BEGIN IONS
PEPMASS=199.17
CHARGE=1+
MSLEVEL=2
SOURCE_INSTRUMENT=Positive-Quattro_QQQ:40eV
FILENAME=hmdb_intermediate.mgf
SEQ=*..*
IONMODE=Positive
ORGANISM=HMDB
NAME=HMDB:HMDB00529-751 5-Dodecenoic acid M+H
PI=HMDB
DATACOLLECTOR=HMDB
SMILES=CCCCCC\C=C/CCCC(O)=O
INCHI=InChI=1S/C12H22O2/c1-2-3-4-5-6-7-8-9-10-11-12(13)14/h7-8H,2-6,9-11H2,1H3,(H,13,14)/b8-7-
INCHIAUX=N/A
PUBMED=N/A
SUBMITUSER=mwang87
TAGS=
LIBRARYQUALITY=3
SPECTRUMID=CCMSLIB00000427110
SCANS=2082
41.0 99.405 
43.0 78.195 
54.0 100.0 
55.0 96.238 
END IONS

BEGIN IONS
PEPMASS=89.0239
CHARGE=1+
MSLEVEL=2
SOURCE_INSTRUMENT=Negative-Quattro_QQQ:40eV
FILENAME=hmdb_intermediate.mgf
SEQ=*..*
IONMODE=Negative
ORGANISM=HMDB
NAME=HMDB:HMDB01311-1515 D-Lactic acid M-H
PI=HMDB
DATACOLLECTOR=HMDB
SMILES=C[C@@H](O)C(O)=O
INCHI=InChI=1S/C3H6O3/c1-2(4)3(5)6/h2,4H,1H3,(H,5,6)/t2-/m1/s1
INCHIAUX=N/A
PUBMED=N/A
SUBMITUSER=mwang87
TAGS=
LIBRARYQUALITY=3
SPECTRUMID=CCMSLIB00000427111
SCANS=2083
17.0 85.272 
43.0 60.732 
45.0 73.685 
88.0 51.492 
89.0 100.0 
END IONS

BEGIN IONS
PEPMASS=167.071
CHARGE=1+
MSLEVEL=2
SOURCE_INSTRUMENT=Positive-Quattro_QQQ:40eV
FILENAME=hmdb_intermediate.mgf
SEQ=*..*
IONMODE=Positive
ORGANISM=HMDB
NAME=HMDB:HMDB00748-1067 L-3-Phenyllactic acid M+H
PI=HMDB
DATACOLLECTOR=HMDB
SMILES=O[C@H](CC1=CC=CC=C1)C(O)=O
INCHI=InChI=1S/C9H10O3/c10-8(9(11)12)6-7-4-2-1-3-5-7/h1-5,8,10H,6H2,(H,11,12)/t8-/m1/s1
INCHIAUX=N/A
PUBMED=N/A
SUBMITUSER=mwang87
TAGS=
LIBRARYQUALITY=3
SPECTRUMID=CCMSLIB00000427112
SCANS=2084
53.537 51.098 
56.695 84.397 
58.084 100.0 
58.716 55.667 
66.8 54.334 
70.085 58.138 
70.716 76.027 
78.548 60.425 
83.475 88.775 
84.612 50.149 
END IONS

BEGIN IONS
PEPMASS=174.113
CHARGE=1+
MSLEVEL=2
SOURCE_INSTRUMENT=Positive-Quattro_QQQ:40eV
FILENAME=hmdb_intermediate.mgf
SEQ=*..*
IONMODE=Positive
ORGANISM=HMDB
NAME=HMDB:HMDB00701-980 Hexanoylglycine M+H
PI=HMDB
DATACOLLECTOR=HMDB
SMILES=CCCCCC(=O)NCC(O)=O
INCHI=InChI=1S/C8H15NO3/c1-2-3-4-5-7(10)9-6-8(11)12/h2-6H2,1H3,(H,9,10)(H,11,12)
INCHIAUX=N/A
PUBMED=N/A
SUBMITUSER=mwang87
TAGS=
LIBRARYQUALITY=3
SPECTRUMID=CCMSLIB00000427113
SCANS=2085
43.656 100.0 
END IONS

BEGIN IONS
PEPMASS=281.248
CHARGE=1+
MSLEVEL=2
SOURCE_INSTRUMENT=Positive-Quattro_QQQ:40eV
FILENAME=hmdb_intermediate.mgf
SEQ=*..*
IONMODE=Positive
ORGANISM=HMDB
NAME=HMDB:HMDB00673-932 Linoleic acid M+H
PI=HMDB
DATACOLLECTOR=HMDB
SMILES=CCCCC\C=C/C\C=C/CCCCCCCC(O)=O
INCHI=InChI=1S/C18H32O2/c1-2-3-4-5-6-7-8-9-10-11-12-13-14-15-16-17-18(19)20/h6-7,9-10H,2-5,8,11-17H2,1H3,(H,19,20)/b7-6-,10-9-
INCHIAUX=N/A
PUBMED=N/A
SUBMITUSER=mwang87
TAGS=
LIBRARYQUALITY=3
SPECTRUMID=CCMSLIB00000427114
SCANS=2086
202.0 100.0 
END IONS

BEGIN IONS
PEPMASS=199.17
CHARGE=1+
MSLEVEL=2
SOURCE_INSTRUMENT=Positive-Quattro_QQQ:10eV
FILENAME=hmdb_intermediate.mgf
SEQ=*..*
IONMODE=Positive
ORGANISM=HMDB
NAME=HMDB:HMDB00529-749 5-Dodecenoic acid M+H
PI=HMDB
DATACOLLECTOR=HMDB
SMILES=CCCCCC\C=C/CCCC(O)=O
INCHI=InChI=1S/C12H22O2/c1-2-3-4-5-6-7-8-9-10-11-12(13)14/h7-8H,2-6,9-11H2,1H3,(H,13,14)/b8-7-
INCHIAUX=N/A
PUBMED=N/A
SUBMITUSER=mwang87
TAGS=
LIBRARYQUALITY=3
SPECTRUMID=CCMSLIB00000427115
SCANS=2087
199.0 100.0 
END IONS

BEGIN IONS
PEPMASS=105.066
CHARGE=1+
MSLEVEL=2
SOURCE_INSTRUMENT=Positive-Quattro_QQQ:40eV
FILENAME=hmdb_intermediate.mgf
SEQ=*..*
IONMODE=Positive
ORGANISM=HMDB
NAME=HMDB:HMDB02006-1946 2,3-Diaminopropionic acid M+H
PI=HMDB
DATACOLLECTOR=HMDB
SMILES=NC[C@H](N)C(O)=O
INCHI=InChI=1S/C3H8N2O2/c4-1-2(5)3(6)7/h2H,1,4-5H2,(H,6,7)/t2-/m0/s1
INCHIAUX=N/A
PUBMED=N/A
SUBMITUSER=mwang87
TAGS=
LIBRARYQUALITY=3
SPECTRUMID=CCMSLIB00000427116
SCANS=2088
70.0 84.788 
88.0 73.094 
104.0 56.435 
105.0 100.0 
END IONS

BEGIN IONS
PEPMASS=138.055
CHARGE=1+
MSLEVEL=2
SOURCE_INSTRUMENT=Positive-Quattro_QQQ:25eV
FILENAME=hmdb_intermediate.mgf
SEQ=*..*
IONMODE=Positive
ORGANISM=HMDB
NAME=HMDB:HMDB01891-1799 m-Aminobenzoic acid M+H
PI=HMDB
DATACOLLECTOR=HMDB
SMILES=NC1=CC=CC(=C1)C(O)=O
INCHI=InChI=1S/C7H7NO2/c8-6-3-1-2-5(4-6)7(9)10/h1-4H,8H2,(H,9,10)
INCHIAUX=N/A
PUBMED=N/A
SUBMITUSER=mwang87
TAGS=
LIBRARYQUALITY=3
SPECTRUMID=CCMSLIB00000427117
SCANS=2089
65.172 100.0 
77.117 59.88 
END IONS

BEGIN IONS
PEPMASS=91.0031
CHARGE=1+
MSLEVEL=2
SOURCE_INSTRUMENT=Positive-Quattro_QQQ:10eV
FILENAME=hmdb_intermediate.mgf
SEQ=*..*
IONMODE=Positive
ORGANISM=HMDB
NAME=HMDB:HMDB02329-2061 Oxalic acid M+H
PI=HMDB
DATACOLLECTOR=HMDB
SMILES=OC(=O)C(O)=O
INCHI=InChI=1S/C2H2O4/c3-1(4)2(5)6/h(H,3,4)(H,5,6)
INCHIAUX=N/A
PUBMED=N/A
SUBMITUSER=mwang87
TAGS=
LIBRARYQUALITY=3
SPECTRUMID=CCMSLIB00000427118
SCANS=2090
73.1 100.0 
END IONS

BEGIN IONS
PEPMASS=164.057
CHARGE=1+
MSLEVEL=2
SOURCE_INSTRUMENT=Positive-Quattro_QQQ:40eV
FILENAME=hmdb_intermediate.mgf
SEQ=*..*
IONMODE=Positive
ORGANISM=HMDB
NAME=HMDB:HMDB00802-1143 Pterin M+H
PI=HMDB
DATACOLLECTOR=HMDB
SMILES=NC1=NC2=NC=CN=C2C(=O)N1
INCHI=InChI=1S/C6H5N5O/c7-6-10-4-3(5(12)11-6)8-1-2-9-4/h1-2H,(H3,7,9,10,11,12)
INCHIAUX=N/A
PUBMED=N/A
SUBMITUSER=mwang87
TAGS=
LIBRARYQUALITY=3
SPECTRUMID=CCMSLIB00000427119
SCANS=2091
67.206 51.5 
68.229 100.0 
92.057 89.0 
END IONS

BEGIN IONS
PEPMASS=301.18
CHARGE=1+
MSLEVEL=2
SOURCE_INSTRUMENT=Positive-Quattro_QQQ:10eV
FILENAME=hmdb_intermediate.mgf
SEQ=*..*
IONMODE=Positive
ORGANISM=HMDB
NAME=HMDB:HMDB00010-13 2-Methoxyestrone M+H
PI=HMDB
DATACOLLECTOR=HMDB
SMILES=[H][C@@]12CCC(=O)[C@@]1(C)CC[C@]1([H])C3=C(CC[C@@]21[H])C=C(O)C(OC)=C3
INCHI=InChI=1S/C19H24O3/c1-19-8-7-12-13(15(19)5-6-18(19)21)4-3-11-9-16(20)17(22-2)10-14(11)12/h9-10,12-13,15,20H,3-8H2,1-2H3/t12-,13+,15-,19-/m0/s1
INCHIAUX=N/A
PUBMED=N/A
SUBMITUSER=mwang87
TAGS=
LIBRARYQUALITY=3
SPECTRUMID=CCMSLIB00000427120
SCANS=2092
301.0 100.0 
END IONS

BEGIN IONS
PEPMASS=110.028
CHARGE=1+
MSLEVEL=2
SOURCE_INSTRUMENT=Positive-Quattro_QQQ:40eV
FILENAME=hmdb_intermediate.mgf
SEQ=*..*
IONMODE=Positive
ORGANISM=HMDB
NAME=HMDB:HMDB00965-1371 Hypotaurine M+H
PI=HMDB
DATACOLLECTOR=HMDB
SMILES=NCCS(O)=O
INCHI=InChI=1S/C2H7NO2S/c3-1-2-6(4)5/h1-3H2,(H,4,5)
INCHIAUX=N/A
PUBMED=N/A
SUBMITUSER=mwang87
TAGS=
LIBRARYQUALITY=3
SPECTRUMID=CCMSLIB00000427121
SCANS=2093
65.0 100.0 
END IONS

BEGIN IONS
PEPMASS=146.166
CHARGE=1+
MSLEVEL=2
SOURCE_INSTRUMENT=Positive-Quattro_QQQ:40eV
FILENAME=hmdb_intermediate.mgf
SEQ=*..*
IONMODE=Positive
ORGANISM=HMDB
NAME=HMDB:HMDB01257-1492 Spermidine M+H
PI=HMDB
DATACOLLECTOR=HMDB
SMILES=NCCCCNCCCN
INCHI=InChI=1S/C7H19N3/c8-4-1-2-6-10-7-3-5-9/h10H,1-9H2
INCHIAUX=N/A
PUBMED=N/A
SUBMITUSER=mwang87
TAGS=
LIBRARYQUALITY=3
SPECTRUMID=CCMSLIB00000427122
SCANS=2094
72.0 100.0 
END IONS

BEGIN IONS
PEPMASS=149.045
CHARGE=1+
MSLEVEL=2
SOURCE_INSTRUMENT=Positive-Quattro_QQQ:10eV
FILENAME=hmdb_intermediate.mgf
SEQ=*..*
IONMODE=Positive
ORGANISM=HMDB
NAME=HMDB:HMDB01900-1816 Ribonolactone M+H
PI=HMDB
DATACOLLECTOR=HMDB
SMILES=OC[C@H]1OC(=O)[C@H](O)[C@@H]1O
INCHI=InChI=1S/C5H8O5/c6-1-2-3(7)4(8)5(9)10-2/h2-4,6-8H,1H2/t2-,3-,4-/m1/s1
INCHIAUX=N/A
PUBMED=N/A
SUBMITUSER=mwang87
TAGS=
LIBRARYQUALITY=3
SPECTRUMID=CCMSLIB00000427123
SCANS=2095
130.414 57.347 
131.288 100.0 
131.537 72.719 
END IONS

BEGIN IONS
PEPMASS=193.035
CHARGE=1+
MSLEVEL=2
SOURCE_INSTRUMENT=Positive-Quattro_QQQ:10eV
FILENAME=hmdb_intermediate.mgf
SEQ=*..*
IONMODE=Positive
ORGANISM=HMDB
NAME=HMDB:HMDB00193-310 Isocitric acid M+H
PI=HMDB
DATACOLLECTOR=HMDB
SMILES=OC(C(CC(O)=O)C(O)=O)C(O)=O
INCHI=InChI=1S/C6H8O7/c7-3(8)1-2(5(10)11)4(9)6(12)13/h2,4,9H,1H2,(H,7,8)(H,10,11)(H,12,13)
INCHIAUX=N/A
PUBMED=N/A
SUBMITUSER=mwang87
TAGS=
LIBRARYQUALITY=3
SPECTRUMID=CCMSLIB00000427124
SCANS=2096
152.435 100.0 
192.937 90.57 
END IONS

BEGIN IONS
PEPMASS=186.017
CHARGE=1+
MSLEVEL=2
SOURCE_INSTRUMENT=Positive-Quattro_QQQ:40eV
FILENAME=hmdb_intermediate.mgf
SEQ=*..*
IONMODE=Positive
ORGANISM=HMDB
NAME=HMDB:HMDB01721-1680 DL-O-Phosphoserine M+H
PI=HMDB
DATACOLLECTOR=HMDB
SMILES=NC(COP(O)(O)=O)C(O)=O
INCHI=InChI=1S/C3H8NO6P/c4-2(3(5)6)1-10-11(7,8)9/h2H,1,4H2,(H,5,6)(H2,7,8,9)
INCHIAUX=N/A
PUBMED=N/A
SUBMITUSER=mwang87
TAGS=
LIBRARYQUALITY=3
SPECTRUMID=CCMSLIB00000427125
SCANS=2097
42.662 100.0 
END IONS

BEGIN IONS
PEPMASS=391.285
CHARGE=1+
MSLEVEL=2
SOURCE_INSTRUMENT=Negative-Quattro_QQQ:10eV
FILENAME=hmdb_intermediate.mgf
SEQ=*..*
IONMODE=Negative
ORGANISM=HMDB
NAME=HMDB:HMDB00733-1035 Hyodeoxycholic acid M-H
PI=HMDB
DATACOLLECTOR=HMDB
SMILES=[H][C@@]12CC[C@H]([C@H](C)CCC(O)=O)[C@@]1(C)CC[C@@]1([H])[C@@]2([H])C[C@H](O)C2C[C@H](O)CC[C@]12C
INCHI=InChI=1S/C24H40O4/c1-14(4-7-22(27)28)17-5-6-18-16-13-21(26)20-12-15(25)8-10-24(20,3)19(16)9-11-23(17,18)2/h14-21,25-26H,4-13H2,1-3H3,(H,27,28)/t14-,15-,16+,17-,18+,19+,20?,21+,23-,24-/m1/s1
INCHIAUX=N/A
PUBMED=N/A
SUBMITUSER=mwang87
TAGS=
LIBRARYQUALITY=3
SPECTRUMID=CCMSLIB00000427126
SCANS=2098
391.0 100.0 
END IONS

BEGIN IONS
PEPMASS=73.0653
CHARGE=1+
MSLEVEL=2
SOURCE_INSTRUMENT=Positive-Quattro_QQQ:40eV
FILENAME=hmdb_intermediate.mgf
SEQ=*..*
IONMODE=Positive
ORGANISM=HMDB
NAME=HMDB:HMDB00246-420 Tetrahydrofuran M+H
PI=HMDB
DATACOLLECTOR=HMDB
SMILES=C1CCOC1
INCHI=InChI=1S/C4H8O/c1-2-4-5-3-1/h1-4H2
INCHIAUX=N/A
PUBMED=N/A
SUBMITUSER=mwang87
TAGS=
LIBRARYQUALITY=3
SPECTRUMID=CCMSLIB00000427127
SCANS=2099
31.0 69.095 
39.0 72.692 
40.0 69.427 
41.0 73.019 
42.0 69.812 
43.0 93.099 
44.0 73.782 
45.0 84.412 
55.0 78.032 
57.0 68.703 
58.0 69.702 
71.0 71.333 
72.0 82.743 
73.0 100.0 
74.0 78.376 
END IONS

BEGIN IONS
PEPMASS=118.087
CHARGE=1+
MSLEVEL=2
SOURCE_INSTRUMENT=Positive-Quattro_QQQ:25eV
FILENAME=hmdb_intermediate.mgf
SEQ=*..*
IONMODE=Positive
ORGANISM=HMDB
NAME=HMDB:HMDB00883-1245 L-Valine M+H
PI=HMDB
DATACOLLECTOR=HMDB
SMILES=CC(C)[C@H](N)C(O)=O
INCHI=InChI=1S/C5H11NO2/c1-3(2)4(6)5(7)8/h3-4H,6H2,1-2H3,(H,7,8)/t4-/m0/s1
INCHIAUX=N/A
PUBMED=N/A
SUBMITUSER=mwang87
TAGS=
LIBRARYQUALITY=3
SPECTRUMID=CCMSLIB00000427128
SCANS=2100
55.234 100.0 
72.122 58.621 
END IONS

BEGIN IONS
PEPMASS=115.076
CHARGE=1+
MSLEVEL=2
SOURCE_INSTRUMENT=Negative-Quattro_QQQ:40eV
FILENAME=hmdb_intermediate.mgf
SEQ=*..*
IONMODE=Negative
ORGANISM=HMDB
NAME=HMDB:HMDB00535-757 Caproic acid M-H
PI=HMDB
DATACOLLECTOR=HMDB
SMILES=CCCCCC(O)=O
INCHI=InChI=1S/C6H12O2/c1-2-3-4-5-6(7)8/h2-5H2,1H3,(H,7,8)
INCHIAUX=N/A
PUBMED=N/A
SUBMITUSER=mwang87
TAGS=
LIBRARYQUALITY=3
SPECTRUMID=CCMSLIB00000427129
SCANS=2101
115.106 100.0 
END IONS

BEGIN IONS
PEPMASS=130.05
CHARGE=1+
MSLEVEL=2
SOURCE_INSTRUMENT=Positive-Quattro_QQQ:25eV
FILENAME=hmdb_intermediate.mgf
SEQ=*..*
IONMODE=Positive
ORGANISM=HMDB
NAME=HMDB:HMDB00805-1148 Pyrrolidonecarboxylic acid M+H
PI=HMDB
DATACOLLECTOR=HMDB
SMILES=OC(=O)C1CCC(=O)N1
INCHI=InChI=1S/C5H7NO3/c7-4-2-1-3(6-4)5(8)9/h3H,1-2H2,(H,6,7)(H,8,9)
INCHIAUX=N/A
PUBMED=N/A
SUBMITUSER=mwang87
TAGS=
LIBRARYQUALITY=3
SPECTRUMID=CCMSLIB00000427130
SCANS=2102
56.514 68.314 
84.341 100.0 
END IONS

BEGIN IONS
PEPMASS=223.075
CHARGE=1+
MSLEVEL=2
SOURCE_INSTRUMENT=Positive-Quattro_QQQ:40eV
FILENAME=hmdb_intermediate.mgf
SEQ=*..*
IONMODE=Positive
ORGANISM=HMDB
NAME=HMDB:HMDB00455-667 Allocystathionine M+H
PI=HMDB
DATACOLLECTOR=HMDB
SMILES=N[C@@H](CCSCC(N)C(O)=O)C(O)=O
INCHI=InChI=1S/C7H14N2O4S/c8-4(6(10)11)1-2-14-3-5(9)7(12)13/h4-5H,1-3,8-9H2,(H,10,11)(H,12,13)/t4-,5?/m0/s1
INCHIAUX=N/A
PUBMED=N/A
SUBMITUSER=mwang87
TAGS=
LIBRARYQUALITY=3
SPECTRUMID=CCMSLIB00000427131
SCANS=2103
88.066 100.0 
END IONS

BEGIN IONS
PEPMASS=123.045
CHARGE=1+
MSLEVEL=2
SOURCE_INSTRUMENT=Positive-Quattro_QQQ:40eV
FILENAME=hmdb_intermediate.mgf
SEQ=*..*
IONMODE=Positive
ORGANISM=HMDB
NAME=HMDB:HMDB01870-1758 Benzoic acid M+H
PI=HMDB
DATACOLLECTOR=HMDB
SMILES=OC(=O)C1=CC=CC=C1
INCHI=InChI=1S/C7H6O2/c8-7(9)6-4-2-1-3-5-6/h1-5H,(H,8,9)
INCHIAUX=N/A
PUBMED=N/A
SUBMITUSER=mwang87
TAGS=
LIBRARYQUALITY=3
SPECTRUMID=CCMSLIB00000427132
SCANS=2104
76.997 100.0 
END IONS

BEGIN IONS
PEPMASS=151.04
CHARGE=1+
MSLEVEL=2
SOURCE_INSTRUMENT=Negative-Quattro_QQQ:25eV
FILENAME=hmdb_intermediate.mgf
SEQ=*..*
IONMODE=Negative
ORGANISM=HMDB
NAME=HMDB:HMDB00020-34 p-Hydroxyphenylacetic acid M-H
PI=HMDB
DATACOLLECTOR=HMDB
SMILES=OC(=O)CC1=CC=C(O)C=C1
INCHI=InChI=1S/C8H8O3/c9-7-3-1-6(2-4-7)5-8(10)11/h1-4,9H,5H2,(H,10,11)
INCHIAUX=N/A
PUBMED=N/A
SUBMITUSER=mwang87
TAGS=
LIBRARYQUALITY=3
SPECTRUMID=CCMSLIB00000427133
SCANS=2105
77.389 57.062 
79.392 100.0 
107.16 59.887 
END IONS

BEGIN IONS
PEPMASS=132.081
CHARGE=1+
MSLEVEL=2
SOURCE_INSTRUMENT=Positive-Quattro_QQQ:40eV
FILENAME=hmdb_intermediate.mgf
SEQ=*..*
IONMODE=Positive
ORGANISM=HMDB
NAME=HMDB:HMDB00466-676 3-Methylindole M+H
PI=HMDB
DATACOLLECTOR=HMDB
SMILES=CC1=CNC2=C1C=CC=C2
INCHI=InChI=1S/C9H9N/c1-7-6-10-9-5-3-2-4-8(7)9/h2-6,10H,1H3
INCHIAUX=N/A
PUBMED=N/A
SUBMITUSER=mwang87
TAGS=
LIBRARYQUALITY=3
SPECTRUMID=CCMSLIB00000427134
SCANS=2106
89.107 100.0 
90.216 63.5 
END IONS

BEGIN IONS
PEPMASS=333.243
CHARGE=1+
MSLEVEL=2
SOURCE_INSTRUMENT=Positive-Quattro_QQQ:10eV
FILENAME=hmdb_intermediate.mgf
SEQ=*..*
IONMODE=Positive
ORGANISM=HMDB
NAME=HMDB:HMDB00363-576 17a-Hydroxypregnenolone M+H
PI=HMDB
DATACOLLECTOR=HMDB
SMILES=[H][C@@]12CC[C@](O)(C(C)=O)[C@@]1(C)CC[C@@]1([H])[C@@]2([H])CC=C2C[C@@H](O)CC[C@]12C
INCHI=InChI=1S/C21H32O3/c1-13(22)21(24)11-8-18-16-5-4-14-12-15(23)6-9-19(14,2)17(16)7-10-20(18,21)3/h4,15-18,23-24H,5-12H2,1-3H3/t15-,16+,17-,18-,19-,20-,21-/m0/s1
INCHIAUX=N/A
PUBMED=N/A
SUBMITUSER=mwang87
TAGS=
LIBRARYQUALITY=3
SPECTRUMID=CCMSLIB00000427135
SCANS=2107
332.0 100.0 
END IONS

BEGIN IONS
PEPMASS=222.098
CHARGE=1+
MSLEVEL=2
SOURCE_INSTRUMENT=Positive-Quattro_QQQ:25eV
FILENAME=hmdb_intermediate.mgf
SEQ=*..*
IONMODE=Positive
ORGANISM=HMDB
NAME=HMDB:HMDB01129-1428 N-Acetylmannosamine M+H
PI=HMDB
DATACOLLECTOR=HMDB
SMILES=[H][C@@]1(O)O[C@H](CO)[C@@H](O)[C@H](O)[C@@H]1NC(C)=O
INCHI=InChI=1S/C8H15NO6/c1-3(11)9-5-7(13)6(12)4(2-10)15-8(5)14/h4-8,10,12-14H,2H2,1H3,(H,9,11)/t4-,5+,6-,7-,8-/m1/s1
INCHIAUX=N/A
PUBMED=N/A
SUBMITUSER=mwang87
TAGS=
LIBRARYQUALITY=3
SPECTRUMID=CCMSLIB00000427136
SCANS=2108
84.0 100.0 
END IONS

BEGIN IONS
PEPMASS=370.084
CHARGE=1+
MSLEVEL=2
SOURCE_INSTRUMENT=Positive-Quattro_QQQ:10eV
FILENAME=hmdb_intermediate.mgf
SEQ=*..*
IONMODE=Positive
ORGANISM=HMDB
NAME=HMDB:HMDB05008-2439 Lansoprazole M+H
PI=HMDB
DATACOLLECTOR=HMDB
SMILES=CC1=C(OCC(F)(F)F)C=CN=C1CS(=O)C1=NC2=CC=CC=C2N1
INCHI=InChI=1S/C16H14F3N3O2S/c1-10-13(20-7-6-14(10)24-9-16(17,18)19)8-25(23)15-21-11-4-2-3-5-12(11)22-15/h2-7H,8-9H2,1H3,(H,21,22)
INCHIAUX=N/A
PUBMED=N/A
SUBMITUSER=mwang87
TAGS=
LIBRARYQUALITY=3
SPECTRUMID=CCMSLIB00000427137
SCANS=2109
251.82 100.0 
END IONS

BEGIN IONS
PEPMASS=289.217
CHARGE=1+
MSLEVEL=2
SOURCE_INSTRUMENT=Positive-Quattro_QQQ:25eV
FILENAME=hmdb_intermediate.mgf
SEQ=*..*
IONMODE=Positive
ORGANISM=HMDB
NAME=HMDB:HMDB00077-127 Dehydroepiandrosterone M+H
PI=HMDB
DATACOLLECTOR=HMDB
SMILES=C[C@]12CCC3C(CC=C4C[C@@H](O)CC[C@]34C)C1CCC2=O
INCHI=InChI=1S/C19H28O2/c1-18-9-7-13(20)11-12(18)3-4-14-15-5-6-17(21)19(15,2)10-8-16(14)18/h3,13-16,20H,4-11H2,1-2H3/t13-,14?,15?,16?,18-,19-/m0/s1
INCHIAUX=N/A
PUBMED=N/A
SUBMITUSER=mwang87
TAGS=
LIBRARYQUALITY=3
SPECTRUMID=CCMSLIB00000427138
SCANS=2110
81.124 68.468 
133.034 63.964 
145.011 74.775 
157.004 76.577 
158.995 61.261 
171.019 57.207 
196.998 70.27 
213.045 100.0 
END IONS

BEGIN IONS
PEPMASS=111.008
CHARGE=1+
MSLEVEL=2
SOURCE_INSTRUMENT=Negative-Quattro_QQQ:10eV
FILENAME=hmdb_intermediate.mgf
SEQ=*..*
IONMODE=Negative
ORGANISM=HMDB
NAME=HMDB:HMDB00617-831 2-Furoic acid M-H
PI=HMDB
DATACOLLECTOR=HMDB
SMILES=OC(=O)C1=CC=CO1
INCHI=InChI=1S/C5H4O3/c6-5(7)4-2-1-3-8-4/h1-3H,(H,6,7)
INCHIAUX=N/A
PUBMED=N/A
SUBMITUSER=mwang87
TAGS=
LIBRARYQUALITY=3
SPECTRUMID=CCMSLIB00000427139
SCANS=2111
67.089 100.0 
END IONS

BEGIN IONS
PEPMASS=69.0453
CHARGE=1+
MSLEVEL=2
SOURCE_INSTRUMENT=Positive-Quattro_QQQ:40eV
FILENAME=hmdb_intermediate.mgf
SEQ=*..*
IONMODE=Positive
ORGANISM=HMDB
NAME=HMDB:HMDB01525-1627 Imidazole M+H
PI=HMDB
DATACOLLECTOR=HMDB
SMILES=N1C=CN=C1
INCHI=InChI=1S/C3H4N2/c1-2-5-3-4-1/h1-3H,(H,4,5)
INCHIAUX=N/A
PUBMED=N/A
SUBMITUSER=mwang87
TAGS=
LIBRARYQUALITY=3
SPECTRUMID=CCMSLIB00000427140
SCANS=2112
42.416 84.225 
42.541 85.496 
69.319 100.0 
69.568 98.385 
END IONS

BEGIN IONS
PEPMASS=135.029
CHARGE=1+
MSLEVEL=2
SOURCE_INSTRUMENT=Positive-Quattro_QQQ:40eV
FILENAME=hmdb_intermediate.mgf
SEQ=*..*
IONMODE=Positive
ORGANISM=HMDB
NAME=HMDB:HMDB00156-241 L-Malic acid M+H
PI=HMDB
DATACOLLECTOR=HMDB
SMILES=O[C@@H](CC(O)=O)C(O)=O
INCHI=InChI=1S/C4H6O5/c5-2(4(8)9)1-3(6)7/h2,5H,1H2,(H,6,7)(H,8,9)/t2-/m0/s1
INCHIAUX=N/A
PUBMED=N/A
SUBMITUSER=mwang87
TAGS=
LIBRARYQUALITY=3
SPECTRUMID=CCMSLIB00000427141
SCANS=2113
43.0 100.0 
45.0 69.17 
71.0 77.825 
77.0 64.883 
END IONS

BEGIN IONS
PEPMASS=165.055
CHARGE=1+
MSLEVEL=2
SOURCE_INSTRUMENT=Positive-Quattro_QQQ:25eV
FILENAME=hmdb_intermediate.mgf
SEQ=*..*
IONMODE=Positive
ORGANISM=HMDB
NAME=HMDB:HMDB00205-329 Phenylpyruvic acid M+H
PI=HMDB
DATACOLLECTOR=HMDB
SMILES=OC(=O)C(=O)CC1=CC=CC=C1
INCHI=InChI=1S/C9H8O3/c10-8(9(11)12)6-7-4-2-1-3-5-7/h1-5H,6H2,(H,11,12)
INCHIAUX=N/A
PUBMED=N/A
SUBMITUSER=mwang87
TAGS=
LIBRARYQUALITY=3
SPECTRUMID=CCMSLIB00000427142
SCANS=2114
77.0 100.0 
END IONS

BEGIN IONS
PEPMASS=168.99
CHARGE=1+
MSLEVEL=2
SOURCE_INSTRUMENT=Positive-Quattro_QQQ:10eV
FILENAME=hmdb_intermediate.mgf
SEQ=*..*
IONMODE=Positive
ORGANISM=HMDB
NAME=HMDB:HMDB00263-457 Phosphoenolpyruvic acid M+H
PI=HMDB
DATACOLLECTOR=HMDB
SMILES=OC(=O)C(=C)OP(O)(O)=O
INCHI=InChI=1S/C3H5O6P/c1-2(3(4)5)9-10(6,7)8/h1H2,(H,4,5)(H2,6,7,8)
INCHIAUX=N/A
PUBMED=N/A
SUBMITUSER=mwang87
TAGS=
LIBRARYQUALITY=3
SPECTRUMID=CCMSLIB00000427143
SCANS=2115
137.0 71.519 
151.0 100.0 
END IONS

BEGIN IONS
PEPMASS=111.045
CHARGE=1+
MSLEVEL=2
SOURCE_INSTRUMENT=Positive-Quattro_QQQ:10eV
FILENAME=hmdb_intermediate.mgf
SEQ=*..*
IONMODE=Positive
ORGANISM=HMDB
NAME=HMDB:HMDB02434-2107 Hydroquinone M+H
PI=HMDB
DATACOLLECTOR=HMDB
SMILES=OC1=CC=C(O)C=C1
INCHI=InChI=1S/C6H6O2/c7-5-1-2-6(8)4-3-5/h1-4,7-8H
INCHIAUX=N/A
PUBMED=N/A
SUBMITUSER=mwang87
TAGS=
LIBRARYQUALITY=3
SPECTRUMID=CCMSLIB00000427144
SCANS=2116
110.0 100.0 
END IONS

BEGIN IONS
PEPMASS=59.0497
CHARGE=1+
MSLEVEL=2
SOURCE_INSTRUMENT=Positive-Quattro_QQQ:25eV
FILENAME=hmdb_intermediate.mgf
SEQ=*..*
IONMODE=Positive
ORGANISM=HMDB
NAME=HMDB:HMDB03366-2272 Propanal M+H
PI=HMDB
DATACOLLECTOR=HMDB
SMILES=CCC=O
INCHI=InChI=1S/C3H6O/c1-2-3-4/h3H,2H2,1H3
INCHIAUX=N/A
PUBMED=N/A
SUBMITUSER=mwang87
TAGS=
LIBRARYQUALITY=3
SPECTRUMID=CCMSLIB00000427145
SCANS=2117
15.0 52.419 
42.0 100.0 
43.0 72.706 
58.0 89.949 
59.0 52.233 
END IONS

BEGIN IONS
PEPMASS=103.003
CHARGE=1+
MSLEVEL=2
SOURCE_INSTRUMENT=Negative-Quattro_QQQ:10eV
FILENAME=hmdb_intermediate.mgf
SEQ=*..*
IONMODE=Negative
ORGANISM=HMDB
NAME=HMDB:HMDB00691-958 Malonic acid M-H
PI=HMDB
DATACOLLECTOR=HMDB
SMILES=OC(=O)CC(O)=O
INCHI=InChI=1S/C3H4O4/c4-2(5)1-3(6)7/h1H2,(H,4,5)(H,6,7)
INCHIAUX=N/A
PUBMED=N/A
SUBMITUSER=mwang87
TAGS=
LIBRARYQUALITY=3
SPECTRUMID=CCMSLIB00000427146
SCANS=2118
59.456 100.0 
END IONS

BEGIN IONS
PEPMASS=76.0762
CHARGE=1+
MSLEVEL=2
SOURCE_INSTRUMENT=Positive-Quattro_QQQ:25eV
FILENAME=hmdb_intermediate.mgf
SEQ=*..*
IONMODE=Positive
ORGANISM=HMDB
NAME=HMDB:HMDB00925-1313 Trimethylamine N-oxide M+H
PI=HMDB
DATACOLLECTOR=HMDB
SMILES=C[N+](C)(C)[O-]
INCHI=InChI=1S/C3H9NO/c1-4(2,3)5/h1-3H3
INCHIAUX=N/A
PUBMED=N/A
SUBMITUSER=mwang87
TAGS=
LIBRARYQUALITY=3
SPECTRUMID=CCMSLIB00000427147
SCANS=2119
58.215 100.0 
END IONS

BEGIN IONS
PEPMASS=426.053
CHARGE=1+
MSLEVEL=2
SOURCE_INSTRUMENT=Positive-Quattro_QQQ:40eV
FILENAME=hmdb_intermediate.mgf
SEQ=*..*
IONMODE=Positive
ORGANISM=HMDB
NAME=HMDB:HMDB01372-1543 Thiamine pyrophosphate M+H
PI=HMDB
DATACOLLECTOR=HMDB
SMILES=CC1=C(CCO[P@](O)(=O)OP(O)(O)=O)SC=[N+]1CC1=CN=C(C)N=C1N
INCHI=InChI=1S/C12H18N4O7P2S/c1-8-11(3-4-22-25(20,21)23-24(17,18)19)26-7-16(8)6-10-5-14-9(2)15-12(10)13/h5,7H,3-4,6H2,1-2H3,(H4-,13,14,15,17,18,19,20,21)/p+1
INCHIAUX=N/A
PUBMED=N/A
SUBMITUSER=mwang87
TAGS=
LIBRARYQUALITY=3
SPECTRUMID=CCMSLIB00000427148
SCANS=2120
122.0 100.0 
123.0 52.904 
END IONS

BEGIN IONS
PEPMASS=307.978
CHARGE=1+
MSLEVEL=2
SOURCE_INSTRUMENT=Positive-Quattro_QQQ:25eV
FILENAME=hmdb_intermediate.mgf
SEQ=*..*
IONMODE=Positive
ORGANISM=HMDB
NAME=HMDB:HMDB00021-37 Iodotyrosine M+H
PI=HMDB
DATACOLLECTOR=HMDB
SMILES=N[C@@H](CC1=CC=C(O)C(I)=C1)C(O)=O
INCHI=InChI=1S/C9H10INO3/c10-6-3-5(1-2-8(6)12)4-7(11)9(13)14/h1-3,7,12H,4,11H2,(H,13,14)/t7-/m0/s1
INCHIAUX=N/A
PUBMED=N/A
SUBMITUSER=mwang87
TAGS=
LIBRARYQUALITY=3
SPECTRUMID=CCMSLIB00000427149
SCANS=2121
134.921 100.0 
261.86 73.874 
END IONS

BEGIN IONS
PEPMASS=183.052
CHARGE=1+
MSLEVEL=2
SOURCE_INSTRUMENT=Positive-Quattro_QQQ:25eV
FILENAME=hmdb_intermediate.mgf
SEQ=*..*
IONMODE=Positive
ORGANISM=HMDB
NAME=HMDB:HMDB03099-2195 1-Methyluric acid M+H
PI=HMDB
DATACOLLECTOR=HMDB
SMILES=CN1C(=O)NC2=C(NC(=O)N2)C1=O
INCHI=InChI=1S/C6H6N4O3/c1-10-4(11)2-3(9-6(10)13)8-5(12)7-2/h1H3,(H,9,13)(H2,7,8,12)
INCHIAUX=N/A
PUBMED=N/A
SUBMITUSER=mwang87
TAGS=
LIBRARYQUALITY=3
SPECTRUMID=CCMSLIB00000427150
SCANS=2122
134.0 100.0 
END IONS

BEGIN IONS
PEPMASS=152.071
CHARGE=1+
MSLEVEL=2
SOURCE_INSTRUMENT=Positive-Quattro_QQQ:10eV
FILENAME=hmdb_intermediate.mgf
SEQ=*..*
IONMODE=Positive
ORGANISM=HMDB
NAME=HMDB:HMDB02210-2031 2-Phenylglycine M+H
PI=HMDB
DATACOLLECTOR=HMDB
SMILES=NC(C(O)=O)C1=CC=CC=C1
INCHI=InChI=1S/C8H9NO2/c9-7(8(10)11)6-4-2-1-3-5-6/h1-5,7H,9H2,(H,10,11)
INCHIAUX=N/A
PUBMED=N/A
SUBMITUSER=mwang87
TAGS=
LIBRARYQUALITY=3
SPECTRUMID=CCMSLIB00000427151
SCANS=2123
134.0 100.0 
END IONS

BEGIN IONS
PEPMASS=73.0653
CHARGE=1+
MSLEVEL=2
SOURCE_INSTRUMENT=Positive-Quattro_QQQ:10eV
FILENAME=hmdb_intermediate.mgf
SEQ=*..*
IONMODE=Positive
ORGANISM=HMDB
NAME=HMDB:HMDB00246-418 Tetrahydrofuran M+H
PI=HMDB
DATACOLLECTOR=HMDB
SMILES=C1CCOC1
INCHI=InChI=1S/C4H8O/c1-2-4-5-3-1/h1-4H2
INCHIAUX=N/A
PUBMED=N/A
SUBMITUSER=mwang87
TAGS=
LIBRARYQUALITY=3
SPECTRUMID=CCMSLIB00000427152
SCANS=2124
55.0 100.0 
73.0 96.398 
END IONS

BEGIN IONS
PEPMASS=162.077
CHARGE=1+
MSLEVEL=2
SOURCE_INSTRUMENT=Positive-Quattro_QQQ:40eV
FILENAME=hmdb_intermediate.mgf
SEQ=*..*
IONMODE=Positive
ORGANISM=HMDB
NAME=HMDB:HMDB00510-733 Aminoadipic acid M+H
PI=HMDB
DATACOLLECTOR=HMDB
SMILES=NC(CCCC(O)=O)C(O)=O
INCHI=InChI=1S/C6H11NO4/c7-4(6(10)11)2-1-3-5(8)9/h4H,1-3,7H2,(H,8,9)(H,10,11)
INCHIAUX=N/A
PUBMED=N/A
SUBMITUSER=mwang87
TAGS=
LIBRARYQUALITY=3
SPECTRUMID=CCMSLIB00000427153
SCANS=2125
55.161 100.0 
56.324 51.471 
END IONS

BEGIN IONS
PEPMASS=74.0606
CHARGE=1+
MSLEVEL=2
SOURCE_INSTRUMENT=Positive-Quattro_QQQ:25eV
FILENAME=hmdb_intermediate.mgf
SEQ=*..*
IONMODE=Positive
ORGANISM=HMDB
NAME=HMDB:HMDB01888-1790 N,N-Dimethylformamide M+H
PI=HMDB
DATACOLLECTOR=HMDB
SMILES=CN(C)C=O
INCHI=InChI=1S/C3H7NO/c1-4(2)3-5/h3H,1-2H3
INCHIAUX=N/A
PUBMED=N/A
SUBMITUSER=mwang87
TAGS=
LIBRARYQUALITY=3
SPECTRUMID=CCMSLIB00000427154
SCANS=2126
30.33 52.706 
31.36 74.631 
42.1 100.0 
END IONS

BEGIN IONS
PEPMASS=197.066
CHARGE=1+
MSLEVEL=2
SOURCE_INSTRUMENT=Positive-Quattro_QQQ:40eV
FILENAME=hmdb_intermediate.mgf
SEQ=*..*
IONMODE=Positive
ORGANISM=HMDB
NAME=HMDB:HMDB00625-851 Gluconic acid M+H
PI=HMDB
DATACOLLECTOR=HMDB
SMILES=OC[C@@H](O)[C@@H](O)[C@H](O)[C@@H](O)C(O)=O
INCHI=InChI=1S/C6H12O7/c7-1-2(8)3(9)4(10)5(11)6(12)13/h2-5,7-11H,1H2,(H,12,13)/t2-,3-,4+,5-/m1/s1
INCHIAUX=N/A
PUBMED=N/A
SUBMITUSER=mwang87
TAGS=
LIBRARYQUALITY=3
SPECTRUMID=CCMSLIB00000427155
SCANS=2127
68.042 86.399 
68.794 91.21 
70.799 52.707 
72.428 56.891 
72.929 60.239 
98.364 58.776 
115.029 100.0 
119.916 68.4 
125.054 70.496 
141.093 51.452 
END IONS

BEGIN IONS
PEPMASS=154.073
CHARGE=1+
MSLEVEL=2
SOURCE_INSTRUMENT=Positive-Quattro_QQQ:10eV
FILENAME=hmdb_intermediate.mgf
SEQ=*..*
IONMODE=Positive
ORGANISM=HMDB
NAME=HMDB:HMDB04816-2412 FAPy-adenine M+H
PI=HMDB
DATACOLLECTOR=HMDB
SMILES=NC1=NC=NC(N)=C1NC=O
INCHI=InChI=1S/C5H7N5O/c6-4-3(10-2-11)5(7)9-1-8-4/h1-2H,(H,10,11)(H4,6,7,8,9)
INCHIAUX=N/A
PUBMED=N/A
SUBMITUSER=mwang87
TAGS=
LIBRARYQUALITY=3
SPECTRUMID=CCMSLIB00000427156
SCANS=2128
154.0 100.0 
END IONS

BEGIN IONS
PEPMASS=122.097
CHARGE=1+
MSLEVEL=2
SOURCE_INSTRUMENT=Positive-Quattro_QQQ:40eV
FILENAME=hmdb_intermediate.mgf
SEQ=*..*
IONMODE=Positive
ORGANISM=HMDB
NAME=HMDB:HMDB01020-1392 N,N-Dimethylaniline M+H
PI=HMDB
DATACOLLECTOR=HMDB
SMILES=CN(C)C1=CC=CC=C1
INCHI=InChI=1S/C8H11N/c1-9(2)8-6-4-3-5-7-8/h3-7H,1-2H3
INCHIAUX=N/A
PUBMED=N/A
SUBMITUSER=mwang87
TAGS=
LIBRARYQUALITY=3
SPECTRUMID=CCMSLIB00000427157
SCANS=2129
77.0 100.0 
END IONS

BEGIN IONS
PEPMASS=159.175
CHARGE=1+
MSLEVEL=2
SOURCE_INSTRUMENT=Positive-Quattro_QQQ:40eV
FILENAME=hmdb_intermediate.mgf
SEQ=*..*
IONMODE=Positive
ORGANISM=HMDB
NAME=HMDB:HMDB11624-2492 Decyl alcohol  M+H
PI=HMDB
DATACOLLECTOR=HMDB
SMILES=CCCCCCCCCCO
INCHI=InChI=1S/C10H22O/c1-2-3-4-5-6-7-8-9-10-11/h11H,2-10H2,1H3
INCHIAUX=N/A
PUBMED=N/A
SUBMITUSER=mwang87
TAGS=
LIBRARYQUALITY=3
SPECTRUMID=CCMSLIB00000427158
SCANS=2130
58.09 51.094 
117.4 55.714 
117.54 100.0 
158.72 83.871 
159.51 76.722 
END IONS

BEGIN IONS
PEPMASS=229.144
CHARGE=1+
MSLEVEL=2
SOURCE_INSTRUMENT=Negative-Quattro_QQQ:10eV
FILENAME=hmdb_intermediate.mgf
SEQ=*..*
IONMODE=Negative
ORGANISM=HMDB
NAME=HMDB:HMDB00623-846 Dodecanedioic acid M-H
PI=HMDB
DATACOLLECTOR=HMDB
SMILES=OC(=O)CCCCCCCCCCC(O)=O
INCHI=InChI=1S/C12H22O4/c13-11(14)9-7-5-3-1-2-4-6-8-10-12(15)16/h1-10H2,(H,13,14)(H,15,16)
INCHIAUX=N/A
PUBMED=N/A
SUBMITUSER=mwang87
TAGS=
LIBRARYQUALITY=3
SPECTRUMID=CCMSLIB00000427159
SCANS=2131
229.182 100.0 
END IONS

BEGIN IONS
PEPMASS=367.358
CHARGE=1+
MSLEVEL=2
SOURCE_INSTRUMENT=Positive-Quattro_QQQ:25eV
FILENAME=hmdb_intermediate.mgf
SEQ=*..*
IONMODE=Positive
ORGANISM=HMDB
NAME=HMDB:HMDB02368-2087 Nervonic acid M+H
PI=HMDB
DATACOLLECTOR=HMDB
SMILES=CCCCCCCC\C=C/CCCCCCCCCCCCCC(O)=O
INCHI=InChI=1S/C24H46O2/c1-2-3-4-5-6-7-8-9-10-11-12-13-14-15-16-17-18-19-20-21-22-23-24(25)26/h9-10H,2-8,11-23H2,1H3,(H,25,26)/b10-9-
INCHIAUX=N/A
PUBMED=N/A
SUBMITUSER=mwang87
TAGS=
LIBRARYQUALITY=3
SPECTRUMID=CCMSLIB00000427160
SCANS=2132
57.0 66.815 
70.0 100.0 
END IONS

BEGIN IONS
PEPMASS=197.066
CHARGE=1+
MSLEVEL=2
SOURCE_INSTRUMENT=Positive-Quattro_QQQ:10eV
FILENAME=hmdb_intermediate.mgf
SEQ=*..*
IONMODE=Positive
ORGANISM=HMDB
NAME=HMDB:HMDB00625-849 Gluconic acid M+H
PI=HMDB
DATACOLLECTOR=HMDB
SMILES=OC[C@@H](O)[C@@H](O)[C@H](O)[C@@H](O)C(O)=O
INCHI=InChI=1S/C6H12O7/c7-1-2(8)3(9)4(10)5(11)6(12)13/h2-5,7-11H,1H2,(H,12,13)/t2-,3-,4+,5-/m1/s1
INCHIAUX=N/A
PUBMED=N/A
SUBMITUSER=mwang87
TAGS=
LIBRARYQUALITY=3
SPECTRUMID=CCMSLIB00000427161
SCANS=2133
178.938 100.0 
END IONS

BEGIN IONS
PEPMASS=121.051
CHARGE=1+
MSLEVEL=2
SOURCE_INSTRUMENT=Positive-Quattro_QQQ:10eV
FILENAME=hmdb_intermediate.mgf
SEQ=*..*
IONMODE=Positive
ORGANISM=HMDB
NAME=HMDB:HMDB01366-1531 Purine M+H
PI=HMDB
DATACOLLECTOR=HMDB
SMILES=N1C=NC2=C1C=NC=N2
INCHI=InChI=1S/C5H4N4/c1-4-5(8-2-6-1)9-3-7-4/h1-3H,(H,6,7,8,9)
INCHIAUX=N/A
PUBMED=N/A
SUBMITUSER=mwang87
TAGS=
LIBRARYQUALITY=3
SPECTRUMID=CCMSLIB00000427162
SCANS=2134
120.999 100.0 
END IONS

BEGIN IONS
PEPMASS=732.615
CHARGE=1+
MSLEVEL=2
SOURCE_INSTRUMENT=Positive-Quattro_QQQ:25eV
FILENAME=hmdb_intermediate.mgf
SEQ=*..*
IONMODE=Positive
ORGANISM=HMDB
NAME=HMDB:HMDB01348-1529 SM(d18:1/18:0) M+H
PI=HMDB
DATACOLLECTOR=HMDB
SMILES=CCCCCCCCCCCCCCCCCC(=O)N[C@@]([H])(COP(O)(=O)OCC[N+](C)(C)C)[C@]([H])(O)\C=C\CCCCCCCCCCCCC
INCHI=InChI=1S/C41H83N2O6P/c1-6-8-10-12-14-16-18-20-21-23-25-27-29-31-33-35-41(45)42-39(38-49-50(46,47)48-37-36-43(3,4)5)40(44)34-32-30-28-26-24-22-19-17-15-13-11-9-7-2/h32,34,39-40,44H,6-31,33,35-38H2,1-5H3,(H-,42,45,46,47)/p+1/b34-32+/t39-,40+/m0/s1
INCHIAUX=N/A
PUBMED=N/A
SUBMITUSER=mwang87
TAGS=
LIBRARYQUALITY=3
SPECTRUMID=CCMSLIB00000427163
SCANS=2135
184.0 100.0 
END IONS

BEGIN IONS
PEPMASS=195.05
CHARGE=1+
MSLEVEL=2
SOURCE_INSTRUMENT=Positive-Quattro_QQQ:10eV
FILENAME=hmdb_intermediate.mgf
SEQ=*..*
IONMODE=Positive
ORGANISM=HMDB
NAME=HMDB:HMDB02545-2116 Galacturonic acid M+H
PI=HMDB
DATACOLLECTOR=HMDB
SMILES=O[C@@H](C=O)[C@@H](O)[C@@H](O)[C@H](O)C(O)=O
INCHI=InChI=1S/C6H10O7/c7-1-2(8)3(9)4(10)5(11)6(12)13/h1-5,8-11H,(H,12,13)/t2-,3+,4+,5-/m0/s1
INCHIAUX=N/A
PUBMED=N/A
SUBMITUSER=mwang87
TAGS=
LIBRARYQUALITY=3
SPECTRUMID=CCMSLIB00000427164
SCANS=2136
163.0 100.0 
END IONS

BEGIN IONS
PEPMASS=116.071
CHARGE=1+
MSLEVEL=2
SOURCE_INSTRUMENT=Positive-Quattro_QQQ:10eV
FILENAME=hmdb_intermediate.mgf
SEQ=*..*
IONMODE=Positive
ORGANISM=HMDB
NAME=HMDB:HMDB00162-254 L-Proline M+H
PI=HMDB
DATACOLLECTOR=HMDB
SMILES=OC(=O)[C@@H]1CCCN1
INCHI=InChI=1S/C5H9NO2/c7-5(8)4-2-1-3-6-4/h4,6H,1-3H2,(H,7,8)/t4-/m0/s1
INCHIAUX=N/A
PUBMED=N/A
SUBMITUSER=mwang87
TAGS=
LIBRARYQUALITY=3
SPECTRUMID=CCMSLIB00000427165
SCANS=2137
70.132 100.0 
115.996 73.725 
END IONS

BEGIN IONS
PEPMASS=131.118
CHARGE=1+
MSLEVEL=2
SOURCE_INSTRUMENT=Positive-Quattro_QQQ:40eV
FILENAME=hmdb_intermediate.mgf
SEQ=*..*
IONMODE=Positive
ORGANISM=HMDB
NAME=HMDB:HMDB02064-1977 N-Acetylputrescine M+H
PI=HMDB
DATACOLLECTOR=HMDB
SMILES=CC(=O)NCCCCN
INCHI=InChI=1S/C6H14N2O/c1-6(9)8-5-3-2-4-7/h2-5,7H2,1H3,(H,8,9)
INCHIAUX=N/A
PUBMED=N/A
SUBMITUSER=mwang87
TAGS=
LIBRARYQUALITY=3
SPECTRUMID=CCMSLIB00000427166
SCANS=2138
72.0 100.0 
END IONS

BEGIN IONS
PEPMASS=159.066
CHARGE=1+
MSLEVEL=2
SOURCE_INSTRUMENT=Negative-Quattro_QQQ:25eV
FILENAME=hmdb_intermediate.mgf
SEQ=*..*
IONMODE=Negative
ORGANISM=HMDB
NAME=HMDB:HMDB00555-777 3-Methyladipic acid M-H
PI=HMDB
DATACOLLECTOR=HMDB
SMILES=C[C@@H](CCC(O)=O)CC(O)=O
INCHI=InChI=1S/C7H12O4/c1-5(4-7(10)11)2-3-6(8)9/h5H,2-4H2,1H3,(H,8,9)(H,10,11)/t5-/m0/s1
INCHIAUX=N/A
PUBMED=N/A
SUBMITUSER=mwang87
TAGS=
LIBRARYQUALITY=3
SPECTRUMID=CCMSLIB00000427167
SCANS=2139
81.144 58.71 
95.292 100.0 
97.287 93.548 
END IONS

BEGIN IONS
PEPMASS=313.311
CHARGE=1+
MSLEVEL=2
SOURCE_INSTRUMENT=Positive-Quattro_QQQ:10eV
FILENAME=hmdb_intermediate.mgf
SEQ=*..*
IONMODE=Positive
ORGANISM=HMDB
NAME=HMDB:HMDB00801-1138 Phytanic acid M+H
PI=HMDB
DATACOLLECTOR=HMDB
SMILES=CC(C)CCCC(C)CCCC(C)CCCC(C)CC(O)=O
INCHI=InChI=1S/C20H40O2/c1-16(2)9-6-10-17(3)11-7-12-18(4)13-8-14-19(5)15-20(21)22/h16-19H,6-15H2,1-5H3,(H,21,22)
INCHIAUX=N/A
PUBMED=N/A
SUBMITUSER=mwang87
TAGS=
LIBRARYQUALITY=3
SPECTRUMID=CCMSLIB00000427168
SCANS=2140
312.87 100.0 
END IONS

BEGIN IONS
PEPMASS=159.139
CHARGE=1+
MSLEVEL=2
SOURCE_INSTRUMENT=Positive-Quattro_QQQ:40eV
FILENAME=hmdb_intermediate.mgf
SEQ=*..*
IONMODE=Positive
ORGANISM=HMDB
NAME=HMDB:HMDB00798-1137 Oenanthic ether M+H
PI=HMDB
DATACOLLECTOR=HMDB
SMILES=CCCCCCC(=O)OCC
INCHI=InChI=1S/C9H18O2/c1-3-5-6-7-8-9(10)11-4-2/h3-8H2,1-2H3
INCHIAUX=N/A
PUBMED=N/A
SUBMITUSER=mwang87
TAGS=
LIBRARYQUALITY=3
SPECTRUMID=CCMSLIB00000427169
SCANS=2141
63.0 95.245 
64.0 100.0 
65.0 74.418 
66.0 62.307 
78.0 81.307 
79.0 54.658 
80.0 58.176 
81.0 74.385 
END IONS

BEGIN IONS
PEPMASS=115.076
CHARGE=1+
MSLEVEL=2
SOURCE_INSTRUMENT=Negative-Quattro_QQQ:10eV
FILENAME=hmdb_intermediate.mgf
SEQ=*..*
IONMODE=Negative
ORGANISM=HMDB
NAME=HMDB:HMDB00535-755 Caproic acid M-H
PI=HMDB
DATACOLLECTOR=HMDB
SMILES=CCCCCC(O)=O
INCHI=InChI=1S/C6H12O2/c1-2-3-4-5-6(7)8/h2-5H2,1H3,(H,7,8)
INCHIAUX=N/A
PUBMED=N/A
SUBMITUSER=mwang87
TAGS=
LIBRARYQUALITY=3
SPECTRUMID=CCMSLIB00000427170
SCANS=2142
115.028 100.0 
END IONS

BEGIN IONS
PEPMASS=60.98
CHARGE=1+
MSLEVEL=2
SOURCE_INSTRUMENT=Negative-Quattro_QQQ:10eV
FILENAME=hmdb_intermediate.mgf
SEQ=*..*
IONMODE=Negative
ORGANISM=HMDB
NAME=HMDB:HMDB02878-2152 Nitrate M-H
PI=HMDB
DATACOLLECTOR=HMDB
SMILES=[O-][N+]([O-])=O
INCHI=InChI=1S/NO3/c2-1(3)4/q-1
INCHIAUX=N/A
PUBMED=N/A
SUBMITUSER=mwang87
TAGS=
LIBRARYQUALITY=3
SPECTRUMID=CCMSLIB00000427171
SCANS=2143
61.0 100.0 
END IONS

BEGIN IONS
PEPMASS=175.12
CHARGE=1+
MSLEVEL=2
SOURCE_INSTRUMENT=Positive-Quattro_QQQ:10eV
FILENAME=hmdb_intermediate.mgf
SEQ=*..*
IONMODE=Positive
ORGANISM=HMDB
NAME=HMDB:HMDB00517-740 L-Arginine M+H
PI=HMDB
DATACOLLECTOR=HMDB
SMILES=N[C@@H](CCCN=C(N)N)C(O)=O
INCHI=InChI=1S/C6H14N4O2/c7-4(5(11)12)2-1-3-10-6(8)9/h4H,1-3,7H2,(H,11,12)(H4,8,9,10)/t4-/m0/s1
INCHIAUX=N/A
PUBMED=N/A
SUBMITUSER=mwang87
TAGS=
LIBRARYQUALITY=3
SPECTRUMID=CCMSLIB00000427172
SCANS=2144
174.943 100.0 
END IONS

BEGIN IONS
PEPMASS=168.066
CHARGE=1+
MSLEVEL=2
SOURCE_INSTRUMENT=Positive-Quattro_QQQ:25eV
FILENAME=hmdb_intermediate.mgf
SEQ=*..*
IONMODE=Positive
ORGANISM=HMDB
NAME=HMDB:HMDB01545-1644 Pyridoxal M+H
PI=HMDB
DATACOLLECTOR=HMDB
SMILES=CC1=C(O)C(C=O)=C(CO)C=N1
INCHI=InChI=1S/C8H9NO3/c1-5-8(12)7(4-11)6(3-10)2-9-5/h2,4,10,12H,3H2,1H3
INCHIAUX=N/A
PUBMED=N/A
SUBMITUSER=mwang87
TAGS=
LIBRARYQUALITY=3
SPECTRUMID=CCMSLIB00000427173
SCANS=2145
67.174 59.346 
94.039 100.0 
149.936 77.57 
END IONS

BEGIN IONS
PEPMASS=303.014
CHARGE=1+
MSLEVEL=2
SOURCE_INSTRUMENT=Positive-Quattro_QQQ:25eV
FILENAME=hmdb_intermediate.mgf
SEQ=*..*
IONMODE=Positive
ORGANISM=HMDB
NAME=HMDB:HMDB02899-2156 Ellagic acid M+H
PI=HMDB
DATACOLLECTOR=HMDB
SMILES=OC1=C(O)C2=C3C(=C1)C(=O)OC1=C3C(=CC(O)=C1O)C(=O)O2
INCHI=InChI=1S/C14H6O8/c15-5-1-3-7-8-4(14(20)22-11(7)9(5)17)2-6(16)10(18)12(8)21-13(3)19/h1-2,15-18H
INCHIAUX=N/A
PUBMED=N/A
SUBMITUSER=mwang87
TAGS=
LIBRARYQUALITY=3
SPECTRUMID=CCMSLIB00000427174
SCANS=2146
256.0 89.918 
274.0 53.999 
284.0 62.642 
302.0 100.0 
END IONS

BEGIN IONS
PEPMASS=241.032
CHARGE=1+
MSLEVEL=2
SOURCE_INSTRUMENT=Positive-Quattro_QQQ:40eV
FILENAME=hmdb_intermediate.mgf
SEQ=*..*
IONMODE=Positive
ORGANISM=HMDB
NAME=HMDB:HMDB00192-309 L-Cystine M+H
PI=HMDB
DATACOLLECTOR=HMDB
SMILES=N[C@@H](CSSC[C@H](N)C(O)=O)C(O)=O
INCHI=InChI=1S/C6H12N2O4S2/c7-3(5(9)10)1-13-14-2-4(8)6(11)12/h3-4H,1-2,7-8H2,(H,9,10)(H,11,12)/t3-,4-/m0/s1
INCHIAUX=N/A
PUBMED=N/A
SUBMITUSER=mwang87
TAGS=
LIBRARYQUALITY=3
SPECTRUMID=CCMSLIB00000427175
SCANS=2147
73.983 100.0 
END IONS

BEGIN IONS
PEPMASS=132.081
CHARGE=1+
MSLEVEL=2
SOURCE_INSTRUMENT=Positive-Quattro_QQQ:10eV
FILENAME=hmdb_intermediate.mgf
SEQ=*..*
IONMODE=Positive
ORGANISM=HMDB
NAME=HMDB:HMDB00466-674 3-Methylindole M+H
PI=HMDB
DATACOLLECTOR=HMDB
SMILES=CC1=CNC2=C1C=CC=C2
INCHI=InChI=1S/C9H9N/c1-7-6-10-9-5-3-2-4-8(7)9/h2-6,10H,1H3
INCHIAUX=N/A
PUBMED=N/A
SUBMITUSER=mwang87
TAGS=
LIBRARYQUALITY=3
SPECTRUMID=CCMSLIB00000427176
SCANS=2148
131.94 100.0 
END IONS

BEGIN IONS
PEPMASS=225.088
CHARGE=1+
MSLEVEL=2
SOURCE_INSTRUMENT=Positive-Quattro_QQQ:10eV
FILENAME=hmdb_intermediate.mgf
SEQ=*..*
IONMODE=Positive
ORGANISM=HMDB
NAME=HMDB:HMDB00732-1032 Hydroxykynurenine M+H
PI=HMDB
DATACOLLECTOR=HMDB
SMILES=NC(CC(=O)C1=C(N)C(O)=CC=C1)C(O)=O
INCHI=InChI=1S/C10H12N2O4/c11-6(10(15)16)4-8(14)5-2-1-3-7(13)9(5)12/h1-3,6,13H,4,11-12H2,(H,15,16)
INCHIAUX=N/A
PUBMED=N/A
SUBMITUSER=mwang87
TAGS=
LIBRARYQUALITY=3
SPECTRUMID=CCMSLIB00000427177
SCANS=2149
207.896 100.0 
END IONS

BEGIN IONS
PEPMASS=156.077
CHARGE=1+
MSLEVEL=2
SOURCE_INSTRUMENT=Positive-Quattro_QQQ:40eV
FILENAME=hmdb_intermediate.mgf
SEQ=*..*
IONMODE=Positive
ORGANISM=HMDB
NAME=HMDB:HMDB00177-285 L-Histidine M+H
PI=HMDB
DATACOLLECTOR=HMDB
SMILES=N[C@@H](CC1=CNC=N1)C(O)=O
INCHI=InChI=1S/C6H9N3O2/c7-5(6(10)11)1-4-2-8-3-9-4/h2-3,5H,1,7H2,(H,8,9)(H,10,11)/t5-/m0/s1
INCHIAUX=N/A
PUBMED=N/A
SUBMITUSER=mwang87
TAGS=
LIBRARYQUALITY=3
SPECTRUMID=CCMSLIB00000427178
SCANS=2150
56.008 100.0 
81.1 81.304 
82.24 91.739 
END IONS

BEGIN IONS
PEPMASS=123.045
CHARGE=1+
MSLEVEL=2
SOURCE_INSTRUMENT=Positive-Quattro_QQQ:25eV
FILENAME=hmdb_intermediate.mgf
SEQ=*..*
IONMODE=Positive
ORGANISM=HMDB
NAME=HMDB:HMDB01870-1757 Benzoic acid M+H
PI=HMDB
DATACOLLECTOR=HMDB
SMILES=OC(=O)C1=CC=CC=C1
INCHI=InChI=1S/C7H6O2/c8-7(9)6-4-2-1-3-5-6/h1-5H,(H,8,9)
INCHIAUX=N/A
PUBMED=N/A
SUBMITUSER=mwang87
TAGS=
LIBRARYQUALITY=3
SPECTRUMID=CCMSLIB00000427179
SCANS=2151
77.082 100.0 
END IONS

BEGIN IONS
PEPMASS=164.094
CHARGE=1+
MSLEVEL=2
SOURCE_INSTRUMENT=Positive-Quattro_QQQ:40eV
FILENAME=hmdb_intermediate.mgf
SEQ=*..*
IONMODE=Positive
ORGANISM=HMDB
NAME=HMDB:HMDB00473-691 6-Dimethylaminopurine M+H
PI=HMDB
DATACOLLECTOR=HMDB
SMILES=CN(C)C1=NC=NC2=C1NC=N2
INCHI=InChI=1S/C7H9N5/c1-12(2)7-5-6(9-3-8-5)10-4-11-7/h3-4H,1-2H3,(H,8,9,10,11)
INCHIAUX=N/A
PUBMED=N/A
SUBMITUSER=mwang87
TAGS=
LIBRARYQUALITY=3
SPECTRUMID=CCMSLIB00000427180
SCANS=2152
92.885 100.0 
119.657 75.258 
END IONS

BEGIN IONS
PEPMASS=154.05
CHARGE=1+
MSLEVEL=2
SOURCE_INSTRUMENT=Positive-Quattro_QQQ:40eV
FILENAME=hmdb_intermediate.mgf
SEQ=*..*
IONMODE=Positive
ORGANISM=HMDB
NAME=HMDB:HMDB01476-1597 3-Hydroxyanthranilic acid M+H
PI=HMDB
DATACOLLECTOR=HMDB
SMILES=NC1=C(O)C=CC=C1C(O)=O
INCHI=InChI=1S/C7H7NO3/c8-6-4(7(10)11)2-1-3-5(6)9/h1-3,9H,8H2,(H,10,11)
INCHIAUX=N/A
PUBMED=N/A
SUBMITUSER=mwang87
TAGS=
LIBRARYQUALITY=3
SPECTRUMID=CCMSLIB00000427181
SCANS=2153
80.0 100.0 
END IONS

BEGIN IONS
PEPMASS=310.114
CHARGE=1+
MSLEVEL=2
SOURCE_INSTRUMENT=Positive-Quattro_QQQ:10eV
FILENAME=hmdb_intermediate.mgf
SEQ=*..*
IONMODE=Positive
ORGANISM=HMDB
NAME=HMDB:HMDB00230-385 N-Acetylneuraminic acid M+H
PI=HMDB
DATACOLLECTOR=HMDB
SMILES=CC(=O)N[C@@H]1[C@@H](O)C[C@](O)(O[C@H]1[C@H](O)[C@H](O)CO)C(O)=O
INCHI=InChI=1S/C11H19NO9/c1-4(14)12-7-5(15)2-11(20,10(18)19)21-9(7)8(17)6(16)3-13/h5-9,13,15-17,20H,2-3H2,1H3,(H,12,14)(H,18,19)/t5-,6+,7+,8+,9+,11-/m0/s1
INCHIAUX=N/A
PUBMED=N/A
SUBMITUSER=mwang87
TAGS=
LIBRARYQUALITY=3
SPECTRUMID=CCMSLIB00000427182
SCANS=2154
273.978 100.0 
END IONS

BEGIN IONS
PEPMASS=171.024
CHARGE=1+
MSLEVEL=2
SOURCE_INSTRUMENT=Positive-Quattro_QQQ:10eV
FILENAME=hmdb_intermediate.mgf
SEQ=*..*
IONMODE=Positive
ORGANISM=HMDB
NAME=HMDB:HMDB01460-1586 Diethylthiophosphate M+H
PI=HMDB
DATACOLLECTOR=HMDB
SMILES=CCOP(O)(=S)OCC
INCHI=InChI=1S/C4H11O3PS/c1-3-6-8(5,9)7-4-2/h3-4H2,1-2H3,(H,5,9)
INCHIAUX=N/A
PUBMED=N/A
SUBMITUSER=mwang87
TAGS=
LIBRARYQUALITY=3
SPECTRUMID=CCMSLIB00000427183
SCANS=2155
115.0 100.0 
143.0 62.531 
END IONS

BEGIN IONS
PEPMASS=205.098
CHARGE=1+
MSLEVEL=2
SOURCE_INSTRUMENT=Positive-Quattro_QQQ:40eV
FILENAME=hmdb_intermediate.mgf
SEQ=*..*
IONMODE=Positive
ORGANISM=HMDB
NAME=HMDB:HMDB00929-1323 L-Tryptophan M+H
PI=HMDB
DATACOLLECTOR=HMDB
SMILES=N[C@@H](CC1=CNC2=CC=CC=C12)C(O)=O
INCHI=InChI=1S/C11H12N2O2/c12-9(11(14)15)5-7-6-13-10-4-2-1-3-8(7)10/h1-4,6,9,13H,5,12H2,(H,14,15)/t9-/m0/s1
INCHIAUX=N/A
PUBMED=N/A
SUBMITUSER=mwang87
TAGS=
LIBRARYQUALITY=3
SPECTRUMID=CCMSLIB00000427184
SCANS=2156
90.881 100.0 
114.972 69.915 
117.018 78.39 
END IONS

BEGIN IONS
PEPMASS=167.071
CHARGE=1+
MSLEVEL=2
SOURCE_INSTRUMENT=Positive-Quattro_QQQ:25eV
FILENAME=hmdb_intermediate.mgf
SEQ=*..*
IONMODE=Positive
ORGANISM=HMDB
NAME=HMDB:HMDB02072-1982 4-Methoxyphenylacetic acid M+H
PI=HMDB
DATACOLLECTOR=HMDB
SMILES=COC1=CC=C(CC(O)=O)C=C1
INCHI=InChI=1S/C9H10O3/c1-12-8-4-2-7(3-5-8)6-9(10)11/h2-5H,6H2,1H3,(H,10,11)
INCHIAUX=N/A
PUBMED=N/A
SUBMITUSER=mwang87
TAGS=
LIBRARYQUALITY=3
SPECTRUMID=CCMSLIB00000427185
SCANS=2157
121.0 100.0 
END IONS

BEGIN IONS
PEPMASS=287.113
CHARGE=1+
MSLEVEL=2
SOURCE_INSTRUMENT=Positive-Quattro_QQQ:25eV
FILENAME=hmdb_intermediate.mgf
SEQ=*..*
IONMODE=Positive
ORGANISM=HMDB
NAME=HMDB:HMDB03546-2326 Salicin M+H
PI=HMDB
DATACOLLECTOR=HMDB
SMILES=OC[C@H]1O[C@@H](OC2=C(CO)C=CC=C2)[C@H](O)[C@@H](O)[C@@H]1O
INCHI=InChI=1S/C13H18O7/c14-5-7-3-1-2-4-8(7)19-13-12(18)11(17)10(16)9(6-15)20-13/h1-4,9-18H,5-6H2/t9-,10-,11+,12-,13-/m1/s1
INCHIAUX=N/A
PUBMED=N/A
SUBMITUSER=mwang87
TAGS=
LIBRARYQUALITY=3
SPECTRUMID=CCMSLIB00000427186
SCANS=2158
106.87 100.0 
END IONS

BEGIN IONS
PEPMASS=148.061
CHARGE=1+
MSLEVEL=2
SOURCE_INSTRUMENT=Positive-Quattro_QQQ:25eV
FILENAME=hmdb_intermediate.mgf
SEQ=*..*
IONMODE=Positive
ORGANISM=HMDB
NAME=HMDB:HMDB02393-2099 N-Methyl-D-aspartic acid M+H
PI=HMDB
DATACOLLECTOR=HMDB
SMILES=CN[C@H](CC(O)=O)C(O)=O
INCHI=InChI=1S/C5H9NO4/c1-6-3(5(9)10)2-4(7)8/h3,6H,2H2,1H3,(H,7,8)(H,9,10)/t3-/m1/s1
INCHIAUX=N/A
PUBMED=N/A
SUBMITUSER=mwang87
TAGS=
LIBRARYQUALITY=3
SPECTRUMID=CCMSLIB00000427187
SCANS=2159
42.0 100.0 
88.0 65.469 
END IONS

BEGIN IONS
PEPMASS=315.149
CHARGE=1+
MSLEVEL=2
SOURCE_INSTRUMENT=Positive-Quattro_QQQ:10eV
FILENAME=hmdb_intermediate.mgf
SEQ=*..*
IONMODE=Positive
ORGANISM=HMDB
NAME=HMDB:HMDB01930-1869 Ranitidine M+H
PI=HMDB
DATACOLLECTOR=HMDB
SMILES=CN\C(NCCSCC1=CC=C(CN(C)C)O1)=C/[N+]([O-])=O
INCHI=InChI=1S/C13H22N4O3S/c1-14-13(9-17(18)19)15-6-7-21-10-12-5-4-11(20-12)8-16(2)3/h4-5,9,14-15H,6-8,10H2,1-3H3/b13-9+
INCHIAUX=N/A
PUBMED=N/A
SUBMITUSER=mwang87
TAGS=
LIBRARYQUALITY=3
SPECTRUMID=CCMSLIB00000427188
SCANS=2160
57.229 60.176 
149.557 100.0 
END IONS

BEGIN IONS
PEPMASS=143.046
CHARGE=1+
MSLEVEL=2
SOURCE_INSTRUMENT=Positive-Quattro_QQQ:10eV
FILENAME=hmdb_intermediate.mgf
SEQ=*..*
IONMODE=Positive
ORGANISM=HMDB
NAME=HMDB:HMDB00469-683 5-Hydroxymethyluracil M+H
PI=HMDB
DATACOLLECTOR=HMDB
SMILES=OCC1=CNC(=O)NC1=O
INCHI=InChI=1S/C5H6N2O3/c8-2-3-1-6-5(10)7-4(3)9/h1,8H,2H2,(H2,6,7,9,10)
INCHIAUX=N/A
PUBMED=N/A
SUBMITUSER=mwang87
TAGS=
LIBRARYQUALITY=3
SPECTRUMID=CCMSLIB00000427189
SCANS=2161
124.978 100.0 
END IONS

BEGIN IONS
PEPMASS=103.04
CHARGE=1+
MSLEVEL=2
SOURCE_INSTRUMENT=Negative-Quattro_QQQ:40eV
FILENAME=hmdb_intermediate.mgf
SEQ=*..*
IONMODE=Negative
ORGANISM=HMDB
NAME=HMDB:HMDB00729-1025 Alpha-Hydroxyisobutyric acid M-H
PI=HMDB
DATACOLLECTOR=HMDB
SMILES=CC(C)(O)C(O)=O
INCHI=InChI=1S/C4H8O3/c1-4(2,7)3(5)6/h7H,1-2H3,(H,5,6)
INCHIAUX=N/A
PUBMED=N/A
SUBMITUSER=mwang87
TAGS=
LIBRARYQUALITY=3
SPECTRUMID=CCMSLIB00000427190
SCANS=2162
41.609 52.941 
45.442 100.0 
57.392 88.235 
103.225 92.437 
END IONS

BEGIN IONS
PEPMASS=126.022
CHARGE=1+
MSLEVEL=2
SOURCE_INSTRUMENT=Positive-Quattro_QQQ:10eV
FILENAME=hmdb_intermediate.mgf
SEQ=*..*
IONMODE=Positive
ORGANISM=HMDB
NAME=HMDB:HMDB00251-430 Taurine M+H
PI=HMDB
DATACOLLECTOR=HMDB
SMILES=NCCS(O)(=O)=O
INCHI=InChI=1S/C2H7NO3S/c3-1-2-7(4,5)6/h1-3H2,(H,4,5,6)
INCHIAUX=N/A
PUBMED=N/A
SUBMITUSER=mwang87
TAGS=
LIBRARYQUALITY=3
SPECTRUMID=CCMSLIB00000427191
SCANS=2163
125.939 100.0 
END IONS

BEGIN IONS
PEPMASS=165.076
CHARGE=1+
MSLEVEL=2
SOURCE_INSTRUMENT=Positive-Quattro_QQQ:25eV
FILENAME=hmdb_intermediate.mgf
SEQ=*..*
IONMODE=Positive
ORGANISM=HMDB
NAME=HMDB:HMDB00174-275 L-Fucose M+H
PI=HMDB
DATACOLLECTOR=HMDB
SMILES=C[C@@H]1OC(O)[C@@H](O)[C@H](O)[C@@H]1O
INCHI=InChI=1S/C6H12O5/c1-2-3(7)4(8)5(9)6(10)11-2/h2-10H,1H3/t2-,3+,4+,5-,6?/m0/s1
INCHIAUX=N/A
PUBMED=N/A
SUBMITUSER=mwang87
TAGS=
LIBRARYQUALITY=3
SPECTRUMID=CCMSLIB00000427192
SCANS=2164
69.0 100.0 
END IONS

BEGIN IONS
PEPMASS=181.05
CHARGE=1+
MSLEVEL=2
SOURCE_INSTRUMENT=Positive-Quattro_QQQ:25eV
FILENAME=hmdb_intermediate.mgf
SEQ=*..*
IONMODE=Positive
ORGANISM=HMDB
NAME=HMDB:HMDB01964-1912 Caffeic acid M+H
PI=HMDB
DATACOLLECTOR=HMDB
SMILES=OC(=O)\C=C/C1=CC=C(O)C(O)=C1
INCHI=InChI=1S/C9H8O4/c10-7-3-1-6(5-8(7)11)2-4-9(12)13/h1-5,10-11H,(H,12,13)/b4-2-
INCHIAUX=N/A
PUBMED=N/A
SUBMITUSER=mwang87
TAGS=
LIBRARYQUALITY=3
SPECTRUMID=CCMSLIB00000427193
SCANS=2165
88.0 100.0 
116.0 75.063 
END IONS

BEGIN IONS
PEPMASS=219.113
CHARGE=1+
MSLEVEL=2
SOURCE_INSTRUMENT=Positive-Quattro_QQQ:25eV
FILENAME=hmdb_intermediate.mgf
SEQ=*..*
IONMODE=Positive
ORGANISM=HMDB
NAME=HMDB:HMDB01238-1479 N-Acetylserotonin M+H
PI=HMDB
DATACOLLECTOR=HMDB
SMILES=CC(=O)NCCC1=CNC2=C1C=C(O)C=C2
INCHI=InChI=1S/C12H14N2O2/c1-8(15)13-5-4-9-7-14-12-3-2-10(16)6-11(9)12/h2-3,6-7,14,16H,4-5H2,1H3,(H,13,15)
INCHIAUX=N/A
PUBMED=N/A
SUBMITUSER=mwang87
TAGS=
LIBRARYQUALITY=3
SPECTRUMID=CCMSLIB00000427194
SCANS=2166
160.0 100.0 
END IONS

BEGIN IONS
PEPMASS=377.146
CHARGE=1+
MSLEVEL=2
SOURCE_INSTRUMENT=Positive-Quattro_QQQ:25eV
FILENAME=hmdb_intermediate.mgf
SEQ=*..*
IONMODE=Positive
ORGANISM=HMDB
NAME=HMDB:HMDB00244-413 Riboflavin M+H
PI=HMDB
DATACOLLECTOR=HMDB
SMILES=CC1=C(C)C=C2N(C[C@H](O)[C@H](O)[C@H](O)CO)C3=NC(=O)NC(=O)C3=NC2=C1
INCHI=InChI=1S/C17H20N4O6/c1-7-3-9-10(4-8(7)2)21(5-11(23)14(25)12(24)6-22)15-13(18-9)16(26)20-17(27)19-15/h3-4,11-12,14,22-25H,5-6H2,1-2H3,(H,20,26,27)/t11-,12+,14-/m0/s1
INCHIAUX=N/A
PUBMED=N/A
SUBMITUSER=mwang87
TAGS=
LIBRARYQUALITY=3
SPECTRUMID=CCMSLIB00000427195
SCANS=2167
242.0 100.0 
243.0 72.681 
END IONS

BEGIN IONS
PEPMASS=375.29
CHARGE=1+
MSLEVEL=2
SOURCE_INSTRUMENT=Positive-Quattro_QQQ:40eV
FILENAME=hmdb_intermediate.mgf
SEQ=*..*
IONMODE=Positive
ORGANISM=HMDB
NAME=HMDB:HMDB00308-527 3b-Hydroxy-5-cholenoic acid M+H
PI=HMDB
DATACOLLECTOR=HMDB
SMILES=[H][C@@]12CC[C@H]([C@H](C)CCC(O)=O)[C@@]1(C)CC[C@@]1([H])[C@@]2([H])CC=C2C[C@@H](O)CC[C@]12C
INCHI=InChI=1S/C24H38O3/c1-15(4-9-22(26)27)19-7-8-20-18-6-5-16-14-17(25)10-12-23(16,2)21(18)11-13-24(19,20)3/h5,15,17-21,25H,4,6-14H2,1-3H3,(H,26,27)/t15-,17+,18+,19-,20+,21+,23+,24-/m1/s1
INCHIAUX=N/A
PUBMED=N/A
SUBMITUSER=mwang87
TAGS=
LIBRARYQUALITY=3
SPECTRUMID=CCMSLIB00000427196
SCANS=2168
164.856 95.22 
200.056 100.0 
END IONS

BEGIN IONS
PEPMASS=115.112
CHARGE=1+
MSLEVEL=2
SOURCE_INSTRUMENT=Positive-Quattro_QQQ:10eV
FILENAME=hmdb_intermediate.mgf
SEQ=*..*
IONMODE=Positive
ORGANISM=HMDB
NAME=HMDB:HMDB03671-2340 2-Heptanone M+H
PI=HMDB
DATACOLLECTOR=HMDB
SMILES=CCCCCC(C)=O
INCHI=InChI=1S/C7H14O/c1-3-4-5-6-7(2)8/h3-6H2,1-2H3
INCHIAUX=N/A
PUBMED=N/A
SUBMITUSER=mwang87
TAGS=
LIBRARYQUALITY=3
SPECTRUMID=CCMSLIB00000427197
SCANS=2169
73.95 100.0 
END IONS

BEGIN IONS
PEPMASS=131.118
CHARGE=1+
MSLEVEL=2
SOURCE_INSTRUMENT=Positive-Quattro_QQQ:10eV
FILENAME=hmdb_intermediate.mgf
SEQ=*..*
IONMODE=Positive
ORGANISM=HMDB
NAME=HMDB:HMDB60268-1975 N-Acetylputrescinium M+H
PI=HMDB
DATACOLLECTOR=HMDB
SMILES=CC(O)=NCCCCN
INCHI=InChI=1S/C6H14N2O/c1-6(9)8-5-3-2-4-7/h2-5,7H2,1H3,(H,8,9)
INCHIAUX=N/A
PUBMED=N/A
SUBMITUSER=mwang87
TAGS=
LIBRARYQUALITY=3
SPECTRUMID=CCMSLIB00000427198
SCANS=2170
72.0 59.069 
114.0 100.0 
END IONS

BEGIN IONS
PEPMASS=370.084
CHARGE=1+
MSLEVEL=2
SOURCE_INSTRUMENT=Positive-Quattro_QQQ:25eV
FILENAME=hmdb_intermediate.mgf
SEQ=*..*
IONMODE=Positive
ORGANISM=HMDB
NAME=HMDB:HMDB05008-2440 Lansoprazole M+H
PI=HMDB
DATACOLLECTOR=HMDB
SMILES=CC1=C(OCC(F)(F)F)C=CN=C1CS(=O)C1=NC2=CC=CC=C2N1
INCHI=InChI=1S/C16H14F3N3O2S/c1-10-13(20-7-6-14(10)24-9-16(17,18)19)8-25(23)15-21-11-4-2-3-5-12(11)22-15/h2-7H,8-9H2,1H3,(H,21,22)
INCHIAUX=N/A
PUBMED=N/A
SUBMITUSER=mwang87
TAGS=
LIBRARYQUALITY=3
SPECTRUMID=CCMSLIB00000427199
SCANS=2171
118.91 83.431 
251.82 100.0 
END IONS

BEGIN IONS
PEPMASS=121.051
CHARGE=1+
MSLEVEL=2
SOURCE_INSTRUMENT=Positive-Quattro_QQQ:25eV
FILENAME=hmdb_intermediate.mgf
SEQ=*..*
IONMODE=Positive
ORGANISM=HMDB
NAME=HMDB:HMDB01366-1532 Purine M+H
PI=HMDB
DATACOLLECTOR=HMDB
SMILES=N1C=NC2=C1C=NC=N2
INCHI=InChI=1S/C5H4N4/c1-4-5(8-2-6-1)9-3-7-4/h1-3H,(H,6,7,8,9)
INCHIAUX=N/A
PUBMED=N/A
SUBMITUSER=mwang87
TAGS=
LIBRARYQUALITY=3
SPECTRUMID=CCMSLIB00000427200
SCANS=2172
67.149 58.424 
94.054 100.0 
120.921 69.565 
END IONS

BEGIN IONS
PEPMASS=325.311
CHARGE=1+
MSLEVEL=2
SOURCE_INSTRUMENT=Negative-Quattro_QQQ:40eV
FILENAME=hmdb_intermediate.mgf
SEQ=*..*
IONMODE=Negative
ORGANISM=HMDB
NAME=HMDB:HMDB02345-2069 Heneicosanoic acid M-H
PI=HMDB
DATACOLLECTOR=HMDB
SMILES=CCCCCCCCCCCCCCCCCCCCC(O)=O
INCHI=InChI=1S/C21H42O2/c1-2-3-4-5-6-7-8-9-10-11-12-13-14-15-16-17-18-19-20-21(22)23/h2-20H2,1H3,(H,22,23)
INCHIAUX=N/A
PUBMED=N/A
SUBMITUSER=mwang87
TAGS=
LIBRARYQUALITY=3
SPECTRUMID=CCMSLIB00000427201
SCANS=2173
233.13 100.0 
END IONS

BEGIN IONS
PEPMASS=227.201
CHARGE=1+
MSLEVEL=2
SOURCE_INSTRUMENT=Negative-Quattro_QQQ:10eV
FILENAME=hmdb_intermediate.mgf
SEQ=*..*
IONMODE=Negative
ORGANISM=HMDB
NAME=HMDB:HMDB00806-1150 Myristic acid M-H
PI=HMDB
DATACOLLECTOR=HMDB
SMILES=CCCCCCCCCCCCCC(O)=O
INCHI=InChI=1S/C14H28O2/c1-2-3-4-5-6-7-8-9-10-11-12-13-14(15)16/h2-13H2,1H3,(H,15,16)
INCHIAUX=N/A
PUBMED=N/A
SUBMITUSER=mwang87
TAGS=
LIBRARYQUALITY=3
SPECTRUMID=CCMSLIB00000427202
SCANS=2174
227.101 100.0 
END IONS

BEGIN IONS
PEPMASS=159.052
CHARGE=1+
MSLEVEL=2
SOURCE_INSTRUMENT=Positive-Quattro_QQQ:10eV
FILENAME=hmdb_intermediate.mgf
SEQ=*..*
IONMODE=Positive
ORGANISM=HMDB
NAME=HMDB:HMDB00462-671 Allantoin M+H
PI=HMDB
DATACOLLECTOR=HMDB
SMILES=NC(=O)NC1NC(=O)NC1=O
INCHI=InChI=1S/C4H6N4O3/c5-3(10)6-1-2(9)8-4(11)7-1/h1H,(H3,5,6,10)(H2,7,8,9,11)
INCHIAUX=N/A
PUBMED=N/A
SUBMITUSER=mwang87
TAGS=
LIBRARYQUALITY=3
SPECTRUMID=CCMSLIB00000427203
SCANS=2175
61.165 61.012 
115.968 100.0 
END IONS

BEGIN IONS
PEPMASS=464.082
CHARGE=1+
MSLEVEL=2
SOURCE_INSTRUMENT=Positive-Quattro_QQQ:25eV
FILENAME=hmdb_intermediate.mgf
SEQ=*..*
IONMODE=Positive
ORGANISM=HMDB
NAME=HMDB:HMDB00536-759 Adenylsuccinic acid M+H
PI=HMDB
DATACOLLECTOR=HMDB
SMILES=O[C@@H]1[C@@H](COP(O)(O)=O)O[C@H]([C@@H]1O)N1C=NC2=C1N=CN=C2NC(CC(O)=O)C(O)=O
INCHI=InChI=1S/C14H18N5O11P/c20-7(21)1-5(14(24)25)18-11-8-12(16-3-15-11)19(4-17-8)13-10(23)9(22)6(30-13)2-29-31(26,27)28/h3-6,9-10,13,22-23H,1-2H2,(H,20,21)(H,24,25)(H,15,16,18)(H2,26,27,28)/t5?,6-,9-,10-,13-/m1/s1
INCHIAUX=N/A
PUBMED=N/A
SUBMITUSER=mwang87
TAGS=
LIBRARYQUALITY=3
SPECTRUMID=CCMSLIB00000427204
SCANS=2176
251.0 96.296 
252.0 100.0 
END IONS

BEGIN IONS
PEPMASS=73.0653
CHARGE=1+
MSLEVEL=2
SOURCE_INSTRUMENT=Positive-Quattro_QQQ:10eV
FILENAME=hmdb_intermediate.mgf
SEQ=*..*
IONMODE=Positive
ORGANISM=HMDB
NAME=HMDB:HMDB00474-692 Butanone M+H
PI=HMDB
DATACOLLECTOR=HMDB
SMILES=CCC(C)=O
INCHI=InChI=1S/C4H8O/c1-3-4(2)5/h3H2,1-2H3
INCHIAUX=N/A
PUBMED=N/A
SUBMITUSER=mwang87
TAGS=
LIBRARYQUALITY=3
SPECTRUMID=CCMSLIB00000427205
SCANS=2177
55.0 60.163 
73.0 100.0 
END IONS

BEGIN IONS
PEPMASS=169.036
CHARGE=1+
MSLEVEL=2
SOURCE_INSTRUMENT=Positive-Quattro_QQQ:10eV
FILENAME=hmdb_intermediate.mgf
SEQ=*..*
IONMODE=Positive
ORGANISM=HMDB
NAME=HMDB:HMDB00289-489 Uric acid M+H
PI=HMDB
DATACOLLECTOR=HMDB
SMILES=O=C1NC2=C(N1)C(=O)NC(=O)N2
INCHI=InChI=1S/C5H4N4O3/c10-3-1-2(7-4(11)6-1)8-5(12)9-3/h(H4,6,7,8,9,10,11,12)
INCHIAUX=N/A
PUBMED=N/A
SUBMITUSER=mwang87
TAGS=
LIBRARYQUALITY=3
SPECTRUMID=CCMSLIB00000427206
SCANS=2178
168.916 100.0 
END IONS

BEGIN IONS
PEPMASS=391.285
CHARGE=1+
MSLEVEL=2
SOURCE_INSTRUMENT=Negative-Quattro_QQQ:40eV
FILENAME=hmdb_intermediate.mgf
SEQ=*..*
IONMODE=Negative
ORGANISM=HMDB
NAME=HMDB:HMDB00626-854 Deoxycholic acid M-H
PI=HMDB
DATACOLLECTOR=HMDB
SMILES=[H][C@@]12CC[C@H]([C@H](C)CCC(O)=O)[C@@]1(C)[C@@H](O)C[C@@]1([H])[C@@]2([H])CC[C@]2([H])C[C@H](O)CC[C@]12C
INCHI=InChI=1S/C24H40O4/c1-14(4-9-22(27)28)18-7-8-19-17-6-5-15-12-16(25)10-11-23(15,2)20(17)13-21(26)24(18,19)3/h14-21,25-26H,4-13H2,1-3H3,(H,27,28)/t14-,15-,16-,17+,18-,19+,20+,21+,23+,24-/m1/s1
INCHIAUX=N/A
PUBMED=N/A
SUBMITUSER=mwang87
TAGS=
LIBRARYQUALITY=3
SPECTRUMID=CCMSLIB00000427207
SCANS=2179
69.208 61.392 
343.3 92.405 
345.284 100.0 
391.316 77.215 
END IONS

BEGIN IONS
PEPMASS=72.0449
CHARGE=1+
MSLEVEL=2
SOURCE_INSTRUMENT=Positive-Quattro_QQQ:25eV
FILENAME=hmdb_intermediate.mgf
SEQ=*..*
IONMODE=Positive
ORGANISM=HMDB
NAME=HMDB:HMDB04296-2380 Acrylamide M+H
PI=HMDB
DATACOLLECTOR=HMDB
SMILES=NC(=O)C=C
INCHI=InChI=1S/C3H5NO/c1-2-3(4)5/h2H,1H2,(H2,4,5)
INCHIAUX=N/A
PUBMED=N/A
SUBMITUSER=mwang87
TAGS=
LIBRARYQUALITY=3
SPECTRUMID=CCMSLIB00000427208
SCANS=2180
54.871 100.0 
END IONS

BEGIN IONS
PEPMASS=147.077
CHARGE=1+
MSLEVEL=2
SOURCE_INSTRUMENT=Positive-Quattro_QQQ:25eV
FILENAME=hmdb_intermediate.mgf
SEQ=*..*
IONMODE=Positive
ORGANISM=HMDB
NAME=HMDB:HMDB03423-2302 D-Glutamine M+H
PI=HMDB
DATACOLLECTOR=HMDB
SMILES=N[C@H](CCC(N)=O)C(O)=O
INCHI=InChI=1S/C5H10N2O3/c6-3(5(9)10)1-2-4(7)8/h3H,1-2,6H2,(H2,7,8)(H,9,10)/t3-/m1/s1
INCHIAUX=N/A
PUBMED=N/A
SUBMITUSER=mwang87
TAGS=
LIBRARYQUALITY=3
SPECTRUMID=CCMSLIB00000427209
SCANS=2181
83.962 100.0 
END IONS

BEGIN IONS
PEPMASS=131.034
CHARGE=1+
MSLEVEL=2
SOURCE_INSTRUMENT=Negative-Quattro_QQQ:25eV
FILENAME=hmdb_intermediate.mgf
SEQ=*..*
IONMODE=Negative
ORGANISM=HMDB
NAME=HMDB:HMDB00622-844 Ethylmalonic acid M-H
PI=HMDB
DATACOLLECTOR=HMDB
SMILES=CCC(C(O)=O)C(O)=O
INCHI=InChI=1S/C5H8O4/c1-2-3(4(6)7)5(8)9/h3H,2H2,1H3,(H,6,7)(H,8,9)
INCHIAUX=N/A
PUBMED=N/A
SUBMITUSER=mwang87
TAGS=
LIBRARYQUALITY=3
SPECTRUMID=CCMSLIB00000427210
SCANS=2182
41.657 100.0 
END IONS

BEGIN IONS
PEPMASS=143.009
CHARGE=1+
MSLEVEL=2
SOURCE_INSTRUMENT=Positive-Quattro_QQQ:25eV
FILENAME=hmdb_intermediate.mgf
SEQ=*..*
IONMODE=Positive
ORGANISM=HMDB
NAME=HMDB:HMDB02818-2138 Alloxan M+H
PI=HMDB
DATACOLLECTOR=HMDB
SMILES=O=C1NC(=O)C(=O)C(=O)N1
INCHI=InChI=1S/C4H2N2O4/c7-1-2(8)5-4(10)6-3(1)9/h(H2,5,6,8,9,10)
INCHIAUX=N/A
PUBMED=N/A
SUBMITUSER=mwang87
TAGS=
LIBRARYQUALITY=3
SPECTRUMID=CCMSLIB00000427211
SCANS=2183
55.0 73.452 
77.0 100.0 
END IONS

BEGIN IONS
PEPMASS=132.066
CHARGE=1+
MSLEVEL=2
SOURCE_INSTRUMENT=Positive-Quattro_QQQ:25eV
FILENAME=hmdb_intermediate.mgf
SEQ=*..*
IONMODE=Positive
ORGANISM=HMDB
NAME=HMDB:HMDB00783-1117 Propionylglycine M+H
PI=HMDB
DATACOLLECTOR=HMDB
SMILES=CCC(=O)NCC(O)=O
INCHI=InChI=1S/C5H9NO3/c1-2-4(7)6-3-5(8)9/h2-3H2,1H3,(H,6,7)(H,8,9)
INCHIAUX=N/A
PUBMED=N/A
SUBMITUSER=mwang87
TAGS=
LIBRARYQUALITY=3
SPECTRUMID=CCMSLIB00000427212
SCANS=2184
57.487 100.0 
END IONS

BEGIN IONS
PEPMASS=184.097
CHARGE=1+
MSLEVEL=2
SOURCE_INSTRUMENT=Positive-Quattro_QQQ:40eV
FILENAME=hmdb_intermediate.mgf
SEQ=*..*
IONMODE=Positive
ORGANISM=HMDB
NAME=HMDB:HMDB00068-110 Epinephrine M+H
PI=HMDB
DATACOLLECTOR=HMDB
SMILES=CNC[C@H](O)C1=CC=C(O)C(O)=C1
INCHI=InChI=1S/C9H13NO3/c1-10-5-9(13)6-2-3-7(11)8(12)4-6/h2-4,9-13H,5H2,1H3/t9-/m0/s1
INCHIAUX=N/A
PUBMED=N/A
SUBMITUSER=mwang87
TAGS=
LIBRARYQUALITY=3
SPECTRUMID=CCMSLIB00000427213
SCANS=2185
77.121 100.0 
END IONS

BEGIN IONS
PEPMASS=103.04
CHARGE=1+
MSLEVEL=2
SOURCE_INSTRUMENT=Negative-Quattro_QQQ:40eV
FILENAME=hmdb_intermediate.mgf
SEQ=*..*
IONMODE=Negative
ORGANISM=HMDB
NAME=HMDB:HMDB00011-18 (R)-3-Hydroxybutyric acid M-H
PI=HMDB
DATACOLLECTOR=HMDB
SMILES=C[C@@H](O)CC(O)=O
INCHI=InChI=1S/C4H8O3/c1-3(5)2-4(6)7/h3,5H,2H2,1H3,(H,6,7)/t3-/m1/s1
INCHIAUX=N/A
PUBMED=N/A
SUBMITUSER=mwang87
TAGS=
LIBRARYQUALITY=3
SPECTRUMID=CCMSLIB00000427214
SCANS=2186
41.316 76.042 
59.224 100.0 
103.014 79.167 
END IONS

BEGIN IONS
PEPMASS=34.0293
CHARGE=1+
MSLEVEL=2
SOURCE_INSTRUMENT=Positive-Quattro_QQQ:25eV
FILENAME=hmdb_intermediate.mgf
SEQ=*..*
IONMODE=Positive
ORGANISM=HMDB
NAME=HMDB:HMDB03338-2252 Hydroxylamine M+H
PI=HMDB
DATACOLLECTOR=HMDB
SMILES=NO
INCHI=InChI=1S/H3NO/c1-2/h2H,1H2
INCHIAUX=N/A
PUBMED=N/A
SUBMITUSER=mwang87
TAGS=
LIBRARYQUALITY=3
SPECTRUMID=CCMSLIB00000427215
SCANS=2187
34.0 100.0 
END IONS

BEGIN IONS
PEPMASS=174.055
CHARGE=1+
MSLEVEL=2
SOURCE_INSTRUMENT=Positive-Quattro_QQQ:10eV
FILENAME=hmdb_intermediate.mgf
SEQ=*..*
IONMODE=Positive
ORGANISM=HMDB
NAME=HMDB:HMDB00842-1187 Quinaldic acid M+H
PI=HMDB
DATACOLLECTOR=HMDB
SMILES=OC(=O)C1=NC2=CC=CC=C2C=C1
INCHI=InChI=1S/C10H7NO2/c12-10(13)9-6-5-7-3-1-2-4-8(7)11-9/h1-6H,(H,12,13)
INCHIAUX=N/A
PUBMED=N/A
SUBMITUSER=mwang87
TAGS=
LIBRARYQUALITY=3
SPECTRUMID=CCMSLIB00000427216
SCANS=2188
133.056 100.0 
133.684 50.611 
173.34 54.072 
173.842 51.063 
END IONS

BEGIN IONS
PEPMASS=178.054
CHARGE=1+
MSLEVEL=2
SOURCE_INSTRUMENT=Positive-Quattro_QQQ:25eV
FILENAME=hmdb_intermediate.mgf
SEQ=*..*
IONMODE=Positive
ORGANISM=HMDB
NAME=HMDB:HMDB01015-1388 N-Formyl-L-methionine M+H
PI=HMDB
DATACOLLECTOR=HMDB
SMILES=CSCC[C@@H](NC=O)C(O)=O
INCHI=InChI=1S/C6H11NO3S/c1-11-3-2-5(6(9)10)7-4-8/h4-5H,2-3H2,1H3,(H,7,8)(H,9,10)/t5-/m1/s1
INCHIAUX=N/A
PUBMED=N/A
SUBMITUSER=mwang87
TAGS=
LIBRARYQUALITY=3
SPECTRUMID=CCMSLIB00000427217
SCANS=2189
61.03 100.0 
83.97 60.09 
END IONS

BEGIN IONS
PEPMASS=117.055
CHARGE=1+
MSLEVEL=2
SOURCE_INSTRUMENT=Positive-Quattro_QQQ:25eV
FILENAME=hmdb_intermediate.mgf
SEQ=*..*
IONMODE=Positive
ORGANISM=HMDB
NAME=HMDB:HMDB00720-1012 Levulinic acid M+H
PI=HMDB
DATACOLLECTOR=HMDB
SMILES=CC(=O)CCC(O)=O
INCHI=InChI=1S/C5H8O3/c1-4(6)2-3-5(7)8/h2-3H2,1H3,(H,7,8)
INCHIAUX=N/A
PUBMED=N/A
SUBMITUSER=mwang87
TAGS=
LIBRARYQUALITY=3
SPECTRUMID=CCMSLIB00000427218
SCANS=2190
41.258 72.727 
71.053 100.0 
114.919 92.562 
END IONS

BEGIN IONS
PEPMASS=343.124
CHARGE=1+
MSLEVEL=2
SOURCE_INSTRUMENT=Positive-Quattro_QQQ:10eV
FILENAME=hmdb_intermediate.mgf
SEQ=*..*
IONMODE=Positive
ORGANISM=HMDB
NAME=HMDB:HMDB00186-292 Alpha-Lactose M+H
PI=HMDB
DATACOLLECTOR=HMDB
SMILES=OC[C@H]1O[C@@H](O[C@H]2[C@H](O)[C@@H](O)[C@@H](O)O[C@@H]2CO)[C@H](O)[C@@H](O)[C@H]1O
INCHI=InChI=1S/C12H22O11/c13-1-3-5(15)6(16)9(19)12(22-3)23-10-4(2-14)21-11(20)8(18)7(10)17/h3-20H,1-2H2/t3-,4-,5+,6+,7-,8-,9-,10-,11+,12+/m1/s1
INCHIAUX=N/A
PUBMED=N/A
SUBMITUSER=mwang87
TAGS=
LIBRARYQUALITY=3
SPECTRUMID=CCMSLIB00000427219
SCANS=2191
162.975 100.0 
END IONS

BEGIN IONS
PEPMASS=119.082
CHARGE=1+
MSLEVEL=2
SOURCE_INSTRUMENT=Positive-Quattro_QQQ:40eV
FILENAME=hmdb_intermediate.mgf
SEQ=*..*
IONMODE=Positive
ORGANISM=HMDB
NAME=HMDB:HMDB02362-2085 2,4-Diaminobutyric acid M+H
PI=HMDB
DATACOLLECTOR=HMDB
SMILES=NCCC(N)C(O)=O
INCHI=InChI=1S/C4H10N2O2/c5-2-1-3(6)4(7)8/h3H,1-2,5-6H2,(H,7,8)
INCHIAUX=N/A
PUBMED=N/A
SUBMITUSER=mwang87
TAGS=
LIBRARYQUALITY=3
SPECTRUMID=CCMSLIB00000427220
SCANS=2192
44.0 55.291 
56.0 100.0 
END IONS

BEGIN IONS
PEPMASS=91.0395
CHARGE=1+
MSLEVEL=2
SOURCE_INSTRUMENT=Positive-Quattro_QQQ:10eV
FILENAME=hmdb_intermediate.mgf
SEQ=*..*
IONMODE=Positive
ORGANISM=HMDB
NAME=HMDB:HMDB00700-975 Hydroxypropionic acid M+H
PI=HMDB
DATACOLLECTOR=HMDB
SMILES=OCCC(O)=O
INCHI=InChI=1S/C3H6O3/c4-2-1-3(5)6/h4H,1-2H2,(H,5,6)
INCHIAUX=N/A
PUBMED=N/A
SUBMITUSER=mwang87
TAGS=
LIBRARYQUALITY=3
SPECTRUMID=CCMSLIB00000427221
SCANS=2193
72.949 100.0 
73.571 74.0 
END IONS

BEGIN IONS
PEPMASS=190.05
CHARGE=1+
MSLEVEL=2
SOURCE_INSTRUMENT=Positive-Quattro_QQQ:10eV
FILENAME=hmdb_intermediate.mgf
SEQ=*..*
IONMODE=Positive
ORGANISM=HMDB
NAME=HMDB:HMDB00715-999 Kynurenic acid M+H
PI=HMDB
DATACOLLECTOR=HMDB
SMILES=OC(=O)C1=CC(=O)C2=CC=CC=C2N1
INCHI=InChI=1S/C10H7NO3/c12-9-5-8(10(13)14)11-7-4-2-1-3-6(7)9/h1-5H,(H,11,12)(H,13,14)
INCHIAUX=N/A
PUBMED=N/A
SUBMITUSER=mwang87
TAGS=
LIBRARYQUALITY=3
SPECTRUMID=CCMSLIB00000427222
SCANS=2194
189.949 100.0 
END IONS

BEGIN IONS
PEPMASS=182.082
CHARGE=1+
MSLEVEL=2
SOURCE_INSTRUMENT=Positive-Quattro_QQQ:40eV
FILENAME=hmdb_intermediate.mgf
SEQ=*..*
IONMODE=Positive
ORGANISM=HMDB
NAME=HMDB:HMDB06050-2468 o-Tyrosine M+H
PI=HMDB
DATACOLLECTOR=HMDB
SMILES=NC(CC1=CC=CC=C1O)C(O)=O
INCHI=InChI=1S/C9H11NO3/c10-7(9(12)13)5-6-3-1-2-4-8(6)11/h1-4,7,11H,5,10H2,(H,12,13)
INCHIAUX=N/A
PUBMED=N/A
SUBMITUSER=mwang87
TAGS=
LIBRARYQUALITY=3
SPECTRUMID=CCMSLIB00000427223
SCANS=2195
91.08 100.0 
119.04 67.2572665017 
END IONS

BEGIN IONS
PEPMASS=227.103
CHARGE=1+
MSLEVEL=2
SOURCE_INSTRUMENT=Positive-Quattro_QQQ:40eV
FILENAME=hmdb_intermediate.mgf
SEQ=*..*
IONMODE=Positive
ORGANISM=HMDB
NAME=HMDB:HMDB00245-417 Porphobilinogen M+H
PI=HMDB
DATACOLLECTOR=HMDB
SMILES=NCC1=C(CC(O)=O)C(CCC(O)=O)=CN1
INCHI=InChI=1S/C10H14N2O4/c11-4-8-7(3-10(15)16)6(5-12-8)1-2-9(13)14/h5,12H,1-4,11H2,(H,13,14)(H,15,16)
INCHIAUX=N/A
PUBMED=N/A
SUBMITUSER=mwang87
TAGS=
LIBRARYQUALITY=3
SPECTRUMID=CCMSLIB00000427224
SCANS=2196
94.109 100.0 
122.02 81.507 
END IONS

BEGIN IONS
PEPMASS=163.076
CHARGE=1+
MSLEVEL=2
SOURCE_INSTRUMENT=Negative-Quattro_QQQ:10eV
FILENAME=hmdb_intermediate.mgf
SEQ=*..*
IONMODE=Negative
ORGANISM=HMDB
NAME=HMDB:HMDB00543-761 Benzenebutanoic acid M-H
PI=HMDB
DATACOLLECTOR=HMDB
SMILES=OC(=O)CCCC1=CC=CC=C1
INCHI=InChI=1S/C10H12O2/c11-10(12)8-4-7-9-5-2-1-3-6-9/h1-3,5-6H,4,7-8H2,(H,11,12)
INCHIAUX=N/A
PUBMED=N/A
SUBMITUSER=mwang87
TAGS=
LIBRARYQUALITY=3
SPECTRUMID=CCMSLIB00000427225
SCANS=2197
163.173 100.0 
END IONS

BEGIN IONS
PEPMASS=213.076
CHARGE=1+
MSLEVEL=2
SOURCE_INSTRUMENT=Positive-Quattro_QQQ:40eV
FILENAME=hmdb_intermediate.mgf
SEQ=*..*
IONMODE=Positive
ORGANISM=HMDB
NAME=HMDB:HMDB00913-1302 Vanillactic acid M+H
PI=HMDB
DATACOLLECTOR=HMDB
SMILES=COC1=CC(CC(O)C(O)=O)=CC=C1O
INCHI=InChI=1S/C10H12O5/c1-15-9-5-6(2-3-7(9)11)4-8(12)10(13)14/h2-3,5,8,11-12H,4H2,1H3,(H,13,14)
INCHIAUX=N/A
PUBMED=N/A
SUBMITUSER=mwang87
TAGS=
LIBRARYQUALITY=3
SPECTRUMID=CCMSLIB00000427226
SCANS=2198
65.0 100.0 
77.0 93.93 
79.0 52.111 
END IONS

BEGIN IONS
PEPMASS=80.05
CHARGE=1+
MSLEVEL=2
SOURCE_INSTRUMENT=Positive-Quattro_QQQ:10eV
FILENAME=hmdb_intermediate.mgf
SEQ=*..*
IONMODE=Positive
ORGANISM=HMDB
NAME=HMDB:HMDB00926-1315 Pyridine M+H
PI=HMDB
DATACOLLECTOR=HMDB
SMILES=C1=CC=NC=C1
INCHI=InChI=1S/C5H5N/c1-2-4-6-5-3-1/h1-5H
INCHIAUX=N/A
PUBMED=N/A
SUBMITUSER=mwang87
TAGS=
LIBRARYQUALITY=3
SPECTRUMID=CCMSLIB00000427227
SCANS=2199
80.085 100.0 
END IONS

BEGIN IONS
PEPMASS=174.055
CHARGE=1+
MSLEVEL=2
SOURCE_INSTRUMENT=Positive-Quattro_QQQ:25eV
FILENAME=hmdb_intermediate.mgf
SEQ=*..*
IONMODE=Positive
ORGANISM=HMDB
NAME=HMDB:HMDB00842-1188 Quinaldic acid M+H
PI=HMDB
DATACOLLECTOR=HMDB
SMILES=OC(=O)C1=NC2=CC=CC=C2C=C1
INCHI=InChI=1S/C10H7NO2/c12-10(13)9-6-5-7-3-1-2-4-8(7)11-9/h1-6H,(H,12,13)
INCHIAUX=N/A
PUBMED=N/A
SUBMITUSER=mwang87
TAGS=
LIBRARYQUALITY=3
SPECTRUMID=CCMSLIB00000427228
SCANS=2200
77.092 100.0 
77.594 65.513 
101.058 98.578 
101.56 77.626 
128.037 94.504 
128.539 73.739 
END IONS

BEGIN IONS
PEPMASS=140.995
CHARGE=1+
MSLEVEL=2
SOURCE_INSTRUMENT=Positive-Quattro_QQQ:40eV
FILENAME=hmdb_intermediate.mgf
SEQ=*..*
IONMODE=Positive
ORGANISM=HMDB
NAME=HMDB:HMDB04110-2366 Phosphonoacetate M+H
PI=HMDB
DATACOLLECTOR=HMDB
SMILES=OC(=O)CP(O)(O)=O
INCHI=InChI=1S/C2H5O5P/c3-2(4)1-8(5,6)7/h1H2,(H,3,4)(H2,5,6,7)
INCHIAUX=N/A
PUBMED=N/A
SUBMITUSER=mwang87
TAGS=
LIBRARYQUALITY=3
SPECTRUMID=CCMSLIB00000427229
SCANS=2201
63.0 63.704 
81.0 100.0 
END IONS

BEGIN IONS
PEPMASS=183.066
CHARGE=1+
MSLEVEL=2
SOURCE_INSTRUMENT=Negative-Quattro_QQQ:10eV
FILENAME=hmdb_intermediate.mgf
SEQ=*..*
IONMODE=Negative
ORGANISM=HMDB
NAME=HMDB:HMDB01490-1607 Vanylglycol M-H
PI=HMDB
DATACOLLECTOR=HMDB
SMILES=COC1=CC(=CC=C1O)C(O)CO
INCHI=InChI=1S/C9H12O4/c1-13-9-4-6(8(12)5-10)2-3-7(9)11/h2-4,8,10-12H,5H2,1H3
INCHIAUX=N/A
PUBMED=N/A
SUBMITUSER=mwang87
TAGS=
LIBRARYQUALITY=3
SPECTRUMID=CCMSLIB00000427230
SCANS=2202
150.0 100.0 
165.0 52.443 
END IONS

BEGIN IONS
PEPMASS=387.363
CHARGE=1+
MSLEVEL=2
SOURCE_INSTRUMENT=Positive-Quattro_QQQ:40eV
FILENAME=hmdb_intermediate.mgf
SEQ=*..*
IONMODE=Positive
ORGANISM=HMDB
NAME=HMDB:HMDB00871-1228 5alpha-Cholestanone M+H
PI=HMDB
DATACOLLECTOR=HMDB
SMILES=[H][C@@]1(CC[C@@]2([H])[C@]3([H])CC[C@@]4([H])CC(=O)CC[C@]4(C)[C@@]3([H])CC[C@]12C)[C@H](C)CCCC(C)C
INCHI=InChI=1S/C27H46O/c1-18(2)7-6-8-19(3)23-11-12-24-22-10-9-20-17-21(28)13-15-26(20,4)25(22)14-16-27(23,24)5/h18-20,22-25H,6-17H2,1-5H3/t19-,20+,22+,23-,24+,25+,26+,27-/m1/s1
INCHIAUX=N/A
PUBMED=N/A
SUBMITUSER=mwang87
TAGS=
LIBRARYQUALITY=3
SPECTRUMID=CCMSLIB00000427231
SCANS=2203
80.82 100.0 
94.69 64.265 
END IONS

BEGIN IONS
PEPMASS=132.077
CHARGE=1+
MSLEVEL=2
SOURCE_INSTRUMENT=Positive-Quattro_QQQ:40eV
FILENAME=hmdb_intermediate.mgf
SEQ=*..*
IONMODE=Positive
ORGANISM=HMDB
NAME=HMDB:HMDB00064-107 Creatine M+H
PI=HMDB
DATACOLLECTOR=HMDB
SMILES=CN(CC(O)=O)C(N)=N
INCHI=InChI=1S/C4H9N3O2/c1-7(4(5)6)2-3(8)9/h2H2,1H3,(H3,5,6)(H,8,9)
INCHIAUX=N/A
PUBMED=N/A
SUBMITUSER=mwang87
TAGS=
LIBRARYQUALITY=3
SPECTRUMID=CCMSLIB00000427232
SCANS=2204
44.015 100.0 
END IONS

BEGIN IONS
PEPMASS=93.034
CHARGE=1+
MSLEVEL=2
SOURCE_INSTRUMENT=Negative-Quattro_QQQ:25eV
FILENAME=hmdb_intermediate.mgf
SEQ=*..*
IONMODE=Negative
ORGANISM=HMDB
NAME=HMDB:HMDB00228-380 Phenol M-H
PI=HMDB
DATACOLLECTOR=HMDB
SMILES=OC1=CC=CC=C1
INCHI=InChI=1S/C6H6O/c7-6-4-2-1-3-5-6/h1-5,7H
INCHIAUX=N/A
PUBMED=N/A
SUBMITUSER=mwang87
TAGS=
LIBRARYQUALITY=3
SPECTRUMID=CCMSLIB00000427233
SCANS=2205
93.0 100.0 
END IONS

BEGIN IONS
PEPMASS=110.061
CHARGE=1+
MSLEVEL=2
SOURCE_INSTRUMENT=Positive-Quattro_QQQ:25eV
FILENAME=hmdb_intermediate.mgf
SEQ=*..*
IONMODE=Positive
ORGANISM=HMDB
NAME=HMDB:HMDB01169-1446 4-Aminophenol M+H
PI=HMDB
DATACOLLECTOR=HMDB
SMILES=NC1=CC=C(O)C=C1
INCHI=InChI=1S/C6H7NO/c7-5-1-3-6(8)4-2-5/h1-4,8H,7H2
INCHIAUX=N/A
PUBMED=N/A
SUBMITUSER=mwang87
TAGS=
LIBRARYQUALITY=3
SPECTRUMID=CCMSLIB00000427234
SCANS=2206
65.0 100.0 
END IONS

BEGIN IONS
PEPMASS=134.045
CHARGE=1+
MSLEVEL=2
SOURCE_INSTRUMENT=Positive-Quattro_QQQ:10eV
FILENAME=hmdb_intermediate.mgf
SEQ=*..*
IONMODE=Positive
ORGANISM=HMDB
NAME=HMDB:HMDB00191-304 L-Aspartic acid M+H
PI=HMDB
DATACOLLECTOR=HMDB
SMILES=N[C@@H](CC(O)=O)C(O)=O
INCHI=InChI=1S/C4H7NO4/c5-2(4(8)9)1-3(6)7/h2H,1,5H2,(H,6,7)(H,8,9)/t2-/m0/s1
INCHIAUX=N/A
PUBMED=N/A
SUBMITUSER=mwang87
TAGS=
LIBRARYQUALITY=3
SPECTRUMID=CCMSLIB00000427235
SCANS=2207
74.043 90.909 
88.015 100.0 
END IONS

BEGIN IONS
PEPMASS=209.097
CHARGE=1+
MSLEVEL=2
SOURCE_INSTRUMENT=Positive-Quattro_QQQ:40eV
FILENAME=hmdb_intermediate.mgf
SEQ=*..*
IONMODE=Positive
ORGANISM=HMDB
NAME=HMDB:HMDB03066-2187 Chalcone M+H
PI=HMDB
DATACOLLECTOR=HMDB
SMILES=O=C(\C=C\C1=CC=CC=C1)C1=CC=CC=C1
INCHI=InChI=1S/C15H12O/c16-15(14-9-5-2-6-10-14)12-11-13-7-3-1-4-8-13/h1-12H/b12-11+
INCHIAUX=N/A
PUBMED=N/A
SUBMITUSER=mwang87
TAGS=
LIBRARYQUALITY=3
SPECTRUMID=CCMSLIB00000427236
SCANS=2208
76.97 100.0 
END IONS

BEGIN IONS
PEPMASS=181.073
CHARGE=1+
MSLEVEL=2
SOURCE_INSTRUMENT=Positive-Quattro_QQQ:40eV
FILENAME=hmdb_intermediate.mgf
SEQ=*..*
IONMODE=Positive
ORGANISM=HMDB
NAME=HMDB:HMDB01889-1794 Theophylline M+H
PI=HMDB
DATACOLLECTOR=HMDB
SMILES=CN1C2=C(NC=N2)C(=O)N(C)C1=O
INCHI=InChI=1S/C7H8N4O2/c1-10-5-4(8-3-9-5)6(12)11(2)7(10)13/h3H,1-2H3,(H,8,9)
INCHIAUX=N/A
PUBMED=N/A
SUBMITUSER=mwang87
TAGS=
LIBRARYQUALITY=3
SPECTRUMID=CCMSLIB00000427237
SCANS=2209
42.379 85.572 
42.504 100.0 
69.296 63.941 
69.546 56.867 
END IONS

BEGIN IONS
PEPMASS=130.05
CHARGE=1+
MSLEVEL=2
SOURCE_INSTRUMENT=Positive-Quattro_QQQ:25eV
FILENAME=hmdb_intermediate.mgf
SEQ=*..*
IONMODE=Positive
ORGANISM=HMDB
NAME=HMDB:HMDB01843-1694 N-Acryloylglycine M+H
PI=HMDB
DATACOLLECTOR=HMDB
SMILES=OC(=O)CNC(=O)C=C
INCHI=InChI=1S/C5H7NO3/c1-2-4(7)6-3-5(8)9/h2H,1,3H2,(H,6,7)(H,8,9)
INCHIAUX=N/A
PUBMED=N/A
SUBMITUSER=mwang87
TAGS=
LIBRARYQUALITY=3
SPECTRUMID=CCMSLIB00000427238
SCANS=2210
55.493 100.0 
END IONS

BEGIN IONS
PEPMASS=665.125
CHARGE=1+
MSLEVEL=2
SOURCE_INSTRUMENT=Positive-Quattro_QQQ:10eV
FILENAME=hmdb_intermediate.mgf
SEQ=*..*
IONMODE=Positive
ORGANISM=HMDB
NAME=HMDB:HMDB00902-1280 NAD M+H
PI=HMDB
DATACOLLECTOR=HMDB
SMILES=NC(=O)C1=C[N+](=CC=C1)[C@@H]1O[C@H](COP(O)(=O)OP(O)(=O)OC[C@H]2O[C@H]([C@H](O)[C@@H]2O)N2C=NC3=C2N=CN=C3N)[C@@H](O)[C@H]1O
INCHI=InChI=1S/C21H27N7O14P2/c22-17-12-19(25-7-24-17)28(8-26-12)21-16(32)14(30)11(41-21)6-39-44(36,37)42-43(34,35)38-5-10-13(29)15(31)20(40-10)27-3-1-2-9(4-27)18(23)33/h1-4,7-8,10-11,13-16,20-21,29-32H,5-6H2,(H5-,22,23,24,25,33,34,35,36,37)/p+1/t10-,11-,13-,14-,15-,16-,20-,21-/m1/s1
INCHIAUX=N/A
PUBMED=N/A
SUBMITUSER=mwang87
TAGS=
LIBRARYQUALITY=3
SPECTRUMID=CCMSLIB00000427239
SCANS=2211
664.0 100.0 
END IONS

BEGIN IONS
PEPMASS=140.995
CHARGE=1+
MSLEVEL=2
SOURCE_INSTRUMENT=Positive-Quattro_QQQ:25eV
FILENAME=hmdb_intermediate.mgf
SEQ=*..*
IONMODE=Positive
ORGANISM=HMDB
NAME=HMDB:HMDB01494-1614 Acetylphosphate M+H
PI=HMDB
DATACOLLECTOR=HMDB
SMILES=CC(=O)OP(O)(O)=O
INCHI=InChI=1S/C2H5O5P/c1-2(3)7-8(4,5)6/h1H3,(H2,4,5,6)
INCHIAUX=N/A
PUBMED=N/A
SUBMITUSER=mwang87
TAGS=
LIBRARYQUALITY=3
SPECTRUMID=CCMSLIB00000427240
SCANS=2212
76.0 100.0 
77.0 52.579 
END IONS

BEGIN IONS
PEPMASS=153.019
CHARGE=1+
MSLEVEL=2
SOURCE_INSTRUMENT=Negative-Quattro_QQQ:25eV
FILENAME=hmdb_intermediate.mgf
SEQ=*..*
IONMODE=Negative
ORGANISM=HMDB
NAME=HMDB:HMDB00397-604 2-Pyrocatechuic acid M-H
PI=HMDB
DATACOLLECTOR=HMDB
SMILES=OC(=O)C1=CC=CC(O)=C1O
INCHI=InChI=1S/C7H6O4/c8-5-3-1-2-4(6(5)9)7(10)11/h1-3,8-9H,(H,10,11)
INCHIAUX=N/A
PUBMED=N/A
SUBMITUSER=mwang87
TAGS=
LIBRARYQUALITY=3
SPECTRUMID=CCMSLIB00000427241
SCANS=2213
108.325 100.0 
109.378 54.167 
END IONS

BEGIN IONS
PEPMASS=192.069
CHARGE=1+
MSLEVEL=2
SOURCE_INSTRUMENT=Positive-Quattro_QQQ:25eV
FILENAME=hmdb_intermediate.mgf
SEQ=*..*
IONMODE=Positive
ORGANISM=HMDB
NAME=HMDB:HMDB11745-2500 N-Acetyl-L-methionine M+H
PI=HMDB
DATACOLLECTOR=HMDB
SMILES=CSCCC(NC(C)=O)C(O)=O
INCHI=InChI=1S/C7H13NO3S/c1-5(9)8-6(7(10)11)3-4-12-2/h6H,3-4H2,1-2H3,(H,8,9)(H,10,11)
INCHIAUX=N/A
PUBMED=N/A
SUBMITUSER=mwang87
TAGS=
LIBRARYQUALITY=3
SPECTRUMID=CCMSLIB00000427242
SCANS=2214
104.04 53.7562382265 
133.08 50.2682080764 
144.12 100.0 
END IONS

BEGIN IONS
PEPMASS=118.087
CHARGE=1+
MSLEVEL=2
SOURCE_INSTRUMENT=Positive-Quattro_QQQ:10eV
FILENAME=hmdb_intermediate.mgf
SEQ=*..*
IONMODE=Positive
ORGANISM=HMDB
NAME=HMDB:HMDB03355-2262 5-Aminopentanoic acid M+H
PI=HMDB
DATACOLLECTOR=HMDB
SMILES=NCCCCC(O)=O
INCHI=InChI=1S/C5H11NO2/c6-4-2-1-3-5(7)8/h1-4,6H2,(H,7,8)
INCHIAUX=N/A
PUBMED=N/A
SUBMITUSER=mwang87
TAGS=
LIBRARYQUALITY=3
SPECTRUMID=CCMSLIB00000427243
SCANS=2215
101.0 100.0 
END IONS

BEGIN IONS
PEPMASS=143.009
CHARGE=1+
MSLEVEL=2
SOURCE_INSTRUMENT=Positive-Quattro_QQQ:40eV
FILENAME=hmdb_intermediate.mgf
SEQ=*..*
IONMODE=Positive
ORGANISM=HMDB
NAME=HMDB:HMDB02818-2139 Alloxan M+H
PI=HMDB
DATACOLLECTOR=HMDB
SMILES=O=C1NC(=O)C(=O)C(=O)N1
INCHI=InChI=1S/C4H2N2O4/c7-1-2(8)5-4(10)6-3(1)9/h(H2,5,6,8,9,10)
INCHIAUX=N/A
PUBMED=N/A
SUBMITUSER=mwang87
TAGS=
LIBRARYQUALITY=3
SPECTRUMID=CCMSLIB00000427244
SCANS=2216
40.0 100.0 
60.0 61.016 
END IONS

BEGIN IONS
PEPMASS=117.019
CHARGE=1+
MSLEVEL=2
SOURCE_INSTRUMENT=Negative-Quattro_QQQ:25eV
FILENAME=hmdb_intermediate.mgf
SEQ=*..*
IONMODE=Negative
ORGANISM=HMDB
NAME=HMDB:HMDB00202-326 Methylmalonic acid M-H
PI=HMDB
DATACOLLECTOR=HMDB
SMILES=CC(C(O)=O)C(O)=O
INCHI=InChI=1S/C4H6O4/c1-2(3(5)6)4(7)8/h2H,1H3,(H,5,6)(H,7,8)
INCHIAUX=N/A
PUBMED=N/A
SUBMITUSER=mwang87
TAGS=
LIBRARYQUALITY=3
SPECTRUMID=CCMSLIB00000427245
SCANS=2217
55.476 84.034 
73.296 100.0 
END IONS

BEGIN IONS
PEPMASS=165.076
CHARGE=1+
MSLEVEL=2
SOURCE_INSTRUMENT=Positive-Quattro_QQQ:40eV
FILENAME=hmdb_intermediate.mgf
SEQ=*..*
IONMODE=Positive
ORGANISM=HMDB
NAME=HMDB:HMDB00174-276 L-Fucose M+H
PI=HMDB
DATACOLLECTOR=HMDB
SMILES=C[C@@H]1OC(O)[C@@H](O)[C@H](O)[C@@H]1O
INCHI=InChI=1S/C6H12O5/c1-2-3(7)4(8)5(9)6(10)11-2/h2-10H,1H3/t2-,3+,4+,5-,6?/m0/s1
INCHIAUX=N/A
PUBMED=N/A
SUBMITUSER=mwang87
TAGS=
LIBRARYQUALITY=3
SPECTRUMID=CCMSLIB00000427246
SCANS=2218
69.0 100.0 
END IONS

BEGIN IONS
PEPMASS=167.071
CHARGE=1+
MSLEVEL=2
SOURCE_INSTRUMENT=Positive-Quattro_QQQ:25eV
FILENAME=hmdb_intermediate.mgf
SEQ=*..*
IONMODE=Positive
ORGANISM=HMDB
NAME=HMDB:HMDB02229-2041 3-Phenoxypropionic acid M+H
PI=HMDB
DATACOLLECTOR=HMDB
SMILES=OC(=O)CCOC1=CC=CC=C1
INCHI=InChI=1S/C9H10O3/c10-9(11)6-7-12-8-4-2-1-3-5-8/h1-5H,6-7H2,(H,10,11)
INCHIAUX=N/A
PUBMED=N/A
SUBMITUSER=mwang87
TAGS=
LIBRARYQUALITY=3
SPECTRUMID=CCMSLIB00000427247
SCANS=2219
85.0 100.0 
END IONS

BEGIN IONS
PEPMASS=120.066
CHARGE=1+
MSLEVEL=2
SOURCE_INSTRUMENT=Positive-Quattro_QQQ:40eV
FILENAME=hmdb_intermediate.mgf
SEQ=*..*
IONMODE=Positive
ORGANISM=HMDB
NAME=HMDB:HMDB00167-265 L-Threonine M+H
PI=HMDB
DATACOLLECTOR=HMDB
SMILES=C[C@@H](O)[C@H](N)C(O)=O
INCHI=InChI=1S/C4H9NO3/c1-2(6)3(5)4(7)8/h2-3,6H,5H2,1H3,(H,7,8)/t2-,3+/m1/s1
INCHIAUX=N/A
PUBMED=N/A
SUBMITUSER=mwang87
TAGS=
LIBRARYQUALITY=3
SPECTRUMID=CCMSLIB00000427248
SCANS=2220
56.175 100.0 
END IONS

BEGIN IONS
PEPMASS=667.23
CHARGE=1+
MSLEVEL=2
SOURCE_INSTRUMENT=Positive-Quattro_QQQ:10eV
FILENAME=hmdb_intermediate.mgf
SEQ=*..*
IONMODE=Positive
ORGANISM=HMDB
NAME=HMDB:HMDB01296-1507 Maltotetraose M+H
PI=HMDB
DATACOLLECTOR=HMDB
SMILES=OC[C@H]1O[C@H](O[C@H]2[C@H](O)[C@@H](O)[C@@H](O[C@H]3[C@H](O)[C@@H](O)[C@@H](O[C@H]4[C@H](O)[C@@H](O)C(O)O[C@@H]4CO)O[C@@H]3CO)O[C@@H]2CO)[C@H](O)[C@@H](O)[C@@H]1O
INCHI=InChI=1S/C24H42O21/c25-1-5-9(29)10(30)15(35)22(40-5)44-19-7(3-27)42-24(17(37)12(19)32)45-20-8(4-28)41-23(16(36)13(20)33)43-18-6(2-26)39-21(38)14(34)11(18)31/h5-38H,1-4H2/t5-,6-,7-,8-,9-,10+,11-,12-,13-,14-,15-,16-,17-,18-,19-,20-,21?,22-,23-,24-/m1/s1
INCHIAUX=N/A
PUBMED=N/A
SUBMITUSER=mwang87
TAGS=
LIBRARYQUALITY=3
SPECTRUMID=CCMSLIB00000427249
SCANS=2221
325.0 100.0 
487.0 89.258 
END IONS

BEGIN IONS
PEPMASS=273.185
CHARGE=1+
MSLEVEL=2
SOURCE_INSTRUMENT=Positive-Quattro_QQQ:25eV
FILENAME=hmdb_intermediate.mgf
SEQ=*..*
IONMODE=Positive
ORGANISM=HMDB
NAME=HMDB:HMDB00429-633 17a-Estradiol M+H
PI=HMDB
DATACOLLECTOR=HMDB
SMILES=[H][C@@]12CC[C@@H](O)[C@@]1(C)CC[C@]1([H])C3=C(CC[C@@]21[H])C=C(O)C=C3
INCHI=InChI=1S/C18H24O2/c1-18-9-8-14-13-5-3-12(19)10-11(13)2-4-15(14)16(18)6-7-17(18)20/h3,5,10,14-17,19-20H,2,4,6-9H2,1H3/t14-,15-,16+,17-,18+/m1/s1
INCHIAUX=N/A
PUBMED=N/A
SUBMITUSER=mwang87
TAGS=
LIBRARYQUALITY=3
SPECTRUMID=CCMSLIB00000427250
SCANS=2222
80.0 83.605 
106.0 100.0 
END IONS

BEGIN IONS
PEPMASS=313.238
CHARGE=1+
MSLEVEL=2
SOURCE_INSTRUMENT=Negative-Quattro_QQQ:10eV
FILENAME=hmdb_intermediate.mgf
SEQ=*..*
IONMODE=Negative
ORGANISM=HMDB
NAME=HMDB:HMDB00782-1113 Octadecanedioic acid M-H
PI=HMDB
DATACOLLECTOR=HMDB
SMILES=OC(=O)CCCCCCCCCCCCCCCCC(O)=O
INCHI=InChI=1S/C18H34O4/c19-17(20)15-13-11-9-7-5-3-1-2-4-6-8-10-12-14-16-18(21)22/h1-16H2,(H,19,20)(H,21,22)
INCHIAUX=N/A
PUBMED=N/A
SUBMITUSER=mwang87
TAGS=
LIBRARYQUALITY=3
SPECTRUMID=CCMSLIB00000427251
SCANS=2223
313.0 100.0 
END IONS

BEGIN IONS
PEPMASS=103.04
CHARGE=1+
MSLEVEL=2
SOURCE_INSTRUMENT=Negative-Quattro_QQQ:25eV
FILENAME=hmdb_intermediate.mgf
SEQ=*..*
IONMODE=Negative
ORGANISM=HMDB
NAME=HMDB:HMDB00011-17 (R)-3-Hydroxybutyric acid M-H
PI=HMDB
DATACOLLECTOR=HMDB
SMILES=C[C@@H](O)CC(O)=O
INCHI=InChI=1S/C4H8O3/c1-3(5)2-4(6)7/h3,5H,2H2,1H3,(H,6,7)/t3-/m1/s1
INCHIAUX=N/A
PUBMED=N/A
SUBMITUSER=mwang87
TAGS=
LIBRARYQUALITY=3
SPECTRUMID=CCMSLIB00000427252
SCANS=2224
59.07 100.0 
END IONS

BEGIN IONS
PEPMASS=86.0606
CHARGE=1+
MSLEVEL=2
SOURCE_INSTRUMENT=Positive-Quattro_QQQ:40eV
FILENAME=hmdb_intermediate.mgf
SEQ=*..*
IONMODE=Positive
ORGANISM=HMDB
NAME=HMDB:HMDB02039-1961 2-Pyrrolidinone M+H
PI=HMDB
DATACOLLECTOR=HMDB
SMILES=O=C1CCCN1
INCHI=InChI=1S/C4H7NO/c6-4-2-1-3-5-4/h1-3H2,(H,5,6)
INCHIAUX=N/A
PUBMED=N/A
SUBMITUSER=mwang87
TAGS=
LIBRARYQUALITY=3
SPECTRUMID=CCMSLIB00000427253
SCANS=2225
44.0 100.0 
END IONS

BEGIN IONS
PEPMASS=181.071
CHARGE=1+
MSLEVEL=2
SOURCE_INSTRUMENT=Positive-Quattro_QQQ:25eV
FILENAME=hmdb_intermediate.mgf
SEQ=*..*
IONMODE=Positive
ORGANISM=HMDB
NAME=HMDB:HMDB03418-2299 D-Tagatose M+H
PI=HMDB
DATACOLLECTOR=HMDB
SMILES=OC[C@@H](O)[C@H](O)[C@H](O)C(=O)CO
INCHI=InChI=1S/C6H12O6/c7-1-3(9)5(11)6(12)4(10)2-8/h3,5-9,11-12H,1-2H2/t3-,5+,6-/m1/s1
INCHIAUX=N/A
PUBMED=N/A
SUBMITUSER=mwang87
TAGS=
LIBRARYQUALITY=3
SPECTRUMID=CCMSLIB00000427254
SCANS=2226
67.0 100.0 
95.97 53.189 
98.67 94.764 
END IONS

BEGIN IONS
PEPMASS=151.04
CHARGE=1+
MSLEVEL=2
SOURCE_INSTRUMENT=Negative-Quattro_QQQ:10eV
FILENAME=hmdb_intermediate.mgf
SEQ=*..*
IONMODE=Negative
ORGANISM=HMDB
NAME=HMDB:HMDB00703-981 Mandelic acid M-H
PI=HMDB
DATACOLLECTOR=HMDB
SMILES=O[C@H](C(O)=O)C1=CC=CC=C1
INCHI=InChI=1S/C8H8O3/c9-7(8(10)11)6-4-2-1-3-5-6/h1-5,7,9H,(H,10,11)/t7-/m0/s1
INCHIAUX=N/A
PUBMED=N/A
SUBMITUSER=mwang87
TAGS=
LIBRARYQUALITY=3
SPECTRUMID=CCMSLIB00000427255
SCANS=2227
107.005 77.551 
150.918 100.0 
END IONS

BEGIN IONS
PEPMASS=183.087
CHARGE=1+
MSLEVEL=2
SOURCE_INSTRUMENT=Positive-Quattro_QQQ:25eV
FILENAME=hmdb_intermediate.mgf
SEQ=*..*
IONMODE=Positive
ORGANISM=HMDB
NAME=HMDB:HMDB00765-1102 Mannitol M+H
PI=HMDB
DATACOLLECTOR=HMDB
SMILES=OC[C@@H](O)[C@@H](O)[C@H](O)[C@H](O)CO
INCHI=InChI=1S/C6H14O6/c7-1-3(9)5(11)6(12)4(10)2-8/h3-12H,1-2H2/t3-,4-,5-,6-/m1/s1
INCHIAUX=N/A
PUBMED=N/A
SUBMITUSER=mwang87
TAGS=
LIBRARYQUALITY=3
SPECTRUMID=CCMSLIB00000427256
SCANS=2228
69.148 100.0 
END IONS

BEGIN IONS
PEPMASS=196.061
CHARGE=1+
MSLEVEL=2
SOURCE_INSTRUMENT=Positive-Quattro_QQQ:25eV
FILENAME=hmdb_intermediate.mgf
SEQ=*..*
IONMODE=Positive
ORGANISM=HMDB
NAME=HMDB:HMDB00840-1185 Salicyluric acid M+H
PI=HMDB
DATACOLLECTOR=HMDB
SMILES=OC(=O)CNC(=O)C1=CC=CC=C1O
INCHI=InChI=1S/C9H9NO4/c11-7-4-2-1-3-6(7)9(14)10-5-8(12)13/h1-4,11H,5H2,(H,10,14)(H,12,13)
INCHIAUX=N/A
PUBMED=N/A
SUBMITUSER=mwang87
TAGS=
LIBRARYQUALITY=3
SPECTRUMID=CCMSLIB00000427257
SCANS=2229
120.94 100.0 
END IONS

BEGIN IONS
PEPMASS=209.093
CHARGE=1+
MSLEVEL=2
SOURCE_INSTRUMENT=Positive-Quattro_QQQ:40eV
FILENAME=hmdb_intermediate.mgf
SEQ=*..*
IONMODE=Positive
ORGANISM=HMDB
NAME=HMDB:HMDB00684-950 L-Kynurenine M+H
PI=HMDB
DATACOLLECTOR=HMDB
SMILES=N[C@@H](CC(=O)C1=CC=CC=C1N)C(O)=O
INCHI=InChI=1S/C10H12N2O3/c11-7-4-2-1-3-6(7)9(13)5-8(12)10(14)15/h1-4,8H,5,11-12H2,(H,14,15)/t8-/m0/s1
INCHIAUX=N/A
PUBMED=N/A
SUBMITUSER=mwang87
TAGS=
LIBRARYQUALITY=3
SPECTRUMID=CCMSLIB00000427258
SCANS=2230
91.106 100.0 
END IONS

BEGIN IONS
PEPMASS=246.171
CHARGE=1+
MSLEVEL=2
SOURCE_INSTRUMENT=Positive-Quattro_QQQ:10eV
FILENAME=hmdb_intermediate.mgf
SEQ=*..*
IONMODE=Positive
ORGANISM=HMDB
NAME=HMDB:HMDB00378-591 2-Methylbutyroylcarnitine M+H
PI=HMDB
DATACOLLECTOR=HMDB
SMILES=CCC(C)C(=O)OC(CC([O-])=O)C[N+](C)(C)C
INCHI=InChI=1S/C12H23NO4/c1-6-9(2)12(16)17-10(7-11(14)15)8-13(3,4)5/h9-10H,6-8H2,1-5H3
INCHIAUX=N/A
PUBMED=N/A
SUBMITUSER=mwang87
TAGS=
LIBRARYQUALITY=3
SPECTRUMID=CCMSLIB00000427259
SCANS=2231
85.312 98.039 
187.113 56.078 
246.151 100.0 
END IONS

BEGIN IONS
PEPMASS=291.087
CHARGE=1+
MSLEVEL=2
SOURCE_INSTRUMENT=Positive-Quattro_QQQ:25eV
FILENAME=hmdb_intermediate.mgf
SEQ=*..*
IONMODE=Positive
ORGANISM=HMDB
NAME=HMDB:HMDB01871-1760 Epicatechin M+H
PI=HMDB
DATACOLLECTOR=HMDB
SMILES=O[C@@H]1CC2=C(O)C=C(O)C=C2O[C@@H]1C1=CC(O)=C(O)C=C1
INCHI=InChI=1S/C15H14O6/c16-8-4-11(18)9-6-13(20)15(21-14(9)5-8)7-1-2-10(17)12(19)3-7/h1-5,13,15-20H,6H2/t13-,15-/m1/s1
INCHIAUX=N/A
PUBMED=N/A
SUBMITUSER=mwang87
TAGS=
LIBRARYQUALITY=3
SPECTRUMID=CCMSLIB00000427260
SCANS=2232
139.107 100.0 
END IONS

BEGIN IONS
PEPMASS=181.073
CHARGE=1+
MSLEVEL=2
SOURCE_INSTRUMENT=Positive-Quattro_QQQ:25eV
FILENAME=hmdb_intermediate.mgf
SEQ=*..*
IONMODE=Positive
ORGANISM=HMDB
NAME=HMDB:HMDB01889-1793 Theophylline M+H
PI=HMDB
DATACOLLECTOR=HMDB
SMILES=CN1C2=C(NC=N2)C(=O)N(C)C1=O
INCHI=InChI=1S/C7H8N4O2/c1-10-5-4(8-3-9-5)6(12)11(2)7(10)13/h3H,1-2H3,(H,8,9)
INCHIAUX=N/A
PUBMED=N/A
SUBMITUSER=mwang87
TAGS=
LIBRARYQUALITY=3
SPECTRUMID=CCMSLIB00000427261
SCANS=2233
123.383 53.894 
123.757 100.0 
124.505 67.335 
END IONS

BEGIN IONS
PEPMASS=222.098
CHARGE=1+
MSLEVEL=2
SOURCE_INSTRUMENT=Positive-Quattro_QQQ:40eV
FILENAME=hmdb_intermediate.mgf
SEQ=*..*
IONMODE=Positive
ORGANISM=HMDB
NAME=HMDB:HMDB00212-348 N-Acetylgalactosamine M+H
PI=HMDB
DATACOLLECTOR=HMDB
SMILES=CC(=O)N[C@H]1[C@@H](O)O[C@H](CO)[C@H](O)[C@@H]1O
INCHI=InChI=1S/C8H15NO6/c1-3(11)9-5-7(13)6(12)4(2-10)15-8(5)14/h4-8,10,12-14H,2H2,1H3,(H,9,11)/t4-,5-,6+,7-,8+/m1/s1
INCHIAUX=N/A
PUBMED=N/A
SUBMITUSER=mwang87
TAGS=
LIBRARYQUALITY=3
SPECTRUMID=CCMSLIB00000427262
SCANS=2234
84.259 100.0 
96.335 71.967 
END IONS

BEGIN IONS
PEPMASS=305.098
CHARGE=1+
MSLEVEL=2
SOURCE_INSTRUMENT=Positive-Quattro_QQQ:25eV
FILENAME=hmdb_intermediate.mgf
SEQ=*..*
IONMODE=Positive
ORGANISM=HMDB
NAME=HMDB:HMDB01067-1413 N-Acetylaspartylglutamic acid M+H
PI=HMDB
DATACOLLECTOR=HMDB
SMILES=CC(=O)NC(CC(O)=O)C(=O)NC(CCC(O)=O)C(O)=O
INCHI=InChI=1S/C11H16N2O8/c1-5(14)12-7(4-9(17)18)10(19)13-6(11(20)21)2-3-8(15)16/h6-7H,2-4H2,1H3,(H,12,14)(H,13,19)(H,15,16)(H,17,18)(H,20,21)
INCHIAUX=N/A
PUBMED=N/A
SUBMITUSER=mwang87
TAGS=
LIBRARYQUALITY=3
SPECTRUMID=CCMSLIB00000427263
SCANS=2235
84.0 64.31 
88.0 100.0 
130.0 55.671 
END IONS

